ITEM: TIMESTEP
0
ITEM: NUMBER OF ATOMS
102
ITEM: BOX BOUNDS xy xz yz pp pp pp
-4.5631645421096945e+00 1.6134727747926796e+01 5.8671463040724105e-02
1.0155225523931097e-01 8.0353986749083077e+00 -3.9851082572236773e+00
-1.7964667272235374e-01 1.2070504631635528e+01 5.5550930147612809e-02
ITEM: ATOMS id type x y z
24 1 -0.992957 3.89537 1.88041
1 1 -0.116334 0.23251 1.93924
35 1 2.07511 1.68899 1.16556
95 2 3.64401 2.64282 2.99927
20 1 3.5984 4.03554 0.637709
30 1 1.55538 4.05749 2.77517
94 2 0.972258 4.0332 0.278707
43 1 5.13809 1.64131 1.06599
59 1 5.90439 1.57746 3.77447
78 1 7.75898 2.07151 -0.0789227
34 1 5.71069 4.03644 2.53819
90 2 6.24016 4.05306 0.140415
28 1 9.8531 0.11834 2.77517
42 1 10.3406 2.46115 1.20873
102 2 11.8896 1.48353 3.0213
7 1 11.8443 4.0384 3.0012
50 1 13.4182 2.48558 1.0291
66 1 14.0229 2.51449 3.80595
88 2 14.5379 0.113917 0.140415
77 1 -0.538744 6.01066 -0.0789227
5 1 3.54661 7.97754 3.0012
40 1 2.04284 6.4003 1.20873
100 2 3.59185 5.42268 3.0213
22 1 7.36344 7.83452 1.88041
48 1 5.12047 6.42472 1.0291
64 1 5.72521 6.45364 3.80595
18 1 11.9548 7.97469 0.637709
92 2 9.32865 7.97235 0.278707
3 1 8.24006 4.17166 1.93924
37 1 10.4315 5.62814 1.16556
32 1 14.0671 7.97558 2.53819
45 1 13.4945 5.58046 1.06599
61 1 14.2608 5.51661 3.77447
97 2 12.0004 6.58196 2.99927
13 1 -1.55907 0.184815 6.89054
79 2 -0.978049 0.26598 4.4532
9 1 1.21921 0.163236 6.28356
51 1 1.29794 1.64289 3.9507
57 1 1.91723 2.55492 7.94016
67 1 3.51174 1.60521 5.47817
73 1 -0.29657 2.59259 6.41269
83 2 3.60128 0.387828 7.67784
12 1 1.99596 4.03457 5.60729
86 2 -0.386106 3.80998 4.21302
82 2 4.19322 3.93182 7.43766
16 1 4.77424 4.01299 5.00032
52 1 10.3239 1.60406 7.89907
58 1 9.54535 2.59374 3.99179
68 1 8.03531 1.65902 6.28472
74 1 11.834 2.53879 5.60614
26 1 14.1128 4.06848 5.94543
54 1 2.02621 5.54321 7.89907
56 1 1.24763 6.53289 3.99179
70 1 -0.262409 5.59816 6.28472
72 1 3.53625 6.47793 5.60614
15 1 6.79732 4.12396 6.89054
25 1 5.81512 8.00762 5.94543
81 2 7.37834 4.20513 4.4532
10 1 10.3524 7.97371 5.60729
11 1 9.5756 4.10238 6.28356
84 2 7.97029 7.74912 4.21302
85 2 11.9577 4.32698 7.67784
53 1 9.65433 5.58203 3.9507
55 1 10.2736 6.49406 7.94016
69 1 11.8681 5.54436 5.47817
71 1 8.05982 6.53174 6.41269
14 1 13.1306 7.95214 5.00032
80 2 12.5496 7.87097 7.43766
31 1 -2.49552 0.161366 9.35267
49 1 -1.92292 2.55649 10.8249
65 1 -2.68921 2.62035 8.11638
101 2 -0.428837 1.55499 8.89159
4 1 3.33151 3.96529 9.95162
17 1 -0.383227 0.162262 11.2531
41 1 1.14006 2.50881 10.7253
91 2 2.24291 0.164605 11.6122
21 1 4.20813 0.30243 10.0104
44 1 6.45109 1.71223 10.8618
60 1 5.84635 1.68332 8.0849
6 1 8.02496 0.159406 8.88966
36 1 9.52872 1.73665 10.6821
96 2 7.97972 2.71427 8.86955
75 1 12.1103 2.12629 11.9698
87 2 -2.96632 8.02303 11.7504
46 1 -1.84663 5.65137 10.8618
62 1 -2.45137 5.62246 8.0849
8 1 -0.272763 4.09855 8.88966
27 1 1.71846 8.01861 9.11569
98 2 -0.318004 6.65342 8.86955
38 1 1.231 5.6758 10.6821
76 1 3.81259 6.06544 11.9698
33 1 5.86087 4.10051 9.35267
47 1 6.43347 6.49564 10.8249
63 1 5.66718 6.55949 8.11638
89 2 5.3314 4.08389 11.7504
2 1 11.6879 7.90444 9.95162
29 1 10.0162 4.07946 9.11569
19 1 7.97317 4.10141 11.2531
39 1 9.49645 6.44796 10.7253
93 2 10.5993 4.10375 11.6122
99 2 7.92756 5.49414 8.89159
23 1 12.5645 4.24158 10.0104
ITEM: TIMESTEP
100
ITEM: NUMBER OF ATOMS
102
ITEM: BOX BOUNDS xy xz yz pp pp pp
-4.6199110570612625e+00 1.6164903574110092e+01 7.1229865378058310e-02
8.2475382707155820e-02 8.0781373743530018e+00 -4.0242373483292688e+00
-2.0954187454614193e-01 1.2100399833459310e+01 7.9212757060155958e-02
ITEM: ATOMS id type x y z
24 1 -1.13807 3.91645 1.82336
1 1 -0.175697 0.227959 2.00103
35 1 2.07251 1.66495 1.26615
95 2 3.58199 2.67643 2.98423
20 1 3.5378 4.11024 0.659782
30 1 1.41284 4.04434 2.81077
94 2 0.932004 4.02696 0.287017
43 1 5.21237 1.62383 0.936823
59 1 6.06196 1.59752 3.76442
78 1 7.79515 2.06481 -0.19096
34 1 5.65407 4.07192 2.5047
90 2 6.2242 4.04855 0.066273
28 1 9.82141 0.0710295 2.7427
42 1 10.3611 2.43903 1.1196
102 2 11.8345 1.47169 3.07982
7 1 11.7008 4.02773 3.06754
50 1 13.3425 2.50246 1.03418
66 1 13.9499 2.49755 3.79674
88 2 14.5348 0.0438965 0.140619
77 1 -0.562966 6.05557 -0.0975257
5 1 3.479 8.07358 2.99056
40 1 1.97139 6.32149 1.17878
100 2 3.49601 5.44263 3.04392
22 1 7.38914 7.84487 1.8535
48 1 5.19771 6.43167 0.92974
64 1 5.73762 6.52663 3.74157
18 1 11.9916 7.94027 0.614765
92 2 9.35769 7.94546 0.238298
3 1 8.21528 4.13689 1.87581
37 1 10.4448 5.54834 1.10614
32 1 14.0444 7.95284 2.53533
45 1 13.4942 5.64476 1.12813
61 1 14.2001 5.4569 3.74196
97 2 11.9231 6.50602 2.97048
13 1 -1.63953 0.175767 6.90502
79 2 -1.02018 0.299078 4.54519
9 1 1.13109 0.143106 6.30786
51 1 1.20391 1.60899 4.02684
57 1 1.93784 2.50409 7.96884
67 1 3.50416 1.62418 5.43478
73 1 -0.327031 2.65077 6.54314
83 2 3.66513 0.378058 7.57682
12 1 1.98905 4.05112 5.53213
86 2 -0.471188 3.79529 4.31037
82 2 4.19821 3.98695 7.35421
16 1 4.77939 4.09902 4.93817
52 1 10.3279 1.67712 7.84261
58 1 9.37325 2.60591 3.91906
68 1 8.04592 1.62835 6.23119
74 1 11.8624 2.60964 5.53232
26 1 14.0883 4.08003 5.96371
54 1 2.07405 5.54265 7.88091
56 1 1.20386 6.59019 4.01625
70 1 -0.27836 5.6078 6.28862
72 1 3.48553 6.53059 5.65695
15 1 6.69575 4.12694 6.91191
25 1 5.81903 8.00852 5.8929
81 2 7.38026 4.31052 4.43716
10 1 10.4245 7.99582 5.5954
11 1 9.61207 4.03822 6.33741
84 2 7.99201 7.6805 4.19237
85 2 11.9403 4.40043 7.65263
53 1 9.66739 5.62179 3.91512
55 1 10.2507 6.54026 7.94515
69 1 11.845 5.62153 5.44484
71 1 8.10032 6.50042 6.31876
14 1 13.1116 7.96973 5.0041
80 2 12.4619 7.89811 7.4534
31 1 -2.50192 0.233621 9.41231
49 1 -1.98139 2.50884 10.9055
65 1 -2.70193 2.71889 8.18669
101 2 -0.378004 1.4826 8.9442
4 1 3.31597 4.03287 9.97927
17 1 -0.358163 0.142219 11.2574
41 1 1.20315 2.54063 10.7388
91 2 2.26234 0.125336 11.6099
21 1 4.26872 0.275908 10.036
44 1 6.44936 1.77059 10.8572
60 1 5.85681 1.73083 8.03348
6 1 8.07333 0.227039 8.89423
36 1 9.52483 1.72941 10.6985
96 2 8.02937 2.77362 8.83821
75 1 12.0329 2.13776 12.0734
87 2 -3.00385 8.0348 11.821
46 1 -1.8513 5.68012 10.9088
62 1 -2.51513 5.61431 8.21687
8 1 -0.308984 4.1062 8.97529
27 1 1.80002 8.00206 9.1132
98 2 -0.30418 6.67271 8.87649
38 1 1.28043 5.74061 10.7227
76 1 3.87299 6.03222 11.9405
33 1 5.88468 4.14282 9.322
47 1 6.43199 6.47204 10.8864
63 1 5.60956 6.72659 8.13934
89 2 5.32858 4.09409 11.7665
2 1 11.7427 7.9843 9.91947
29 1 10.0427 4.09711 9.15435
19 1 8.01715 4.12887 11.3427
39 1 9.54323 6.54021 10.6753
93 2 10.5329 4.1155 11.6579
99 2 7.97149 5.55101 8.83003
23 1 12.5504 4.30577 10.0916
ITEM: TIMESTEP
200
ITEM: NUMBER OF ATOMS
102
ITEM: BOX BOUNDS xy xz yz pp pp pp
-4.5832788898136281e+00 1.6159672965613964e+01 9.4442947623614076e-02
1.0009037605214699e-01 8.0483223510233906e+00 -4.0160488718233216e+00
-2.1000159052948497e-01 1.2100859549442649e+01 6.7012727075540124e-02
ITEM: ATOMS id type x y z
24 1 -0.865813 3.84556 1.8862
1 1 -0.105446 0.324766 1.94526
35 1 2.07547 1.75169 1.22829
95 2 3.71116 2.62046 2.96721
20 1 3.62697 4.06744 0.592354
30 1 1.69293 4.11938 2.77484
94 2 1.06638 4.10956 0.284272
43 1 5.15083 1.63827 0.948707
59 1 5.8684 1.55258 3.79114
78 1 7.74333 2.08491 -0.0446921
34 1 5.75261 4.08695 2.48435
90 2 6.29819 4.02903 0.136991
28 1 9.79102 0.170268 2.718
42 1 10.2752 2.50019 1.16653
102 2 11.9038 1.44389 3.00579
7 1 11.8605 4.09047 2.85639
50 1 13.5251 2.53942 1.03754
66 1 13.9604 2.43471 3.86904
88 2 14.5007 0.0818698 0.127113
77 1 -0.56383 6.05671 -0.0305656
5 1 3.59363 7.95409 2.90503
40 1 2.00086 6.41072 1.14545
100 2 3.70994 5.48325 2.99797
22 1 7.27059 7.81236 1.80422
48 1 5.07836 6.33631 0.953428
64 1 5.76942 6.42159 3.77517
18 1 12.0637 8.04271 0.633223
92 2 9.35746 8.03774 0.175468
3 1 8.27362 4.2582 1.91662
37 1 10.4677 5.69752 1.07723
32 1 14.1236 7.9426 2.48205
45 1 13.5017 5.59236 1.0867
61 1 14.3359 5.49287 3.77816
97 2 12.0207 6.61147 3.05308
13 1 -1.41774 0.209797 6.85649
79 2 -0.929574 0.262285 4.41567
9 1 1.25835 0.200837 6.17891
51 1 1.32361 1.6277 3.88372
57 1 1.76761 2.5522 7.97237
67 1 3.51558 1.66904 5.54085
73 1 -0.258889 2.5583 6.30954
83 2 3.55222 0.377289 7.65597
12 1 1.99373 4.10163 5.60506
86 2 -0.311607 3.88251 4.19116
82 2 4.1562 3.92181 7.47633
16 1 4.78826 4.01033 5.02284
52 1 10.2787 1.56655 8.05813
58 1 9.5561 2.56239 4.03343
68 1 8.01099 1.72218 6.31358
74 1 11.7851 2.44028 5.65071
26 1 14.0365 3.99434 5.90335
54 1 2.03787 5.69642 7.98393
56 1 1.39225 6.49025 3.95771
70 1 -0.229126 5.56979 6.22285
72 1 3.53201 6.50157 5.66668
15 1 6.78727 4.10659 6.90523
25 1 5.83269 7.99456 5.87935
81 2 7.35985 4.25647 4.43352
10 1 10.3841 7.87883 5.63027
11 1 9.61121 4.09945 6.28956
84 2 7.98902 7.82738 4.2403
85 2 11.8879 4.14905 7.72619
53 1 9.72814 5.55954 3.97966
55 1 10.3732 6.44523 7.9823
69 1 11.9165 5.51373 5.46918
71 1 8.10004 6.66618 6.47155
14 1 13.1404 7.90375 5.02719
80 2 12.5617 7.90513 7.45228
31 1 -2.53181 0.206734 9.43759
49 1 -1.83564 2.59859 10.8808
65 1 -2.63068 2.56965 8.07566
101 2 -0.49369 1.61505 8.94734
4 1 3.27833 3.84294 10.0048
17 1 -0.484914 0.166539 11.284
41 1 1.14925 2.53141 10.7071
91 2 2.10441 0.171864 11.6037
21 1 4.13759 0.321481 9.98177
44 1 6.44778 1.71666 10.8922
60 1 5.75965 1.63454 8.08553
6 1 7.99543 0.17995 8.91291
36 1 9.45992 1.77483 10.7102
96 2 7.92277 2.65693 8.85454
75 1 12.1459 2.12275 11.9092
87 2 -2.95859 8.09841 11.847
46 1 -1.87293 5.6819 10.9343
62 1 -2.4599 5.60361 7.99905
8 1 -0.388129 4.18503 8.95828
27 1 1.6181 8.11412 9.17987
98 2 -0.359147 6.60704 8.96538
38 1 1.17825 5.66468 10.722
76 1 3.80873 6.0956 11.8612
33 1 5.77816 4.08054 9.36106
47 1 6.32726 6.43785 10.7736
63 1 5.62293 6.57838 8.04018
89 2 5.29109 4.15426 11.7452
2 1 11.6389 7.7844 10.0293
29 1 10.014 4.01104 9.09023
19 1 7.98394 4.07899 11.2116
39 1 9.49653 6.45247 10.6716
93 2 10.6365 4.07906 11.6371
99 2 7.99054 5.4726 8.94787
23 1 12.5889 4.27587 10.0462
ITEM: TIMESTEP
300
ITEM: NUMBER OF ATOMS
102
ITEM: BOX BOUNDS xy xz yz pp pp pp
-4.5807708870741912e+00 1.6255693204732509e+01 1.4077526008785793e-01
1.0116125845886018e-01 7.9681805098984224e+00 -3.9638529424295910e+00
-2.1645328974970557e-01 1.2107311248662871e+01 -1.2058231642721321e-02
ITEM: ATOMS id type x y z
24 1 -1.01845 3.85172 1.7751
1 1 -0.0496624 0.351621 1.92318
35 1 2.12189 1.69714 1.02468
95 2 3.61169 2.70581 3.00308
20 1 3.59736 4.12336 0.64904
30 1 1.45864 4.14291 2.66485
94 2 0.965195 3.95841 0.211224
43 1 5.22212 1.69003 1.16636
59 1 5.98473 1.52642 3.78815
78 1 7.71881 2.1402 0.216369
34 1 5.75427 4.00612 2.53716
90 2 6.2298 4.14807 0.139466
28 1 10.0236 0.241875 2.82719
42 1 10.3841 2.53467 1.27061
102 2 12.0345 1.5451 3.01321
7 1 12.0265 4.11796 2.96076
50 1 13.3839 2.45922 0.928543
66 1 14.1526 2.50584 3.67761
88 2 14.5989 0.105838 0.0677113
77 1 -0.409897 6.05821 -0.164807
5 1 3.66153 7.86399 3.02128
40 1 2.08641 6.45142 1.16567
100 2 3.64256 5.35666 3.11093
22 1 7.68986 7.72686 1.94838
48 1 5.27135 6.55001 1.10364
64 1 5.90167 6.28673 3.88584
18 1 12.1202 7.89708 0.559297
92 2 9.38207 8.00162 0.367875
3 1 8.30566 4.28684 1.92733
37 1 10.5754 5.48544 1.27921
32 1 14.252 7.9279 2.51268
45 1 13.6467 5.64795 0.967383
61 1 14.3744 5.45309 3.77066
97 2 12.1268 6.64547 2.87376
13 1 -1.72017 0.214977 6.80669
79 2 -1.06802 0.273028 4.49656
9 1 1.13308 0.174564 6.33421
51 1 1.28158 1.62454 4.0135
57 1 1.88604 2.42459 8.02756
67 1 3.56686 1.56115 5.55095
73 1 -0.283977 2.44596 6.35014
83 2 3.68849 0.335983 7.65794
12 1 2.04596 3.89397 5.56067
86 2 -0.339723 3.74672 4.22842
82 2 4.25014 3.75181 7.40278
16 1 4.92478 3.8932 4.95577
52 1 10.247 1.51217 7.93397
58 1 9.66463 2.70682 3.88962
68 1 8.05628 1.53976 6.3042
74 1 11.9491 2.58464 5.52981
26 1 14.2127 4.07799 5.9008
54 1 2.14246 5.38855 7.92545
56 1 1.24507 6.51755 3.98735
70 1 -0.215453 5.53686 6.2399
72 1 3.6004 6.50802 5.61421
15 1 6.91011 3.95002 6.91621
25 1 5.9127 7.92008 6.009
81 2 7.51141 4.03633 4.55333
10 1 10.3872 7.89862 5.60755
11 1 9.68222 3.9633 6.24255
84 2 8.05955 7.75156 4.31835
85 2 11.9928 4.34235 7.59852
53 1 9.80011 5.66657 3.95305
55 1 10.3286 6.3821 7.85925
69 1 11.9347 5.58338 5.4508
71 1 8.0736 6.40789 6.44078
14 1 13.2119 7.97531 4.874
80 2 12.6132 7.77062 7.34444
31 1 -2.49624 0.0879046 9.28376
49 1 -2.07963 2.41864 10.7466
65 1 -2.66421 2.71487 8.01229
101 2 -0.333188 1.47333 8.77913
4 1 3.35563 3.89206 10.0159
17 1 -0.37648 0.126147 11.2034
41 1 1.1351 2.54095 10.8065
91 2 2.3501 0.202722 11.6847
21 1 4.19031 0.399953 10.1079
44 1 6.44111 1.6545 10.9899
60 1 5.89563 1.70709 8.20042
6 1 7.88973 0.0422187 8.89393
36 1 9.48109 1.66307 10.7076
96 2 8.01632 2.59961 8.96245
75 1 12.1048 1.98695 11.8901
87 2 -2.8422 7.93729 11.6568
46 1 -1.71162 5.40383 10.905
62 1 -2.38719 5.53025 8.10365
8 1 -0.266822 4.08205 8.97399
27 1 1.83088 7.83328 9.21288
98 2 -0.211285 6.63692 8.70572
38 1 1.20694 5.68479 10.7293
76 1 3.91058 6.03363 11.8826
33 1 5.8839 4.13985 9.47981
47 1 6.54124 6.48475 10.9346
63 1 5.6782 6.5794 8.20266
89 2 5.38181 4.00532 11.8529
2 1 11.6587 7.75916 9.92237
29 1 10.0382 3.91737 9.0749
19 1 8.03317 4.03846 11.3564
39 1 9.6347 6.28485 10.6536
93 2 10.6045 4.07399 11.6732
99 2 7.88143 5.41734 8.89954
23 1 12.5185 4.26966 9.972
ITEM: TIMESTEP
400
ITEM: NUMBER OF ATOMS
102
ITEM: BOX BOUNDS xy xz yz pp pp pp
-4.5088658718517376e+00 1.6315295121048322e+01 2.2120834190564512e-01
4.9974827216388205e-02 7.9939011711125492e+00 -3.9127790927091168e+00
-2.3702243280172741e-01 1.2127880391714886e+01 -3.7524001671064768e-02
ITEM: ATOMS id type x y z
24 1 -0.808368 3.65833 1.83715
1 1 -0.254209 0.301715 1.76121
35 1 2.00214 1.63507 1.19895
95 2 3.62652 2.47783 2.98539
20 1 3.61291 3.97253 0.470975
30 1 1.63082 3.98074 2.82204
94 2 1.04753 4.05162 0.179618
43 1 5.07805 1.63757 0.981989
59 1 5.73557 1.4029 3.62965
78 1 7.79414 2.01976 0.120037
34 1 5.86146 3.92552 2.41195
90 2 6.37066 3.95439 0.106935
28 1 9.7427 0.17241 2.71
42 1 10.3435 2.63567 1.23343
102 2 11.8028 1.39056 3.09272
7 1 11.9857 3.93035 3.00459
50 1 13.5341 2.47932 0.844585
66 1 14.0975 2.54175 3.77757
88 2 14.5322 0.103827 0.0570141
77 1 -0.585085 5.88085 0.00793005
5 1 3.48435 7.82487 2.78538
40 1 1.91921 6.26676 1.19861
100 2 3.62274 5.33455 3.06237
22 1 7.43558 7.69084 1.73756
48 1 5.13068 6.21668 0.962439
64 1 5.80464 6.42807 3.82096
18 1 12.0981 8.08512 0.691784
92 2 9.53266 8.00221 0.195205
3 1 8.35196 4.36026 1.87096
37 1 10.5348 5.75904 1.1368
32 1 14.2155 8.04339 2.46255
45 1 13.5195 5.59438 1.04026
61 1 14.5683 5.49334 3.76325
97 2 12.1183 6.54429 3.05287
13 1 -1.44943 0.256114 6.9234
79 2 -0.812424 0.294831 4.38376
9 1 1.22876 0.0387977 6.27265
51 1 1.41198 1.595 3.86564
57 1 1.89697 2.51709 7.93001
67 1 3.48522 1.5227 5.4538
73 1 -0.197887 2.49673 6.39442
83 2 3.61017 0.315653 7.65954
12 1 2.06552 4.00945 5.59389
86 2 -0.286142 3.7252 4.24654
82 2 4.21192 3.71796 7.45056
16 1 4.82146 3.85845 4.87449
52 1 10.4226 1.65675 7.88077
58 1 9.53188 2.54388 4.00889
68 1 8.18891 1.5998 6.41668
74 1 11.9751 2.52921 5.70669
26 1 14.3543 4.0796 5.99539
54 1 2.2093 5.44138 7.94746
56 1 1.3256 6.52291 3.94212
70 1 -0.0875674 5.56407 6.25535
72 1 3.80101 6.41616 5.69112
15 1 6.81837 4.13946 6.86814
25 1 5.94025 8.0524 5.91424
81 2 7.44986 4.26759 4.48789
10 1 10.5376 7.95662 5.56303
11 1 9.72649 4.13277 6.32322
84 2 7.97597 7.79012 4.22669
85 2 12.1544 4.35825 7.60531
53 1 9.71727 5.5699 3.98649
55 1 10.5263 6.47386 8.02624
69 1 12.0726 5.54884 5.48504
71 1 8.27056 6.58371 6.4671
14 1 13.4584 7.85587 5.00154
80 2 12.8616 7.7657 7.43585
31 1 -2.32444 0.0716416 9.39499
49 1 -1.62767 2.43678 10.9326
65 1 -2.64553 2.62168 8.13337
101 2 -0.32864 1.54482 8.99547
4 1 3.48462 3.55265 9.99365
17 1 -0.268819 -0.0836653 11.2337
41 1 1.22679 2.3978 10.7918
91 2 2.25105 -0.0602997 11.6773
21 1 4.21795 0.387585 10.0791
44 1 6.64307 1.6648 10.9646
60 1 5.98254 1.63236 8.13349
6 1 8.16741 0.0648916 9.03941
36 1 9.84369 1.63344 10.6989
96 2 8.1357 2.76791 8.83362
75 1 12.4162 1.98551 11.8088
87 2 -2.74246 7.91552 11.8108
46 1 -1.72967 5.72068 11.0015
62 1 -2.09294 5.67389 8.15394
8 1 -0.202182 4.05354 8.96309
27 1 1.94649 7.93131 9.17223
98 2 -0.00230654 6.63289 8.8151
38 1 1.55723 5.58161 10.5872
76 1 3.92966 5.95134 11.9197
33 1 6.06245 4.01646 9.40936
47 1 6.57908 6.51397 10.7458
63 1 5.90024 6.66715 8.12203
89 2 5.52058 4.09662 11.8634
2 1 12.0288 7.59794 10.0088
29 1 10.302 4.02671 9.16718
19 1 8.23276 4.07785 11.3544
39 1 9.74507 6.43709 10.7683
93 2 10.7911 4.03127 11.5765
99 2 8.13741 5.46201 8.92544
23 1 12.8455 4.23587 10.0213
ITEM: TIMESTEP
500
ITEM: NUMBER OF ATOMS
102
ITEM: BOX BOUNDS xy xz yz pp pp pp
-4.5857958510709897e+00 1.6400481772519729e+01 3.1866266094236301e-01
1.0653876545566154e-01 8.0009978937737642e+00 -4.0019767394937000e+00
-2.1956243223351102e-01 1.2110420391146679e+01 2.6136659229421731e-02
ITEM: ATOMS id type x y z
24 1 -0.915227 3.72309 1.95008
1 1 -0.247169 0.440527 1.99235
35 1 2.12863 1.66008 1.11187
95 2 3.64106 2.63883 2.9295
20 1 3.70633 4.05167 0.640843
30 1 1.63863 4.06165 2.74288
94 2 1.07887 4.06285 0.257877
43 1 5.21037 1.55408 0.851848
59 1 5.86475 1.43912 3.7372
78 1 7.8461 2.05913 0.119497
34 1 5.90903 3.71243 2.50445
90 2 6.3665 4.02463 0.0670545
28 1 9.87784 0.322667 2.7193
42 1 10.3529 2.4478 1.11938
102 2 11.9328 1.54611 3.02085
7 1 11.9673 3.98103 2.82397
50 1 13.3714 2.46503 1.03304
66 1 13.9471 2.42391 3.83684
88 2 14.5522 0.199518 0.117715
77 1 -0.199959 5.98741 0.166289
5 1 3.84199 7.93109 3.00447
40 1 2.38578 6.49207 1.23021
100 2 3.76971 5.37615 2.87188
22 1 7.63567 7.53161 1.88546
48 1 5.47812 6.3034 0.939337
64 1 5.95697 6.21813 3.76158
18 1 12.1519 7.83684 0.618638
92 2 9.58348 7.87799 0.270484
3 1 8.28434 4.40431 1.84835
37 1 10.4707 5.63966 1.16619
32 1 14.3301 7.84485 2.59942
45 1 13.7498 5.65862 0.989803
61 1 14.2077 5.38789 3.74139
97 2 12.1322 6.58667 2.93801
13 1 -1.63067 0.102024 6.91369
79 2 -1.04924 0.213257 4.64649
9 1 1.19685 0.15623 6.26946
51 1 1.3762 1.73408 3.91432
57 1 2.05436 2.43615 7.8555
67 1 3.57596 1.61147 5.32773
73 1 -0.341571 2.69057 6.44444
83 2 3.69554 0.363913 7.59592
12 1 2.11562 4.04315 5.63418
86 2 -0.412973 3.82616 4.23715
82 2 4.39356 3.98027 7.39757
16 1 4.90953 3.99233 4.98609
52 1 10.4377 1.63265 8.10145
58 1 9.66796 2.68521 3.86632
68 1 8.21179 1.7839 6.36664
74 1 11.86 2.52318 5.85537
26 1 14.1745 4.00856 5.93484
54 1 2.21292 5.42024 7.94982
56 1 1.32013 6.53376 3.98623
70 1 -0.116876 5.41981 6.34044
72 1 3.75515 6.4146 5.50473
15 1 6.98162 4.26604 6.92709
25 1 6.12913 7.87948 5.87905
81 2 7.53747 4.25692 4.48575
10 1 10.536 8.08325 5.61566
11 1 9.75884 4.16177 6.31421
84 2 8.28256 7.9261 4.2352
85 2 12.0451 4.35031 7.66582
53 1 9.85444 5.58021 3.90657
55 1 10.482 6.43439 7.89589
69 1 12.0835 5.48422 5.47656
71 1 8.33068 6.56297 6.41366
14 1 13.2962 7.82512 4.93589
80 2 12.7299 7.80379 7.43913
31 1 -2.63785 0.0958733 9.40351
49 1 -2.04347 2.55879 10.7664
65 1 -2.71619 2.73455 8.1748
101 2 -0.335814 1.47825 8.82343
4 1 3.44109 3.69007 9.86567
17 1 -0.452407 0.176117 11.1852
41 1 1.18669 2.40235 10.7471
91 2 2.36214 0.145624 11.5301
21 1 4.27759 0.358823 10.0847
44 1 6.51742 1.6999 10.863
60 1 5.97837 1.79676 8.05002
6 1 8.09435 0.144006 8.88157
36 1 9.46717 1.68907 10.8147
96 2 8.08815 2.74747 8.87948
75 1 11.99 2.09205 11.969
87 2 -2.7722 7.99392 11.8543
46 1 -1.54611 5.52812 10.9487
62 1 -2.3891 5.62571 8.10773
8 1 -0.0379144 4.05436 8.92331
27 1 2.135 7.8015 9.05789
98 2 -0.228756 6.55068 8.9345
38 1 1.42454 5.60935 10.7093
76 1 3.97999 5.95743 11.6067
33 1 6.01921 4.27255 9.33666
47 1 6.77723 6.34702 10.9398
63 1 6.02468 6.78199 8.22374
89 2 5.46788 4.00463 11.7758
2 1 11.8862 7.6895 10.0996
29 1 10.1468 4.10342 9.15351
19 1 8.16795 4.0466 11.229
39 1 9.79319 6.47878 10.7221
93 2 10.7048 4.10363 11.7528
99 2 8.20554 5.6327 8.96769
23 1 12.6095 4.52222 10.1203
ITEM: TIMESTEP
600
ITEM: NUMBER OF ATOMS
102
ITEM: BOX BOUNDS xy xz yz pp pp pp
-4.7964251679205336e+00 1.6567810993819609e+01 3.0670394385329813e-01
1.4492327697074847e-01 8.0882614380084963e+00 -4.0333181179543143e+00
-2.4615387895780927e-01 1.2137011837870965e+01 1.5178471497924204e-01
ITEM: ATOMS id type x y z
24 1 -0.98103 3.81068 1.90698
1 1 -0.259117 0.428402 1.79415
35 1 1.91892 1.89872 1.15285
95 2 3.63297 2.72553 2.92597
20 1 3.68625 4.19064 0.652015
30 1 1.61141 4.08259 2.84263
94 2 0.933989 4.05699 0.250079
43 1 5.14966 1.70647 0.939048
59 1 5.82836 1.64667 3.62388
78 1 7.86055 2.27189 0.0359145
34 1 5.81101 4.13132 2.52612
90 2 6.32612 4.06239 -0.000906228
28 1 9.91034 0.279311 2.71542
42 1 10.4013 2.55972 1.24927
102 2 12.1375 1.42581 3.06789
7 1 12.0852 4.01276 3.14231
50 1 13.7894 2.46245 1.02352
66 1 14.2733 2.63479 3.74649
88 2 14.6463 0.167582 0.126729
77 1 -0.614634 5.91104 -0.0628814
5 1 3.69929 7.87378 2.66726
40 1 2.08058 6.25725 1.19025
100 2 3.77234 5.43591 3.08578
22 1 7.63495 7.67086 1.76904
48 1 5.34268 6.36337 0.940381
64 1 5.91917 6.46437 3.76662
18 1 12.261 8.07996 0.588479
92 2 9.53695 8.05738 0.135355
3 1 8.45303 4.45705 1.77015
37 1 10.7498 5.71043 1.0683
32 1 14.5308 7.88785 2.48617
45 1 13.6645 5.44755 1.05252
61 1 14.5701 5.55104 3.74422
97 2 12.2571 6.63939 3.00919
13 1 -1.73542 0.162925 6.9226
79 2 -1.08756 0.31369 4.30579
9 1 1.14878 0.117358 6.29355
51 1 1.30946 1.68989 3.9841
57 1 1.86682 2.66467 8.04429
67 1 3.54548 1.61685 5.37687
73 1 -0.435492 2.60975 6.48387
83 2 3.53953 0.42678 7.69828
12 1 1.895 4.07015 5.56319
86 2 -0.424295 3.84833 4.1951
82 2 4.15261 4.10621 7.32629
16 1 4.92275 3.96907 4.94374
52 1 10.288 1.72693 7.86187
58 1 9.76409 2.68338 3.97718
68 1 8.00551 1.76735 6.33924
74 1 12.0449 2.70414 5.64722
26 1 14.4247 4.11698 5.99069
54 1 1.94884 5.42696 7.91701
56 1 1.49228 6.51125 3.93152
70 1 -0.304718 5.56257 6.18952
72 1 3.90951 6.3459 5.6813
15 1 6.85513 4.21392 6.97326
25 1 6.04296 8.07112 5.90316
81 2 7.5844 4.23058 4.39783
10 1 10.7241 7.9854 5.6207
11 1 9.68859 4.15452 6.37001
84 2 8.25387 7.79301 4.20295
85 2 12.2997 4.40516 7.699
53 1 9.88566 5.59911 3.91392
55 1 10.5007 6.55869 8.0259
69 1 12.136 5.50054 5.55713
71 1 8.31707 6.54234 6.4737
14 1 13.5967 7.74446 4.94495
80 2 12.9393 7.8279 7.42921
31 1 -2.80112 0.366961 9.4426
49 1 -1.9208 2.71796 10.9859
65 1 -2.7974 2.78121 8.16935
101 2 -0.526669 1.52254 8.90955
4 1 3.35649 3.86282 9.91921
17 1 -0.608735 0.199692 11.3625
41 1 1.15436 2.41595 10.6794
91 2 2.12476 0.296463 11.658
21 1 4.06631 0.685592 10.0887
44 1 6.46135 2.02028 10.907
60 1 5.78866 1.92192 8.11195
6 1 8.00853 0.270647 9.15777
36 1 9.7291 1.98744 10.6442
96 2 8.07566 2.72456 8.94477
75 1 12.4841 2.29694 11.8502
87 2 -2.89952 8.08831 11.8659
46 1 -1.9247 5.78043 10.944
62 1 -2.49419 5.67281 8.17375
8 1 -0.504787 4.07746 8.93114
27 1 1.93888 7.81297 9.15055
98 2 -0.204491 6.70436 8.9016
38 1 1.23461 5.49181 10.6414
76 1 3.88751 6.17207 11.8229
33 1 5.90763 4.46088 9.40017
47 1 6.56504 6.65216 10.8501
63 1 5.90764 6.66413 8.09971
89 2 5.40278 4.22927 11.7209
2 1 11.9854 7.87826 10.0632
29 1 10.2242 4.08801 9.17576
19 1 8.08787 4.16665 11.3375
39 1 9.76361 6.49243 10.8476
93 2 10.7904 4.15329 11.6848
99 2 8.11149 5.46226 8.99128
23 1 12.7902 4.34094 10.0544
ITEM: TIMESTEP
700
ITEM: NUMBER OF ATOMS
102
ITEM: BOX BOUNDS xy xz yz pp pp pp
-4.3682421396703859e+00 1.6161215910380729e+01 1.2933631936385628e-01
9.1446827276512987e-02 8.1196003522602247e+00 -3.8343625486536101e+00
-2.1462114165359392e-01 1.2105479100566754e+01 1.2964717953672764e-01
ITEM: ATOMS id type x y z
24 1 -0.913487 3.62205 1.82831
1 1 -0.133218 0.196552 1.91124
35 1 2.06501 1.63641 1.06702
95 2 3.67563 2.6213 2.90509
20 1 3.6844 3.98861 0.553279
30 1 1.57794 4.12701 2.71452
94 2 1.05404 3.9982 0.184206
43 1 5.10028 1.5936 1.0729
59 1 5.77287 1.38828 3.66128
78 1 7.86189 2.03331 0.0410976
34 1 5.72159 4.04264 2.4275
90 2 6.30738 4.05789 0.226116
28 1 9.77545 0.280157 2.86446
42 1 10.2829 2.42745 1.18173
102 2 11.8682 1.58929 3.07914
7 1 11.8927 4.19099 2.86117
50 1 13.4346 2.44457 0.938139
66 1 14.09 2.52762 3.78816
88 2 14.517 0.0251267 0.0957113
77 1 -0.278586 6.00859 -0.0740061
5 1 3.5722 7.88055 3.01415
40 1 2.13282 6.36201 1.23616
100 2 3.58583 5.41318 3.00911
22 1 7.43252 7.77409 1.93748
48 1 5.08713 6.37831 1.1398
64 1 5.70817 6.30283 3.94436
18 1 12.023 7.94848 0.702049
92 2 9.41457 7.91771 0.403367
3 1 8.17582 4.29516 1.96867
37 1 10.3913 5.82039 1.22095
32 1 14.1244 7.9816 2.53483
45 1 13.7566 5.59457 0.920911
61 1 14.3183 5.3678 3.65167
97 2 12.0603 6.63228 2.99009
13 1 -1.47585 0.202816 6.95256
79 2 -0.885443 0.271732 4.53975
9 1 1.34111 0.234801 6.36607
51 1 1.31677 1.67687 3.76693
57 1 2.14577 2.66756 7.89666
67 1 3.53663 1.54503 5.36794
73 1 -0.153943 2.64077 6.50557
83 2 3.78306 0.46009 7.66281
12 1 2.27166 4.1279 5.68028
86 2 -0.231824 3.89434 4.25411
82 2 4.35988 3.91406 7.52639
16 1 4.88043 3.89521 5.00406
52 1 10.3775 1.65372 8.00609
58 1 9.64532 2.83762 3.9405
68 1 8.22072 1.79712 6.32706
74 1 11.8995 2.66529 5.49102
26 1 14.1744 4.06838 5.90817
54 1 2.38723 5.57961 8.07551
56 1 1.19968 6.57984 3.88672
70 1 -0.0063697 5.7117 6.41379
72 1 3.51371 6.48912 5.53667
15 1 6.93108 4.20702 6.95732
25 1 5.85285 7.95574 5.97995
81 2 7.50421 4.35165 4.57643
10 1 10.4464 8.04389 5.61456
11 1 9.73952 4.07639 6.21326
84 2 7.93861 7.76674 4.24421
85 2 12.0965 4.27478 7.63106
53 1 9.78416 5.75383 3.89058
55 1 10.3391 6.39369 7.84167
69 1 12.0018 5.51294 5.39014
71 1 8.11747 6.54324 6.43491
14 1 13.1911 7.84516 5.02487
80 2 12.6925 7.99413 7.31373
31 1 -2.32853 0.21858 9.33965
49 1 -1.91392 2.58915 10.7849
65 1 -2.34903 2.7863 8.13684
101 2 -0.242054 1.70868 8.96206
4 1 3.58812 3.83857 10.1006
17 1 -0.178486 0.364054 11.157
41 1 1.3651 2.65956 10.7496
91 2 2.34629 0.31503 11.7022
21 1 4.24599 0.542178 10.0321
44 1 6.60832 1.74441 10.9235
60 1 6.03284 1.73533 7.95885
6 1 8.15524 0.335982 8.8145
36 1 9.52186 1.78558 10.6983
96 2 8.12022 2.88193 8.86993
75 1 12.2293 2.16497 11.8233
87 2 -2.61438 8.08623 11.7764
46 1 -1.49772 5.75178 10.8676
62 1 -2.25453 5.66743 7.96472
8 1 0.0224386 4.13697 8.97073
27 1 1.92001 8.17134 9.14328
98 2 -0.108098 6.64025 8.92857
38 1 1.52784 5.76021 10.7345
76 1 4.00934 6.19567 11.7917
33 1 5.98953 4.24006 9.48851
47 1 6.71453 6.69471 10.8633
63 1 5.74732 6.58152 8.19648
89 2 5.50184 4.13231 11.888
2 1 11.8516 7.81392 9.80355
29 1 10.2262 4.05344 9.11449
19 1 8.0951 4.2307 11.2826
39 1 9.74188 6.52511 10.6353
93 2 10.7733 4.13455 11.5305
99 2 8.07512 5.59374 8.81185
23 1 12.7096 4.37839 9.9162
ITEM: TIMESTEP
800
ITEM: NUMBER OF ATOMS
102
ITEM: BOX BOUNDS xy xz yz pp pp pp
-4.5142659043732802e+00 1.6073839690913953e+01 3.7572497695106080e-02
4.3115786286041076e-02 8.0368674340917110e+00 -3.9759987111545154e+00
-2.4110922663737000e-01 1.2131967185550533e+01 -1.4167796222545005e-03
ITEM: ATOMS id type x y z
24 1 -1.13279 3.94216 1.80936
1 1 -0.0114586 0.214128 1.84386
35 1 2.18455 1.66831 1.15828
95 2 3.63002 2.54265 3.17181
20 1 3.58865 4.0694 0.718974
30 1 1.50048 4.07263 2.72424
94 2 1.00988 4.03153 0.200929
43 1 5.10312 1.51625 1.03412
59 1 5.87218 1.47873 3.73925
78 1 7.81882 2.03561 -0.019797
34 1 5.59907 3.98928 2.54943
90 2 6.20012 3.9973 0.072956
28 1 9.86286 0.0128837 2.57346
42 1 10.2587 2.53611 1.13835
102 2 11.8142 1.39336 2.84403
7 1 11.824 4.02881 3.05549
50 1 13.3996 2.48223 0.898111
66 1 13.9619 2.53692 3.74174
88 2 14.4975 0.0953297 0.010583
77 1 -0.504721 6.0533 0.0250065
5 1 3.48789 7.97791 3.02508
40 1 1.98625 6.37745 1.21157
100 2 3.55143 5.37675 3.18509
22 1 7.36412 7.78033 1.86271
48 1 5.08934 6.39001 0.982041
64 1 5.71562 6.54596 3.76656
18 1 11.9114 7.95166 0.529361
92 2 9.34289 8.05302 0.201691
3 1 8.21526 4.19411 1.98813
37 1 10.4357 5.62106 1.1038
32 1 13.9297 8.1015 2.49578
45 1 13.4212 5.72137 0.992325
61 1 14.2404 5.57287 3.75164
97 2 11.9429 6.59068 2.92846
13 1 -1.69613 0.235052 6.85717
79 2 -0.950181 0.327552 4.35056
9 1 1.11633 -0.0283861 6.46423
51 1 1.33837 1.54666 3.9437
57 1 1.9195 2.41798 7.95261
67 1 3.52413 1.72021 5.48973
73 1 -0.436817 2.51023 6.42924
83 2 3.57872 0.424674 7.70386
12 1 1.95812 4.07237 5.65621
86 2 -0.494164 3.59955 4.16149
82 2 4.15304 3.75161 7.50071
16 1 4.80741 4.14736 4.90976
52 1 10.2466 1.55794 7.81756
58 1 9.46506 2.50846 3.9321
68 1 7.87755 1.58576 6.34407
74 1 11.6982 2.58406 5.54808
26 1 14.0457 4.0592 5.93844
54 1 2.10492 5.52912 7.82636
56 1 1.28297 6.57488 4.03806
70 1 -0.308337 5.68138 6.30191
72 1 3.62135 6.60922 5.67745
15 1 6.81763 4.08495 6.90716
25 1 5.72384 8.04889 6.08377
81 2 7.30906 4.17308 4.43504
10 1 10.3315 7.92673 5.57701
11 1 9.46346 4.12601 6.10172
84 2 7.92096 7.78482 4.28064
85 2 11.8857 4.44573 7.60609
53 1 9.72111 5.62698 3.84508
55 1 10.1464 6.46041 8.04991
69 1 11.9423 5.62948 5.35994
71 1 8.06397 6.67558 6.60676
14 1 13.0934 8.0998 4.84519
80 2 12.4756 7.75824 7.497
31 1 -2.36473 0.0487092 9.35246
49 1 -1.75151 2.45193 10.8883
65 1 -2.65448 2.68275 8.14589
101 2 -0.324089 1.49217 8.93261
4 1 3.33276 3.91822 10.0641
17 1 -0.277652 -0.0665661 11.4198
41 1 1.19685 2.36127 10.8645
91 2 2.32279 0.0156552 11.7362
21 1 4.31855 0.254293 10.195
44 1 6.46916 1.65499 10.9516
60 1 5.8297 1.60921 8.25278
6 1 7.97543 0.0585552 8.99935
36 1 9.67606 1.67901 10.7366
96 2 7.99027 2.50509 8.75621
75 1 12.1471 2.036 11.902
87 2 -2.96563 7.99659 11.7885
46 1 -1.74195 5.5624 10.8581
62 1 -2.37331 5.71858 8.03456
8 1 -0.152986 4.10252 8.8902
27 1 1.91743 8.13284 9.20681
98 2 -0.134506 6.82761 8.66267
38 1 1.27591 5.59237 10.6822
76 1 3.86398 5.9496 12.0146
33 1 5.86967 4.0833 9.3429
47 1 6.34904 6.32559 10.8507
63 1 5.55408 6.56599 8.21055
89 2 5.39509 3.97759 11.779
2 1 11.7536 7.8047 9.98362
29 1 10.0601 4.05548 9.04667
19 1 8.05841 3.92036 11.2482
39 1 9.45183 6.38654 10.8048
93 2 10.5831 4.01043 11.696
99 2 7.91381 5.37562 8.99055
23 1 12.4932 4.22079 10.0039
ITEM: TIMESTEP
900
ITEM: NUMBER OF ATOMS
102
ITEM: BOX BOUNDS xy xz yz pp pp pp
-4.7484266057432771e+00 1.6148277356327121e+01 4.5358292002362195e-02
6.6541334573102462e-02 7.9681970635480379e+00 -4.1435075414185834e+00
-1.6456804264503067e-01 1.2055426001558201e+01 -4.6661601878863090e-02
ITEM: ATOMS id type x y z
24 1 -0.969998 3.96375 1.95565
1 1 -0.150536 0.140198 2.05294
35 1 2.06443 1.83398 1.27846
95 2 3.72309 2.69827 2.944
20 1 3.59041 4.09913 0.531007
30 1 1.60064 4.14527 2.74995
94 2 1.04106 4.06019 0.409394
43 1 5.14302 1.66549 1.03182
59 1 6.26715 1.88636 3.80804
78 1 7.69869 1.99607 -0.233231
34 1 5.7881 4.09565 2.3934
90 2 6.24878 4.0613 0.135108
28 1 9.889 0.104948 2.77575
42 1 10.347 2.3007 1.25854
102 2 11.8566 1.50632 3.09478
7 1 11.8582 3.91887 3.04977
50 1 13.4469 2.50618 1.04627
66 1 14.0966 2.50783 3.67782
88 2 14.5632 0.0292078 0.181405
77 1 -0.589537 6.00042 0.0507246
5 1 3.67262 8.04762 3.03886
40 1 2.07707 6.44347 1.18762
100 2 3.5242 5.48054 3.09891
22 1 7.29727 7.96567 1.84784
48 1 5.0252 6.51623 1.08418
64 1 5.65531 6.43376 3.87758
18 1 12.0433 7.92667 0.722715
92 2 9.22849 7.92147 0.289881
3 1 8.33918 3.9331 1.85873
37 1 10.3887 5.70825 1.12572
32 1 14.1 7.87667 2.59115
45 1 13.4511 5.50241 1.15149
61 1 14.3407 5.47989 3.81607
97 2 11.9491 6.57061 3.05205
13 1 -1.56042 0.0840266 6.83208
79 2 -1.12671 0.227774 4.55624
9 1 1.10239 0.073965 6.14732
51 1 1.26559 1.66016 3.96174
57 1 1.84958 2.43141 8.09456
67 1 3.37806 1.55158 5.46948
73 1 -0.387594 2.53596 6.55022
83 2 3.43403 0.225606 7.59642
12 1 1.88834 3.96351 5.70845
86 2 -0.330247 3.88749 4.27364
82 2 4.08131 3.72977 7.39866
16 1 4.54721 3.97325 4.87974
52 1 10.259 1.53239 8.09239
58 1 9.46186 2.64845 3.9957
68 1 8.07293 1.54107 6.29786
74 1 11.765 2.50196 5.67895
26 1 14.1082 4.02319 5.95177
54 1 1.85374 5.42853 7.86364
56 1 1.14351 6.55564 3.84876
70 1 -0.352726 5.46707 6.40589
72 1 3.35657 6.3539 5.5326
15 1 6.62423 3.86452 6.89702
25 1 5.74602 8.01289 5.88215
81 2 7.40152 4.30353 4.48438
10 1 10.33 7.86612 5.58226
11 1 9.50198 3.91441 6.48141
84 2 7.86832 7.68928 4.17636
85 2 11.9098 4.25009 7.67914
53 1 9.62865 5.44555 3.92569
55 1 10.1349 6.45575 7.87595
69 1 11.7956 5.32988 5.43562
71 1 7.88684 6.22117 6.23127
14 1 13.1097 7.9068 5.06858
80 2 12.4657 7.76644 7.4079
31 1 -2.67624 0.151821 9.32932
49 1 -2.10632 2.54334 10.8572
65 1 -2.89886 2.47514 8.07535
101 2 -0.722054 1.50108 8.84491
4 1 3.1793 3.92432 10.0091
17 1 -0.590787 0.16076 11.1822
41 1 0.844074 2.5184 10.776
91 2 1.94836 0.0285707 11.5382
21 1 4.12298 0.00539606 9.88858
44 1 6.26927 1.61257 10.8019
60 1 5.74645 1.52735 8.00981
6 1 7.95873 0.111306 8.6614
36 1 9.39097 1.6965 10.7755
96 2 7.92557 2.65494 8.97748
75 1 11.9554 1.976 12.0098
87 2 -3.17729 7.98194 11.7017
46 1 -2.06018 5.58841 10.9267
62 1 -2.68438 5.55329 8.13584
8 1 -0.526712 4.01423 8.86591
27 1 1.49282 7.92544 8.98336
98 2 -0.521841 6.50731 8.82411
38 1 0.942553 5.57394 10.6167
76 1 3.55084 5.89618 12.0654
33 1 5.73373 4.045 9.37281
47 1 6.26251 6.37985 10.7425
63 1 5.50657 6.3811 8.04865
89 2 5.09728 4.00474 11.6933
2 1 11.5891 7.98193 9.92211
29 1 9.94153 4.0703 9.17042
19 1 7.76368 4.03058 11.3015
39 1 9.28718 6.35217 10.7067
93 2 10.4634 3.97077 11.5699
99 2 7.72961 5.46256 8.79538
23 1 12.4459 4.23209 10.0206
ITEM: TIMESTEP
1000
ITEM: NUMBER OF ATOMS
102
ITEM: BOX BOUNDS xy xz yz pp pp pp
-4.5578328768354961e+00 1.6065736053821649e+01 -6.7515015988067499e-03
5.3357681820454556e-02 8.0215088786878699e+00 -3.9833453214150896e+00
-2.4741141405671030e-01 1.2138269372969889e+01 -6.5334394916825829e-03
ITEM: ATOMS id type x y z
24 1 -1.10734 3.91381 1.93991
1 1 -0.0946711 0.259721 1.92037
35 1 2.08285 1.68936 1.16824
95 2 3.61648 2.72894 2.99644
20 1 3.42859 4.00382 0.62534
30 1 1.5146 4.01642 2.72498
94 2 0.8072 4.04854 0.205475
43 1 5.22862 1.74261 0.972714
59 1 5.95682 1.56061 3.64812
78 1 7.85635 2.08988 -0.146974
34 1 5.64678 3.94019 2.47492
90 2 6.10827 4.10434 0.0552686
28 1 9.91017 0.0629787 2.66676
42 1 10.2984 2.41957 1.19582
102 2 11.8774 1.42048 3.05749
7 1 11.6818 3.85127 2.99832
50 1 13.3153 2.48627 1.03257
66 1 14.053 2.30004 3.88389
88 2 14.4407 0.131651 0.102799
77 1 -0.668946 6.07924 -0.206279
5 1 3.58128 8.03312 2.89977
40 1 1.82472 6.36139 1.22064
100 2 3.63142 5.47513 2.85378
22 1 7.31346 8.02612 1.71312
48 1 5.23107 6.39396 0.998764
64 1 5.69537 6.6493 3.67537
18 1 11.9053 7.92874 0.61226
92 2 9.31623 8.09923 0.213609
3 1 8.23499 3.9999 1.8871
37 1 10.2911 5.53364 1.00662
32 1 14.0304 7.93612 2.54222
45 1 13.4079 5.677 1.11754
61 1 13.8635 5.43775 3.66023
97 2 11.8548 6.58052 2.91243
13 1 -1.47418 0.0532246 6.92241
79 2 -0.848256 0.0297215 4.43462
9 1 1.34668 0.119858 6.20078
51 1 1.37962 1.45005 3.90548
57 1 1.90747 2.58084 7.79286
67 1 3.61768 1.65215 5.50338
73 1 -0.42919 2.5662 6.34864
83 2 3.67867 0.246896 7.60813
12 1 1.98187 4.0935 5.52196
86 2 -0.513323 4.03038 4.13861
82 2 4.15933 4.1066 7.45076
16 1 4.83887 4.17922 5.00921
52 1 10.1849 1.53305 7.98976
58 1 9.45739 2.44765 3.95734
68 1 7.96088 1.59977 6.32937
74 1 11.78 2.54569 5.56997
26 1 13.9428 4.1836 6.00515
54 1 1.93323 5.49988 7.9625
56 1 1.32225 6.60232 3.98898
70 1 -0.244732 5.51943 6.31765
72 1 3.58833 6.54388 5.55203
15 1 6.84378 4.0021 6.92985
25 1 5.70944 8.02815 5.95675
81 2 7.3416 4.26449 4.38298
10 1 10.2556 8.00061 5.6357
11 1 9.51911 4.07043 6.21205
84 2 8.00436 7.80746 4.26364
85 2 11.8469 4.19283 7.73116
53 1 9.60737 5.64607 3.8778
55 1 10.1238 6.39953 8.03688
69 1 11.715 5.56117 5.52314
71 1 8.02989 6.55586 6.44831
14 1 13.1212 7.85583 5.03627
80 2 12.4358 7.79434 7.53894
31 1 -2.41948 0.0953478 9.42243
49 1 -1.92598 2.4046 10.9435
65 1 -2.6236 2.60192 8.12505
101 2 -0.348092 1.41338 8.86409
4 1 3.39138 3.98809 10.026
17 1 -0.31908 0.0536062 11.3128
41 1 1.32579 2.42521 10.7153
91 2 2.32429 0.153363 11.742
21 1 4.33697 0.0807918 10.0225
44 1 6.45525 1.67936 10.9154
60 1 5.77594 1.5425 8.11436
6 1 8.09751 -0.0296987 9.00789
36 1 9.50336 1.58098 10.6886
96 2 7.88863 2.52518 8.82535
75 1 11.9515 2.07205 12.0418
87 2 -3.03155 8.02261 11.8344
46 1 -1.95831 5.57943 10.9671
62 1 -2.4808 5.68018 8.29825
8 1 -0.303352 3.96699 8.92567
27 1 1.66295 8.01433 9.03145
98 2 -0.393275 6.58966 8.99744
38 1 1.16937 5.77005 10.6921
76 1 3.76913 6.0838 11.9924
33 1 5.86175 4.05642 9.40656
47 1 6.44206 6.39254 10.9064
63 1 5.73262 6.41104 8.11718
89 2 5.29216 4.0475 11.8154
2 1 11.598 7.89908 9.94865
29 1 9.93734 3.83656 9.13068
19 1 7.91468 4.00173 11.2345
39 1 9.41022 6.26488 10.8338
93 2 10.5466 4.07969 11.8036
99 2 7.96431 5.36319 8.8982
23 1 12.5109 4.02547 10.0812
ITEM: TIMESTEP
1100
ITEM: NUMBER OF ATOMS
102
ITEM: BOX BOUNDS xy xz yz pp pp pp
-4.4347708071675083e+00 1.6151991779218175e+01 4.7684211302999921e-02
1.0240937424374774e-01 8.0439822473681630e+00 -3.8284632392523661e+00
-1.9971653252175336e-01 1.2090574491434925e+01 6.4991621611908884e-02
ITEM: ATOMS id type x y z
24 1 -1.03017 3.98844 1.80851
1 1 -0.110747 0.0594399 1.96505
35 1 2.00446 1.78998 1.2095
95 2 3.54545 2.53271 2.97435
20 1 3.66398 3.94965 0.63662
30 1 1.50187 4.11483 2.82879
94 2 1.15838 4.03386 0.225301
43 1 5.07481 1.56427 1.05672
59 1 5.83204 1.48357 3.73854
78 1 7.82453 2.00522 -0.1263
34 1 5.6208 3.90574 2.46892
90 2 6.3127 3.98861 0.0875435
28 1 9.79998 0.23275 2.78334
42 1 10.2217 2.50681 1.17849
102 2 11.8997 1.50131 3.02487
7 1 11.8108 4.04243 2.8027
50 1 13.6616 2.39707 1.05139
66 1 14.1049 2.53922 3.80927
88 2 14.665 -0.0182248 0.165122
77 1 -0.480183 5.87342 -0.159248
5 1 3.38239 7.92286 2.97543
40 1 2.13194 6.38518 1.0857
100 2 3.51531 5.41782 3.00946
22 1 7.18241 7.87751 1.76843
48 1 5.06421 6.49697 1.01705
64 1 5.65881 6.43287 3.74402
18 1 11.9215 8.02116 0.626666
92 2 9.2852 8.00693 0.342337
3 1 8.11419 4.23401 1.97129
37 1 10.3917 5.59432 1.1322
32 1 14.0593 7.9728 2.41058
45 1 13.4305 5.54708 0.921174
61 1 14.1487 5.60421 3.58212
97 2 11.9147 6.62257 3.14483
13 1 -1.58281 0.316902 6.9652
79 2 -1.06792 0.266309 4.53117
9 1 1.18936 0.113794 6.41124
51 1 1.23659 1.58238 3.93022
57 1 2.07496 2.55365 7.95059
67 1 3.47685 1.55484 5.45205
73 1 -0.173528 2.52773 6.53957
83 2 3.6777 0.294502 7.67308
12 1 2.07206 4.12311 5.60112
86 2 -0.398976 4.15498 4.28815
82 2 4.28919 4.23051 7.35733
16 1 4.77904 4.01618 4.94256
52 1 10.4444 1.63494 7.90682
58 1 9.67119 2.59611 4.06037
68 1 8.09148 1.60665 6.32528
74 1 11.9673 2.36308 5.53697
26 1 14.258 3.96308 5.9263
54 1 2.15807 5.61398 7.88639
56 1 1.11146 6.62017 4.0306
70 1 -0.230284 5.61357 6.39752
72 1 3.45358 6.6035 5.49798
15 1 6.85145 4.15109 6.9408
25 1 5.72922 7.88098 5.91463
81 2 7.4072 4.20759 4.53048
10 1 10.3693 7.91572 5.53773
11 1 9.72106 3.97418 6.36776
84 2 7.9988 7.72582 4.27021
85 2 12.156 4.26352 7.60813
53 1 9.79145 5.70224 3.99219
55 1 10.392 6.45715 7.95507
69 1 12.0464 5.44231 5.44925
71 1 8.07405 6.57762 6.54349
14 1 13.2854 7.94878 4.89749
80 2 12.6581 7.73978 7.32826
31 1 -2.40208 0.165389 9.41145
49 1 -1.77574 2.55426 10.8072
65 1 -2.51154 2.6572 8.22201
101 2 -0.255955 1.61351 8.92057
4 1 3.50957 4.13234 9.9777
17 1 -0.274988 0.124963 11.2073
41 1 1.31056 2.56907 10.8138
91 2 2.36373 0.0896147 11.5732
21 1 4.27725 0.343683 9.99137
44 1 6.60099 1.76869 10.9091
60 1 6.0177 1.6521 8.03319
6 1 8.30619 0.275072 8.94611
36 1 9.79645 1.60107 10.7353
96 2 8.16557 2.86928 8.859
75 1 12.4471 2.09727 12.1084
87 2 -2.76936 7.99682 11.7964
46 1 -1.747 5.65825 10.8088
62 1 -2.21078 5.62745 8.17661
8 1 -0.125567 4.09112 8.94441
27 1 1.81667 8.09595 9.15913
98 2 -0.0942672 6.81642 8.83185
38 1 1.39646 5.81231 10.6777
76 1 3.97445 6.11174 12.0642
33 1 6.00121 4.09052 9.29061
47 1 6.58298 6.54798 10.9251
63 1 5.81264 6.60314 8.29365
89 2 5.50903 4.06317 11.7369
2 1 11.9281 7.9056 9.96524
29 1 10.2836 3.99231 9.08999
19 1 8.16788 4.18867 11.2482
39 1 9.71863 6.45534 10.6748
93 2 10.7621 3.98364 11.5134
99 2 8.09312 5.52561 8.92382
23 1 12.8255 4.17873 9.96333
ITEM: TIMESTEP
1200
ITEM: NUMBER OF ATOMS
102
ITEM: BOX BOUNDS xy xz yz pp pp pp
-4.7384098273343582e+00 1.6344955231890239e+01 1.4881370670468619e-01
1.2050125976421588e-01 8.0466916362803840e+00 -4.0402683021488226e+00
-2.2651442319386828e-01 1.2117372382107044e+01 8.5792896044597541e-02
ITEM: ATOMS id type x y z
24 1 -1.10741 3.83884 1.83162
1 1 -0.221193 0.22948 1.91515
35 1 1.94283 1.55944 1.16563
95 2 3.59608 2.69096 2.99222
20 1 3.46943 4.00913 0.653933
30 1 1.60924 3.98675 2.72816
94 2 0.749208 3.87626 0.294074
43 1 5.0804 1.65879 1.10991
59 1 5.78507 1.60894 3.82877
78 1 7.78235 2.08558 -0.0409254
34 1 5.75729 4.00472 2.56937
90 2 6.14189 4.07508 0.174821
28 1 9.8551 0.30208 2.72335
42 1 10.4656 2.40663 1.14693
102 2 12.0365 1.53067 3.00723
7 1 11.8103 4.08497 2.97448
50 1 13.4906 2.50748 0.907464
66 1 14.2398 2.57635 3.74668
88 2 14.6076 0.206157 0.0425341
77 1 -0.543716 6.03367 -0.157184
5 1 3.69748 7.92068 2.95272
40 1 2.06928 6.40603 1.23216
100 2 3.70149 5.34564 3.06491
22 1 7.43706 7.69287 1.88182
48 1 5.16185 6.46263 1.13544
64 1 5.80239 6.37743 3.96372
18 1 12.205 7.90822 0.618391
92 2 9.4438 7.92382 0.208866
3 1 8.28672 4.18129 1.86541
37 1 10.5071 5.68836 1.09974
32 1 14.3173 7.90921 2.38176
45 1 13.744 5.62445 0.95895
61 1 14.3564 5.62104 3.70151
97 2 12.1041 6.56335 2.85394
13 1 -1.70569 0.231768 6.84525
79 2 -1.12657 0.191199 4.44581
9 1 1.25654 0.145367 6.21355
51 1 1.44996 1.62755 3.90883
57 1 1.71746 2.43759 7.94843
67 1 3.41255 1.63671 5.4824
73 1 -0.33664 2.66313 6.39831
83 2 3.54556 0.371564 7.81577
12 1 1.9882 4.01913 5.65251
86 2 -0.294499 3.84582 4.14485
82 2 4.06623 3.80665 7.53083
16 1 4.84748 3.91342 5.07427
52 1 10.4444 1.72926 7.88511
58 1 9.67515 2.69915 3.94418
68 1 8.10968 1.72295 6.27534
74 1 11.8906 2.79765 5.4457
26 1 14.2646 4.16991 5.86611
54 1 2.06682 5.56457 7.93881
56 1 1.3507 6.53113 3.97948
70 1 -0.221747 5.63548 6.25327
72 1 3.67375 6.48976 5.56556
15 1 6.66315 4.07894 7.0329
25 1 5.86899 8.17274 6.00595
81 2 7.42025 4.07792 4.51699
10 1 10.5097 8.18245 5.53734
11 1 9.66333 4.03946 6.30597
84 2 8.11472 7.73953 4.26884
85 2 11.9837 4.34286 7.61177
53 1 9.76815 5.5804 3.82799
55 1 10.3155 6.60691 7.94251
69 1 11.8655 5.83034 5.39473
71 1 8.19444 6.56529 6.38518
14 1 13.3216 8.15389 4.88108
80 2 12.7395 8.05651 7.40135
31 1 -2.63336 0.362765 9.32549
49 1 -2.12489 2.64958 10.8491
65 1 -2.76893 2.69041 7.99716
101 2 -0.512392 1.61103 8.83622
4 1 3.31945 4.00956 9.99203
17 1 -0.572166 0.145204 11.2941
41 1 0.926472 2.47498 10.9519
91 2 2.17549 0.224688 11.756
21 1 4.14384 0.200316 10.0694
44 1 6.37939 1.76476 10.8572
60 1 5.81525 1.73737 8.20263
6 1 7.96836 0.209188 8.86075
36 1 9.74183 1.83785 10.6015
96 2 8.01846 2.63883 8.80693
75 1 12.2318 2.06611 12.057
87 2 -2.97461 7.99682 11.7281
46 1 -1.87338 5.72225 10.97
62 1 -2.59648 5.71764 8.08476
8 1 -0.477129 4.09263 8.94924
27 1 1.6075 7.94468 9.25391
98 2 -0.43381 6.61245 8.80656
38 1 1.05913 5.68228 10.7355
76 1 3.6704 6.06929 11.9442
33 1 5.84027 4.11271 9.4827
47 1 6.58939 6.37726 10.8856
63 1 5.81072 6.60252 8.05525
89 2 5.30123 4.15192 11.8572
2 1 11.8144 7.85532 9.93648
29 1 10.092 4.13716 9.19515
19 1 8.04082 4.12727 11.4111
39 1 9.56911 6.47145 10.753
93 2 10.7379 4.26367 11.7107
99 2 8.03435 5.45767 8.85119
23 1 12.7606 4.30895 10.0653
ITEM: TIMESTEP
1300
ITEM: NUMBER OF ATOMS
102
ITEM: BOX BOUNDS xy xz yz pp pp pp
-4.6790016889495512e+00 1.6233317324699726e+01 1.9614202917826670e-01
6.7643154980138398e-02 8.0306141089923049e+00 -4.1398263934281090e+00
-1.8646119598988253e-01 1.2077319154903066e+01 1.6857263972441961e-02
ITEM: ATOMS id type x y z
24 1 -0.899648 3.90312 1.7651
1 1 -0.0669046 0.384422 1.79131
35 1 2.06492 1.5993 1.17444
95 2 3.71624 2.62129 3.04554
20 1 3.75144 4.02998 0.600848
30 1 1.72161 4.01689 2.79168
94 2 1.13832 4.16505 0.20312
43 1 5.11942 1.55699 1.0415
59 1 5.81561 1.59676 3.78553
78 1 7.76104 2.09022 0.0616364
34 1 5.80775 3.83847 2.52703
90 2 6.40743 3.96209 0.135624
28 1 9.8262 0.222102 2.78576
42 1 10.3183 2.50096 1.19899
102 2 11.8426 1.5748 2.98784
7 1 11.9637 4.05591 2.98941
50 1 13.4708 2.52311 0.986637
66 1 13.8999 2.41234 3.86495
88 2 14.5062 0.160656 0.123765
77 1 -0.456612 6.15321 -0.0549862
5 1 3.68291 7.93735 3.03306
40 1 2.23144 6.45446 1.20589
100 2 3.70213 5.42218 3.11564
22 1 7.5594 7.72941 1.93628
48 1 5.32367 6.39052 1.13451
64 1 5.9648 6.39311 3.83007
18 1 12.0631 8.0593 0.746314
92 2 9.39358 8.00186 0.323212
3 1 8.36837 4.25274 1.97386
37 1 10.553 5.64203 1.16735
32 1 14.1349 7.92254 2.54249
45 1 13.4419 5.6177 1.00906
61 1 14.3144 5.54266 3.72478
97 2 12.0919 6.7337 2.97569
13 1 -1.69026 0.0460369 6.96156
79 2 -0.936153 0.207815 4.41677
9 1 1.15647 0.107814 6.25564
51 1 1.32198 1.65415 3.97756
57 1 1.74931 2.2954 7.79366
67 1 3.39744 1.50899 5.3876
73 1 -0.443366 2.49836 6.4585
83 2 3.52737 0.365856 7.62875
12 1 1.94838 3.96694 5.68751
86 2 -0.433943 3.76757 4.26009
82 2 4.13332 3.76379 7.43404
16 1 4.87651 3.89175 4.97611
52 1 10.117 1.41057 7.82178
58 1 9.76195 2.67413 3.96115
68 1 7.95258 1.84555 6.31223
74 1 11.7018 2.29269 5.61856
26 1 14.0445 4.03609 6.00954
54 1 2.0277 5.43584 8.00347
56 1 1.37498 6.46393 4.07929
70 1 -0.256893 5.54818 6.34734
72 1 3.60614 6.31605 5.66476
15 1 6.74801 4.11104 6.94426
25 1 5.89004 7.99412 5.82552
81 2 7.43455 3.94317 4.42847
10 1 10.3144 7.97985 5.51416
11 1 9.67318 4.03371 6.24486
84 2 8.12967 8.04877 4.24835
85 2 11.9252 4.44288 7.67577
53 1 9.67512 5.63903 3.88582
55 1 10.2127 6.44942 7.97434
69 1 11.9778 5.38941 5.35679
71 1 8.05797 6.58984 6.47034
14 1 13.2339 7.9066 5.00957
80 2 12.4556 7.81492 7.42743
31 1 -2.62221 0.123114 9.48875
49 1 -1.98217 2.62837 10.8632
65 1 -2.77531 2.56757 8.24789
101 2 -0.507459 1.41869 8.92525
4 1 3.40352 3.69179 9.77712
17 1 -0.511646 0.0217483 11.2719
41 1 1.04296 2.31988 10.6976
91 2 2.07335 0.0897958 11.5262
21 1 4.05797 0.551367 9.9818
44 1 6.25599 1.68783 10.9137
60 1 5.72272 1.50907 8.06089
6 1 7.83191 0.165827 8.89879
36 1 9.28476 1.72024 10.7369
96 2 7.77563 2.71581 8.86688
75 1 11.9217 2.12691 11.7287
87 2 -3.04272 8.03353 11.7541
46 1 -1.7583 5.69443 10.8402
62 1 -2.44877 5.62623 8.13683
8 1 -0.300261 4.05553 8.88514
27 1 1.84279 7.89694 9.11042
98 2 -0.284668 6.63881 8.94138
38 1 1.34813 5.57665 10.6739
76 1 3.7658 5.99682 12.0059
33 1 5.86325 4.05904 9.34714
47 1 6.36683 6.46409 10.8562
63 1 5.59147 6.55535 8.19834
89 2 5.26806 4.03883 11.7128
2 1 11.4834 7.85793 9.91699
29 1 9.86289 4.05358 8.96338
19 1 7.92121 4.21649 11.0839
39 1 9.4958 6.32173 10.7117
93 2 10.3652 4.08655 11.6244
99 2 7.87449 5.66955 8.94597
23 1 12.3735 4.35222 10.1149
ITEM: TIMESTEP
1400
ITEM: NUMBER OF ATOMS
102
ITEM: BOX BOUNDS xy xz yz pp pp pp
-4.5957786689198423e+00 1.6282749367117194e+01 2.0683096622431146e-01
6.8867905318433564e-02 8.0223381503280535e+00 -4.0178602680269586e+00
-2.0771542726757808e-01 1.2098573386180766e+01 9.8060556464877706e-03
ITEM: ATOMS id type x y z
24 1 -1.03363 3.6734 1.91398
1 1 -0.203543 0.323955 1.84463
35 1 2.00265 1.66955 1.12054
95 2 3.49853 2.56486 2.86673
20 1 3.60599 4.08385 0.649338
30 1 1.522 4.04065 2.82694
94 2 1.09804 4.05527 0.267823
43 1 5.13715 1.72633 0.976569
59 1 5.65076 1.43526 3.59166
78 1 7.86441 2.12694 -0.00497843
34 1 5.73747 3.86604 2.45515
90 2 6.2644 4.03995 0.110307
28 1 9.80052 0.102688 2.79891
42 1 10.381 2.54987 1.19746
102 2 11.8583 1.38843 3.17799
7 1 11.9244 3.89379 3.04229
50 1 13.4468 2.42722 0.937236
66 1 13.9846 2.4533 3.86535
88 2 14.6278 0.0530434 0.172075
77 1 -0.42345 6.07044 0.0227165
5 1 3.58353 7.96094 2.87077
40 1 2.19018 6.33309 1.136
100 2 3.65405 5.48617 2.95467
22 1 7.51415 7.6847 1.75379
48 1 5.17883 6.42304 1.03708
64 1 5.83125 6.38205 3.9221
18 1 12.0489 7.94987 0.509221
92 2 9.5429 8.05996 0.23006
3 1 8.26041 4.32771 1.96757
37 1 10.4136 5.72673 1.19216
32 1 14.1912 7.9729 2.55601
45 1 13.6374 5.64122 1.13123
61 1 14.3387 5.50161 3.72559
97 2 12.0313 6.49331 3.0497
13 1 -1.47865 0.0637831 6.93473
79 2 -1.01628 0.415687 4.53005
9 1 1.22694 0.128412 6.29964
51 1 1.19897 1.6035 3.89081
57 1 1.96432 2.56099 8.03538
67 1 3.44262 1.6292 5.35749
73 1 -0.160088 2.49307 6.49254
83 2 3.53488 0.398966 7.59449
12 1 2.08881 4.03438 5.55882
86 2 -0.368925 3.77959 4.32206
82 2 4.15132 3.87645 7.4105
16 1 4.73757 3.9668 4.80977
52 1 10.6312 1.6031 8.01973
58 1 9.63176 2.51494 4.15226
68 1 8.1775 1.67964 6.48774
74 1 11.9368 2.67668 5.5234
26 1 14.126 4.09089 5.99728
54 1 2.10948 5.48744 7.8319
56 1 1.30277 6.64009 3.95031
70 1 -0.13908 5.46402 6.26642
72 1 3.55473 6.55857 5.53588
15 1 6.72975 4.10613 6.80223
25 1 5.90461 8.25681 5.87753
81 2 7.3968 4.16671 4.45616
10 1 10.448 8.19253 5.66549
11 1 9.56485 4.05082 6.35041
84 2 7.9761 7.88076 4.07373
85 2 12.0669 4.28644 7.67434
53 1 9.60321 5.61599 4.03248
55 1 10.3882 6.3973 8.09248
69 1 11.9899 5.56744 5.47496
71 1 8.15022 6.54185 6.41952
14 1 13.2927 7.94458 5.15715
80 2 12.7349 7.54566 7.44231
31 1 -2.39348 -0.047104 9.47546
49 1 -2.0528 2.53119 10.8411
65 1 -2.55177 2.4554 8.13305
101 2 -0.421651 1.43786 8.87019
4 1 3.43201 3.82992 10.0387
17 1 -0.34758 0.0598218 11.1903
41 1 1.13919 2.29108 10.6938
91 2 2.24018 0.053553 11.6524
21 1 4.19652 0.4416 10.0029
44 1 6.41856 1.70053 10.7967
60 1 5.7602 1.75225 7.99415
6 1 7.93111 0.081374 8.77622
36 1 9.68606 1.67604 10.7568
96 2 8.12209 2.76106 8.85389
75 1 12.1624 2.00358 11.9822
87 2 -2.74732 8.00559 11.8429
46 1 -1.77946 5.74887 10.8716
62 1 -2.27013 5.54914 8.05734
8 1 -0.182108 4.02735 8.94214
27 1 1.89313 7.99988 9.06
98 2 -0.180001 6.58892 8.8122
38 1 1.36099 5.56236 10.627
76 1 3.85671 5.97587 11.7901
33 1 6.06455 4.25441 9.35166
47 1 6.63635 6.48578 10.8606
63 1 5.77228 6.75169 8.09217
89 2 5.38906 4.09825 11.808
2 1 11.9205 7.68139 9.95358
29 1 10.1663 4.01766 9.28704
19 1 8.10083 4.12075 11.3755
39 1 9.60679 6.41949 10.794
93 2 10.7498 4.13769 11.6611
99 2 8.05993 5.36212 8.79212
23 1 12.6467 4.26993 10.077
ITEM: TIMESTEP
1500
ITEM: NUMBER OF ATOMS
102
ITEM: BOX BOUNDS xy xz yz pp pp pp
-4.5111305714001730e+00 1.6313255682464973e+01 1.7177357091965659e-01
1.4056481934874876e-01 7.9794605395563849e+00 -3.8676484598548360e+00
-2.6186799172986941e-01 1.2152725950643060e+01 3.8625358905132509e-02
ITEM: ATOMS id type x y z
24 1 -1.01707 3.7679 1.8568
1 1 -0.132013 0.433367 1.83082
35 1 2.07019 1.65775 1.11511
95 2 3.76314 2.69209 3.031
20 1 3.64812 4.02778 0.540995
30 1 1.54085 4.01506 2.64621
94 2 0.93832 3.86952 0.179231
43 1 5.0719 1.67038 1.04324
59 1 6.00488 1.63579 3.82181
78 1 7.81888 2.09629 -0.0775534
34 1 5.79295 4.05982 2.44925
90 2 6.33482 4.07355 0.0902378
28 1 9.83949 0.17832 2.773
42 1 10.2417 2.44269 1.1463
102 2 11.969 1.61904 2.93004
7 1 11.8929 4.04617 3.0478
50 1 13.5296 2.45323 0.996262
66 1 14.0886 2.50845 3.85382
88 2 14.5331 0.132276 0.120013
77 1 -0.623104 5.92596 0.0438071
5 1 3.54821 7.96139 2.93396
40 1 2.06266 6.32616 1.05353
100 2 3.57148 5.33187 3.1153
22 1 7.47816 7.75414 1.8659
48 1 5.15693 6.41143 0.874756
64 1 5.85798 6.41941 3.64976
18 1 12.0111 7.88467 0.693138
92 2 9.42582 7.84709 0.204099
3 1 8.3182 4.34767 1.78619
37 1 10.5938 5.62436 1.0011
32 1 14.3541 7.8602 2.52841
45 1 13.6018 5.53764 1.02689
61 1 14.3055 5.42508 3.63556
97 2 12.1739 6.62944 2.92083
13 1 -1.60936 0.301936 6.84968
79 2 -0.979876 0.209517 4.43779
9 1 1.30099 0.200246 6.28537
51 1 1.41604 1.68943 4.07019
57 1 2.00254 2.47088 7.92149
67 1 3.76663 1.63793 5.48289
73 1 -0.264428 2.57449 6.47677
83 2 3.79046 0.380193 7.71587
12 1 2.13014 4.1015 5.6742
86 2 -0.390149 3.81919 4.22554
82 2 4.40591 3.96446 7.36482
16 1 5.0534 4.01933 5.04121
52 1 10.4298 1.58415 7.94259
58 1 9.58003 2.70681 3.91733
68 1 8.20352 1.60808 6.30056
74 1 11.9554 2.47269 5.51417
26 1 14.2616 4.10444 5.97899
54 1 2.16111 5.4489 7.98033
56 1 1.45888 6.43328 4.03417
70 1 -0.210533 5.5924 6.33325
72 1 3.72474 6.51051 5.5858
15 1 7.18194 4.04461 7.04341
25 1 6.02772 7.89367 5.97985
81 2 7.51047 4.38033 4.43596
10 1 10.4418 7.93436 5.50907
11 1 9.71889 4.09903 6.12452
84 2 8.12178 7.71919 4.26006
85 2 12.1284 4.4354 7.68153
53 1 9.72557 5.56673 3.79065
55 1 10.4528 6.40938 7.91255
69 1 11.946 5.55453 5.30055
71 1 8.27969 6.52418 6.46626
14 1 13.3651 7.91011 4.86147
80 2 12.6871 7.8095 7.40047
31 1 -2.44572 0.177123 9.41034
49 1 -1.79497 2.58424 10.8573
65 1 -2.75043 2.75179 8.29469
101 2 -0.38358 1.58867 8.8677
4 1 3.57629 3.87835 10.0472
17 1 -0.34405 0.197764 11.3218
41 1 1.26337 2.50634 10.7623
91 2 2.34869 0.308828 11.6119
21 1 4.45936 0.401246 10.1311
44 1 6.67835 1.61287 10.9521
60 1 6.05787 1.58722 8.12654
6 1 8.30615 0.271215 9.14301
36 1 9.82033 1.84819 10.8569
96 2 8.14416 2.72987 8.92269
75 1 12.3484 1.95933 11.8382
87 2 -2.8514 7.89167 11.7324
46 1 -1.64821 5.59401 10.9879
62 1 -2.41014 5.74635 8.15741
8 1 -0.224615 4.11916 8.79826
27 1 2.02208 7.98616 9.1693
98 2 -0.218702 6.68163 8.91902
38 1 1.43948 5.62408 10.6806
76 1 4.00697 6.02952 11.9017
33 1 6.07032 4.09709 9.43168
47 1 6.73269 6.45262 10.8642
63 1 5.95642 6.63246 8.14365
89 2 5.50545 4.05634 11.7702
2 1 11.8624 7.577 9.92537
29 1 10.2328 3.98582 9.19116
19 1 8.0896 4.042 11.3264
39 1 9.70243 6.23672 10.9146
93 2 10.784 4.0049 11.6772
99 2 8.0739 5.50255 8.989
23 1 12.6931 4.3276 10.1765
ITEM: TIMESTEP
1600
ITEM: NUMBER OF ATOMS
102
ITEM: BOX BOUNDS xy xz yz pp pp pp
-4.5262102759711693e+00 1.6231727012824546e+01 1.3393522387531473e-01
1.1614881421650924e-01 8.0148552725379218e+00 -3.9264184870219259e+00
-2.1343419239207861e-01 1.2104292151305266e+01 4.9604086754434333e-02
ITEM: ATOMS id type x y z
24 1 -0.838798 3.79426 1.90456
1 1 -0.208801 0.412917 1.93204
35 1 2.17606 1.77136 1.22569
95 2 3.74231 2.63636 3.07857
20 1 3.60681 4.05206 0.653168
30 1 1.72869 4.08362 2.84647
94 2 1.02551 4.13727 0.284443
43 1 5.15122 1.68603 1.03584
59 1 6.00649 1.52087 3.72668
78 1 7.77029 2.03306 -0.0305568
34 1 5.74524 4.06233 2.47688
90 2 6.20301 4.08613 0.108253
28 1 9.88581 0.115176 2.75664
42 1 10.3891 2.49324 1.15846
102 2 11.9201 1.37201 3.05874
7 1 11.9433 3.99156 2.93318
50 1 13.5316 2.39144 0.953078
66 1 14.144 2.40259 3.74084
88 2 14.6186 0.103649 -0.000267399
77 1 -0.413631 6.03362 0.124601
5 1 3.79048 7.9313 3.09883
40 1 2.17408 6.57509 1.23096
100 2 3.6978 5.4777 2.99697
22 1 7.46614 7.6881 1.82278
48 1 5.18694 6.37371 0.998371
64 1 5.92526 6.34836 3.81289
18 1 12.0046 7.87434 0.436746
92 2 9.36285 8.03469 0.156183
3 1 8.34816 4.16438 1.8913
37 1 10.3738 5.68115 1.12047
32 1 14.2144 7.811 2.44972
45 1 13.597 5.6047 0.993618
61 1 14.2735 5.42568 3.66973
97 2 11.9933 6.53225 2.98914
13 1 -1.57589 0.331153 6.80752
79 2 -0.952825 0.2561 4.51966
9 1 1.22699 0.219877 6.29423
51 1 1.40606 1.53384 3.85474
57 1 1.88228 2.63153 7.99754
67 1 3.5381 1.55318 5.54811
73 1 -0.260273 2.62142 6.46993
83 2 3.53818 0.165134 7.68765
12 1 2.01846 4.00475 5.66331
86 2 -0.214105 3.84454 4.14854
82 2 4.14323 4.02236 7.44936
16 1 4.79934 3.94537 5.06041
52 1 10.2239 1.56567 7.94318
58 1 9.5479 2.72369 3.90216
68 1 8.05083 1.65213 6.12208
74 1 11.8364 2.58467 5.53805
26 1 14.3428 3.98783 5.79622
54 1 1.99378 5.5428 8.09034
56 1 1.40456 6.58091 4.00626
70 1 -0.236628 5.60409 6.19226
72 1 3.55759 6.47021 5.51593
15 1 6.85628 4.06126 7.07845
25 1 5.88321 7.93203 5.92053
81 2 7.50261 4.30474 4.4479
10 1 10.5232 8.00215 5.56121
11 1 9.58222 4.08459 6.33056
84 2 8.14902 7.79305 4.2676
85 2 12.1726 4.13776 7.63825
53 1 9.876 5.53274 4.04314
55 1 10.4355 6.56585 7.95017
69 1 12.0582 5.46006 5.40804
71 1 8.2027 6.45809 6.48513
14 1 13.2632 8.01982 4.90553
80 2 12.6824 7.93028 7.52887
31 1 -2.37355 0.288013 9.41877
49 1 -1.94463 2.58606 10.8829
65 1 -2.37397 2.8147 8.17937
101 2 -0.351613 1.61313 8.99492
4 1 3.30938 3.95908 10.018
17 1 -0.433052 0.207049 11.2748
41 1 1.20493 2.44971 10.8846
91 2 2.213 0.148193 11.6247
21 1 4.12867 0.372117 10.0465
44 1 6.36493 1.67666 10.8586
60 1 5.76056 1.74094 8.19854
6 1 7.82429 0.214054 8.80655
36 1 9.50646 1.5858 10.6869
96 2 7.98031 2.60382 8.73508
75 1 12.2605 2.14759 11.7661
87 2 -2.83814 8.10614 11.911
46 1 -1.76745 5.71771 11.0223
62 1 -2.29872 5.7651 8.0283
8 1 -0.223529 4.20495 9.03931
27 1 1.7461 8.05447 9.10639
98 2 -0.236856 6.61244 8.80105
38 1 1.22317 5.72992 10.7479
76 1 3.80613 6.04639 11.8487
33 1 5.85806 4.0754 9.43491
47 1 6.47743 6.45394 10.7887
63 1 5.78951 6.61184 8.23628
89 2 5.29507 4.07592 11.8383
2 1 11.9195 7.79435 9.88481
29 1 10.208 3.94591 9.15958
19 1 8.01145 4.03851 11.0007
39 1 9.7904 6.34873 10.712
93 2 10.7441 4.10149 11.6031
99 2 8.13189 5.39969 8.96763
23 1 12.6319 4.37289 9.96312
ITEM: TIMESTEP
1700
ITEM: NUMBER OF ATOMS
102
ITEM: BOX BOUNDS xy xz yz pp pp pp
-4.6854829928981481e+00 1.6260450538485305e+01 1.3803701311013475e-01
6.1776778681972733e-02 8.0758671554202834e+00 -4.0610694675229659e+00
-1.8442074403218989e-01 1.2075278702945386e+01 5.6243934102255241e-02
ITEM: ATOMS id type x y z
24 1 -1.16038 3.81807 1.90676
1 1 -0.148154 0.367594 1.84283
35 1 2.09367 1.79322 1.2254
95 2 3.54324 2.69239 2.96003
20 1 3.61293 4.11467 0.709957
30 1 1.3524 4.21236 2.73944
94 2 1.01686 4.12456 0.238738
43 1 5.21063 1.647 1.06633
59 1 5.82478 1.50795 3.80616
78 1 7.8736 1.97742 -0.093336
34 1 5.69964 3.95449 2.53826
90 2 6.32227 4.04562 0.152782
28 1 9.93151 -0.0445568 2.77441
42 1 10.2084 2.4009 1.24512
102 2 11.9565 1.45629 2.90846
7 1 11.7669 4.04467 3.00932
50 1 13.3708 2.44885 0.984655
66 1 13.9948 2.467 3.6922
88 2 14.495 0.0948244 0.156192
77 1 -0.587869 6.08939 -0.0734243
5 1 3.40668 8.08101 3.01985
40 1 1.96786 6.46164 1.14627
100 2 3.51771 5.52714 3.01648
22 1 7.31699 7.90657 1.99418
48 1 5.23042 6.39441 1.08694
64 1 5.66287 6.52628 3.73767
18 1 12.0141 8.05803 0.677448
92 2 9.48047 7.9597 0.330214
3 1 8.25706 4.30908 2.1089
37 1 10.5355 5.60143 1.15749
32 1 14.2535 7.98477 2.54459
45 1 13.5889 5.65254 1.16099
61 1 14.2652 5.4329 3.91532
97 2 12.1853 6.59557 3.00414
13 1 -1.65137 0.267482 6.78939
79 2 -1.02718 0.423225 4.49235
9 1 1.08061 0.159211 6.2488
51 1 1.24535 1.85453 4.09851
57 1 2.02886 2.60321 7.93694
67 1 3.61507 1.55005 5.49048
73 1 -0.310797 2.70393 6.54324
83 2 3.56457 0.0576486 7.7113
12 1 2.02922 4.1473 5.58951
86 2 -0.560313 3.75202 4.32133
82 2 4.14353 3.98015 7.42101
16 1 4.68252 4.05632 4.9148
52 1 10.1728 1.66069 7.86452
58 1 9.49486 2.43591 3.985
68 1 8.0588 1.58886 6.21063
74 1 11.8759 2.49709 5.47535
26 1 14.0357 3.87069 5.97325
54 1 1.88613 5.65264 7.8215
56 1 1.22061 6.75343 3.78747
70 1 -0.444491 5.66164 6.18169
72 1 3.38278 6.62415 5.40684
15 1 6.81083 4.12554 6.89247
25 1 5.79673 7.84894 6.01843
81 2 7.34326 4.08726 4.52449
10 1 10.33 7.97832 5.49887
11 1 9.62399 3.96738 6.22809
84 2 7.94855 7.58177 4.30447
85 2 11.9106 3.93135 7.70335
53 1 9.82704 5.53554 4.06583
55 1 10.2732 6.51304 7.9566
69 1 11.9376 5.43663 5.51143
71 1 8.15804 6.43476 6.4451
14 1 13.1693 8.01794 4.92672
80 2 12.616 7.91627 7.36713
31 1 -2.6706 0.195347 9.27024
49 1 -1.84708 2.58361 10.8318
65 1 -2.58794 2.62114 8.24768
101 2 -0.331676 1.55821 8.91646
4 1 3.41089 4.08219 10.0056
17 1 -0.467825 0.175082 11.2514
41 1 1.18719 2.53783 10.7971
91 2 2.27654 0.079128 11.6841
21 1 4.28304 0.0746008 10.0482
44 1 6.35333 1.69494 10.8067
60 1 5.85685 1.68947 8.01855
6 1 8.0397 0.138778 8.95311
36 1 9.57825 1.78221 10.6571
96 2 8.00787 2.7282 8.83974
75 1 12.2318 2.14826 11.8564
87 2 -2.94486 8.1402 11.763
46 1 -1.87568 5.72145 10.8546
62 1 -2.48144 5.54875 8.06589
8 1 -0.199746 4.1959 8.87467
27 1 1.81255 8.04133 9.24097
98 2 -0.371822 6.75209 8.87813
38 1 1.19915 5.79988 10.6694
76 1 3.84086 6.04817 11.944
33 1 5.9072 4.10864 9.30312
47 1 6.54487 6.52408 10.8422
63 1 5.89183 6.70847 8.19598
89 2 5.41772 4.03593 11.7088
2 1 11.5575 8.006 9.92423
29 1 10.0434 3.98702 9.09456
19 1 7.93352 4.10356 11.3605
39 1 9.52557 6.44333 10.747
93 2 10.5735 4.16963 11.5277
99 2 7.98579 5.47969 8.79129
23 1 12.5748 4.23356 10.0323
ITEM: TIMESTEP
1800
ITEM: NUMBER OF ATOMS
102
ITEM: BOX BOUNDS xy xz yz pp pp pp
-4.6145608795129931e+00 1.6147142182957726e+01 9.2946236146514399e-02
1.0556594398848462e-01 7.9774961288178146e+00 -4.0583649327017284e+00
-2.3797815861456506e-01 1.2128836117527761e+01 1.6620728062965509e-03
ITEM: ATOMS id type x y z
24 1 -0.980012 3.87301 1.86273
1 1 -0.217676 0.287335 1.85439
35 1 2.0753 1.68557 1.13822
95 2 3.63926 2.72081 3.07244
20 1 3.5293 4.10959 0.519009
30 1 1.58438 4.02982 2.73334
94 2 1.00556 4.02424 0.234766
43 1 5.13278 1.66452 0.910508
59 1 5.9169 1.63178 3.73348
78 1 7.83424 2.03031 -0.268154
34 1 5.63279 3.90257 2.37445
90 2 6.22486 4.03738 0.0362449
28 1 9.78674 0.159324 2.71314
42 1 10.436 2.31207 1.20642
102 2 11.709 1.49377 3.14503
7 1 12.0557 4.08336 3.07398
50 1 13.4181 2.47333 1.00673
66 1 13.9704 2.43232 3.86379
88 2 14.5438 0.0722089 0.106888
77 1 -0.477409 5.99967 -0.172005
5 1 3.60918 8.0236 2.88468
40 1 1.82642 6.47107 1.15584
100 2 3.52995 5.45255 3.00568
22 1 7.17253 7.92931 1.80572
48 1 5.13974 6.41772 0.931611
64 1 5.65918 6.46536 3.68323
18 1 11.9675 7.87837 0.729966
92 2 9.412 7.9518 0.257853
3 1 8.22873 3.87563 1.86939
37 1 10.3707 5.57569 1.1904
32 1 13.9209 8.02689 2.62685
45 1 13.5302 5.65122 1.01918
61 1 14.4834 5.53099 3.67404
97 2 11.8685 6.58328 3.20741
13 1 -1.59662 0.190542 6.90413
79 2 -1.00905 0.38264 4.53069
9 1 1.1734 0.0238092 6.24935
51 1 1.32369 1.42908 3.88825
57 1 1.99665 2.69823 8.00789
67 1 3.5094 1.65267 5.55641
73 1 -0.266475 2.42279 6.40099
83 2 3.6028 -0.122734 7.64001
12 1 2.04227 4.01891 5.59564
86 2 -0.337557 3.72385 4.19388
82 2 4.25686 4.17127 7.37297
16 1 4.90418 4.13727 4.90312
52 1 10.1279 1.76383 7.86505
58 1 9.33866 2.65266 3.9462
68 1 7.88277 1.63118 6.36932
74 1 11.7107 2.64151 5.44392
26 1 14.1524 4.01756 5.88369
54 1 1.95431 5.5402 7.8335
56 1 1.21291 6.3464 3.85394
70 1 -0.29738 5.46431 6.41756
72 1 3.42477 6.56877 5.38476
15 1 6.7858 4.17327 7.03786
25 1 5.77538 7.83892 5.91244
81 2 7.31917 4.34867 4.36015
10 1 10.171 8.03943 5.62667
11 1 9.53639 4.13406 6.3028
84 2 7.91035 7.79789 4.20273
85 2 11.9752 3.78372 7.59356
53 1 9.6129 5.57201 3.85712
55 1 10.241 6.41889 8.00918
69 1 11.8003 5.5613 5.64829
71 1 8.13274 6.5111 6.43951
14 1 13.1088 8.03339 5.06751
80 2 12.5203 8.10929 7.47804
31 1 -2.43823 0.264087 9.50208
49 1 -1.94469 2.46428 11.0032
65 1 -2.49255 2.66942 8.18967
101 2 -0.327542 1.5084 8.92632
4 1 3.41156 4.07514 9.98878
17 1 -0.421948 0.0430326 11.2361
41 1 1.16534 2.47639 10.6667
91 2 2.13935 0.151581 11.5402
21 1 4.25156 0.102968 10.0396
44 1 6.44619 1.61285 10.8793
60 1 5.59627 1.51475 8.13392
6 1 8.06853 0.079685 9.03251
36 1 9.5112 1.68942 10.6508
96 2 7.85744 2.705 8.84088
75 1 11.9388 2.08112 12.0615
87 2 -3.05845 7.98656 11.7957
46 1 -1.86557 5.5115 10.7968
62 1 -2.61629 5.6295 8.03882
8 1 -0.378226 4.04074 9.0045
27 1 1.77649 8.00719 9.15681
98 2 -0.373831 6.61354 8.8126
38 1 1.20661 5.70576 10.6984
76 1 3.71616 6.01149 12.064
33 1 5.92258 3.94323 9.43722
47 1 6.42001 6.39205 10.9135
63 1 5.85037 6.4523 8.22046
89 2 5.24393 4.01492 11.7831
2 1 11.7192 7.93246 9.93906
29 1 10.0048 3.96758 9.1568
19 1 8.02661 4.06531 11.1932
39 1 9.68267 6.36552 10.7721
93 2 10.5502 4.05 11.7287
99 2 7.99978 5.47622 8.97679
23 1 12.5919 3.99122 10.1262
ITEM: TIMESTEP
1900
ITEM: NUMBER OF ATOMS
102
ITEM: BOX BOUNDS xy xz yz pp pp pp
-4.6130662997651140e+00 1.6060784761244051e+01 -8.5203466984639611e-02
2.3440883029437767e-02 8.0133707418908244e+00 -3.9650780715363698e+00
-2.2493850946900107e-01 1.2115796468382189e+01 -4.4588375079736828e-02
ITEM: ATOMS id type x y z
24 1 -1.01603 4.02893 1.90151
1 1 0.0404716 0.0223164 1.88516
35 1 2.1284 1.66913 1.23021
95 2 3.65581 2.53393 3.07556
20 1 3.54966 3.85191 0.56419
30 1 1.52175 4.06892 2.73772
94 2 0.935418 3.97078 0.197053
43 1 5.1805 1.58202 1.09956
59 1 6.0306 1.54507 3.79166
78 1 7.64564 2.08808 -0.304805
34 1 5.60247 3.98766 2.42504
90 2 6.19319 4.01414 0.144848
28 1 10.0138 0.0960981 2.75449
42 1 10.1258 2.36963 1.12326
102 2 11.916 1.55176 2.8593
7 1 11.6344 4.09263 3.12321
50 1 13.4033 2.50726 0.957756
66 1 14.03 2.55694 3.70635
88 2 14.4747 -0.00211534 0.146105
77 1 -0.744274 5.96135 -0.269628
5 1 3.43061 7.98491 3.11428
40 1 1.97358 6.3609 1.14052
100 2 3.50794 5.42565 2.92972
22 1 7.2702 8.05652 1.81495
48 1 5.03528 6.47892 1.0054
64 1 5.70008 6.4508 3.60599
18 1 11.7871 8.14229 0.535081
92 2 9.06059 8.10852 0.166149
3 1 8.23539 4.42235 1.99906
37 1 10.3098 5.82717 1.18573
32 1 13.9697 7.94213 2.41773
45 1 13.3908 5.45294 1.02404
61 1 14.1057 5.36945 3.87206
97 2 11.9073 6.65044 2.97502
13 1 -1.59357 0.0812026 6.95126
79 2 -0.983777 0.165919 4.42601
9 1 1.34442 0.163317 6.24502
51 1 1.396 1.6503 4.03056
57 1 2.19722 2.40032 7.96207
67 1 3.6567 1.52011 5.65635
73 1 -0.250922 2.50777 6.4609
83 2 3.6513 -0.305249 7.61456
12 1 1.91477 4.07711 5.7249
86 2 -0.451868 3.71557 4.29589
82 2 4.12665 4.2793 7.39097
16 1 4.76476 4.0327 4.96056
52 1 10.2143 1.57525 7.98206
58 1 9.47851 2.70368 3.89093
68 1 7.96587 1.60375 6.28816
74 1 11.6881 2.49127 5.43202
26 1 14.0625 3.68576 6.02161
54 1 1.69395 5.67232 7.94888
56 1 1.23188 6.47734 3.90723
70 1 -0.439557 5.6432 6.41999
72 1 3.3468 6.42362 5.47632
15 1 6.78419 4.16002 6.93136
25 1 5.77629 7.82805 5.86698
81 2 7.35314 4.38537 4.48361
10 1 10.3027 8.02257 5.57178
11 1 9.61304 4.03598 6.3667
84 2 7.94485 7.81366 4.2238
85 2 11.8978 3.73784 7.67952
53 1 9.72045 5.74685 4.0685
55 1 10.3289 6.65918 8.07306
69 1 11.9587 5.48595 5.67602
71 1 8.13915 6.58024 6.38755
14 1 12.9984 8.15528 4.9414
80 2 12.4461 8.27288 7.49768
31 1 -2.46011 -0.137744 9.51338
49 1 -1.88665 2.4589 10.8102
65 1 -2.51151 2.28945 8.17485
101 2 -0.315877 1.49028 8.85232
4 1 3.17837 4.12232 10.0506
17 1 -0.347982 0.134843 11.2206
41 1 1.18262 2.36545 10.6535
91 2 2.21362 -0.026478 11.6396
21 1 4.10739 -0.192282 9.96682
44 1 6.18671 1.53752 10.7529
60 1 5.39233 1.49666 8.12459
6 1 7.9098 0.047911 8.80675
36 1 9.27673 1.61789 10.7002
96 2 7.79662 2.64724 8.86967
75 1 12.0613 1.96742 12.2923
87 2 -2.95677 7.92935 11.8296
46 1 -1.98136 5.49618 10.7897
62 1 -2.74381 5.35736 8.06652
8 1 -0.326551 3.98428 8.76998
27 1 1.55366 7.91475 9.21423
98 2 -0.580687 6.54417 8.83299
38 1 0.897359 5.60913 10.7612
76 1 3.67977 6.04002 12.083
33 1 5.80224 4.04115 9.34496
47 1 6.29841 6.43836 10.9701
63 1 5.68801 6.44478 8.21236
89 2 5.14145 4.09094 11.7235
2 1 11.52 8.18488 10.1493
29 1 9.94811 4.08508 9.08786
19 1 7.81818 3.89392 11.2765
39 1 9.36478 6.45514 10.7589
93 2 10.4482 3.85171 11.6347
99 2 7.96623 5.42657 8.88002
23 1 12.5251 3.8064 10.176
ITEM: TIMESTEP
2000
ITEM: NUMBER OF ATOMS
102
ITEM: BOX BOUNDS xy xz yz pp pp pp
-4.5555011567100054e+00 1.6014843131577706e+01 -1.3152327787134638e-01
5.0980524652672443e-02 8.0413038546999260e+00 -3.9071347472609204e+00
-1.7372559898756990e-01 1.2064583557900765e+01 1.0884379352603371e-02
ITEM: ATOMS id type x y z
24 1 -1.19444 4.20346 1.80552
1 1 -0.043073 -0.0764821 1.91109
35 1 2.02949 1.56638 1.24284
95 2 3.67241 2.63586 3.1212
20 1 3.4919 3.9843 0.778767
30 1 1.48508 3.99748 2.78823
94 2 0.959428 4.0017 0.343826
43 1 5.18006 1.76304 1.15223
59 1 5.91686 1.44741 3.88645
78 1 7.72466 2.03295 -0.0963207
34 1 5.59 4.03456 2.5497
90 2 6.1007 4.01865 0.172526
28 1 9.7754 -0.0233649 2.76345
42 1 10.2426 2.45901 1.12848
102 2 11.7802 1.42022 3.06184
7 1 11.7754 4.01758 2.97578
50 1 13.3782 2.36727 1.03205
66 1 13.9518 2.56887 3.60033
88 2 14.5067 0.140386 0.078425
77 1 -0.631282 6.03232 -0.357289
5 1 3.46499 8.02079 3.03494
40 1 1.94397 6.40367 1.26629
100 2 3.54545 5.50364 3.09857
22 1 7.17133 7.92967 1.92967
48 1 5.04124 6.43428 1.05301
64 1 5.69407 6.4279 3.80925
18 1 11.8115 8.20462 0.420632
92 2 9.19483 8.06218 0.284751
3 1 8.28673 4.12832 2.02525
37 1 10.3903 5.75042 1.20899
32 1 13.7716 8.08069 2.56932
45 1 13.3634 5.76052 0.928155
61 1 14.0949 5.65297 3.85247
97 2 11.874 6.57652 3.2524
13 1 -1.48806 0.116164 6.98934
79 2 -0.908679 0.320228 4.40912
9 1 1.21156 -0.010312 6.23119
51 1 1.44737 1.52059 4.03509
57 1 2.12784 2.63837 7.95464
67 1 3.4878 1.44854 5.60789
73 1 -0.192847 2.51429 6.33529
83 2 3.57067 -0.215224 7.6176
12 1 2.04883 3.96743 5.52332
86 2 -0.335554 3.78141 4.17206
82 2 4.06694 4.32843 7.43192
16 1 4.80449 4.07584 5.02213
52 1 10.0723 1.64966 7.70521
58 1 9.34769 2.39766 3.94667
68 1 7.86514 1.52362 6.19667
74 1 11.5734 2.54733 5.35249
26 1 14.0259 3.92985 5.80672
54 1 1.76214 5.51531 7.81651
56 1 1.11203 6.41385 3.89384
70 1 -0.41002 5.51871 6.41313
72 1 3.29907 6.52532 5.4374
15 1 6.73636 4.03235 6.79532
25 1 5.58081 7.92412 5.92757
81 2 7.35146 4.21687 4.41891
10 1 10.132 7.96342 5.5155
11 1 9.45742 3.96466 6.22083
84 2 7.86669 7.61213 4.3752
85 2 11.8014 3.65331 7.62662
53 1 9.59778 5.49822 3.88025
55 1 10.3211 6.50123 7.89187
69 1 11.7196 5.48816 5.66123
71 1 8.05733 6.54999 6.47078
14 1 12.9633 8.13011 4.93172
80 2 12.3354 8.38257 7.28475
31 1 -2.46162 -0.00362538 9.34638
49 1 -1.81102 2.36768 10.917
65 1 -2.36366 2.51184 8.01638
101 2 -0.28929 1.41775 8.96193
4 1 3.41881 4.41274 10.102
17 1 -0.296245 -0.0839029 11.4193
41 1 1.29843 2.35912 10.7745
91 2 2.3824 0.104582 11.6626
21 1 4.42416 0.0963814 9.99415
44 1 6.50427 1.71439 10.8416
60 1 5.56392 1.56312 8.0087
6 1 8.12428 0.0898265 8.90034
36 1 9.44342 1.95972 10.7062
96 2 7.80474 2.68495 8.85131
75 1 11.9921 2.05592 12.2534
87 2 -3.11065 8.0062 11.7278
46 1 -1.97317 5.50396 10.845
62 1 -2.8919 5.44592 8.09365
8 1 -0.302211 4.08079 8.92877
27 1 1.69399 8.01043 9.09395
98 2 -0.461896 6.64268 8.79387
38 1 1.15275 5.76289 10.6671
76 1 3.90704 6.13529 12.1813
33 1 5.85185 4.09874 9.36516
47 1 6.377 6.45931 10.9223
63 1 5.70496 6.41455 8.11397
89 2 5.38709 4.16404 11.6957
2 1 11.4167 8.44363 9.83261
29 1 9.90747 4.08362 9.02984
19 1 7.96505 4.1853 11.2873
39 1 9.524 6.57541 10.5621
93 2 10.5666 4.20391 11.6199
99 2 7.90564 5.54919 8.93772
23 1 12.4645 3.61578 10.0762
ITEM: TIMESTEP
2100
ITEM: NUMBER OF ATOMS
102
ITEM: BOX BOUNDS xy xz yz pp pp pp
-4.5955853951146057e+00 1.6028352041901066e+01 -5.7788144211560324e-02
8.2551007607335247e-02 8.0250929683308012e+00 -4.0074452090019399e+00
-2.5762078422829404e-01 1.2148478743141496e+01 2.6243975938135541e-02
ITEM: ATOMS id type x y z
24 1 -0.983714 4.11102 1.74988
1 1 -0.0933535 0.135743 1.86008
35 1 2.12014 1.69974 1.07403
95 2 3.63149 2.5955 2.94185
20 1 3.47745 4.01511 0.458551
30 1 1.456 3.96362 2.77549
94 2 0.959149 4.15392 0.138189
43 1 4.95007 1.61925 0.965669
59 1 5.75284 1.49932 3.80268
78 1 7.66455 1.93168 -0.331588
34 1 5.62067 3.97289 2.48154
90 2 6.17691 3.92116 0.0989854
28 1 9.63324 0.141197 2.67602
42 1 10.3005 2.54811 1.08904
102 2 11.8129 1.43333 2.99085
7 1 11.7813 4.06821 3.03571
50 1 13.369 2.53283 0.914459
66 1 14.081 2.57428 3.55217
88 2 14.5939 0.161594 0.0883349
77 1 -0.581243 6.11064 -0.38448
5 1 3.32788 7.989 2.97994
40 1 1.85909 6.35678 1.10573
100 2 3.37787 5.36056 2.81604
22 1 7.15649 8.11514 1.71157
48 1 5.00477 6.44671 0.960545
64 1 5.50137 6.5497 3.63811
18 1 11.8926 8.02908 0.517164
92 2 9.19198 7.97225 0.205834
3 1 8.09808 4.10568 1.96707
37 1 10.3398 5.61044 1.18709
32 1 13.88 7.98204 2.43478
45 1 13.3373 5.47837 1.04113
61 1 14.2203 5.55007 3.88372
97 2 11.8452 6.58073 3.38855
13 1 -1.47356 0.0240166 7.02319
79 2 -0.926626 0.425934 4.51171
9 1 1.36958 0.140807 6.29729
51 1 1.38381 1.66985 3.97057
57 1 2.03773 2.57019 7.9666
67 1 3.49962 1.58281 5.61564
73 1 -0.288662 2.36377 6.45928
83 2 3.60436 -0.230676 7.72973
12 1 1.9672 4.05748 5.70877
86 2 -0.40556 3.71447 4.36585
82 2 4.15367 4.2522 7.49568
16 1 4.58803 4.20034 4.90776
52 1 10.1577 1.74065 7.93679
58 1 9.43705 2.57999 3.91112
68 1 7.91013 1.60674 6.23079
74 1 11.6242 2.56124 5.40786
26 1 14.0521 3.71194 5.964
54 1 1.76794 5.62373 7.92581
56 1 1.04223 6.62025 3.83666
70 1 -0.35808 5.56461 6.35669
72 1 3.29339 6.45684 5.43891
15 1 6.59287 4.20523 6.83254
25 1 5.64371 7.82898 5.98752
81 2 7.17851 4.19613 4.39218
10 1 10.2242 8.00944 5.54511
11 1 9.46341 3.95788 6.21931
84 2 7.85831 7.75808 4.1285
85 2 11.8722 3.74144 7.68739
53 1 9.5402 5.54653 3.96457
55 1 10.3332 6.67963 8.06405
69 1 12.0269 5.47445 5.70496
71 1 8.13073 6.57607 6.41864
14 1 13.0465 8.07742 5.05645
80 2 12.3812 8.21493 7.48107
31 1 -2.38003 -0.0234308 9.45456
49 1 -1.92683 2.55905 10.8532
65 1 -2.54097 2.54901 8.35974
101 2 -0.354722 1.52539 8.85547
4 1 3.36481 4.12074 10.0164
17 1 -0.299088 0.168669 11.2265
41 1 1.05476 2.5442 10.6873
91 2 2.14144 0.082359 11.7097
21 1 4.16956 -0.0372711 10.1023
44 1 6.39307 1.64403 10.9094
60 1 5.56594 1.56967 8.15388
6 1 8.01521 0.159253 8.78967
36 1 9.30466 1.64391 10.7532
96 2 7.91011 2.74133 8.84085
75 1 12.0065 2.18344 12.2774
87 2 -2.9051 8.09381 11.8494
46 1 -1.938 5.66398 10.9628
62 1 -2.6373 5.46505 8.02571
8 1 -0.343014 4.07663 8.83934
27 1 1.56594 7.98433 9.09779
98 2 -0.464142 6.57346 8.92056
38 1 1.02855 5.63407 10.7646
76 1 3.74476 6.03559 12.1247
33 1 5.8588 4.06704 9.46563
47 1 6.30456 6.43432 11.0477
63 1 5.80902 6.52263 8.30555
89 2 5.18842 4.09323 11.8414
2 1 11.6111 8.38263 10.0739
29 1 10.0681 4.1728 9.08537
19 1 7.90322 4.1113 11.1076
39 1 9.45635 6.42821 10.7976
93 2 10.481 4.0773 11.574
99 2 8.06941 5.53605 8.86194
23 1 12.4206 4.18561 10.1016
ITEM: TIMESTEP
2200
ITEM: NUMBER OF ATOMS
102
ITEM: BOX BOUNDS xy xz yz pp pp pp
-4.7364573718352663e+00 1.6162246810364245e+01 4.1157669171208222e-02
2.6987892304512207e-02 7.9819853243212089e+00 -4.1133682306422035e+00
-1.8704683104054087e-01 1.2077904789953735e+01 -7.2426783374281933e-02
ITEM: ATOMS id type x y z
24 1 -1.10618 3.8736 1.87937
1 1 -0.252956 0.409571 1.96064
35 1 1.9335 1.69149 1.11192
95 2 3.52947 2.73447 3.11204
20 1 3.56126 4.04272 0.635644
30 1 1.47888 4.08581 2.799
94 2 0.870323 4.01314 0.30788
43 1 5.19443 1.52469 1.13788
59 1 5.95221 1.58964 3.78642
78 1 7.73426 2.05419 -0.220445
34 1 5.66606 3.9793 2.49737
90 2 6.2212 4.10015 0.0542392
28 1 9.8105 0.203076 2.83383
42 1 10.3533 2.46503 1.14062
102 2 11.9076 1.543 2.90644
7 1 11.8297 4.18591 2.93099
50 1 13.4515 2.49169 1.01487
66 1 14.0455 2.51484 3.80279
88 2 14.4482 0.120767 0.174607
77 1 -0.657291 6.00545 0.0190439
5 1 3.58555 8.14972 2.97387
40 1 2.01629 6.53692 1.25393
100 2 3.52228 5.51228 3.15489
22 1 7.52529 7.78403 1.91331
48 1 5.09619 6.51923 1.035
64 1 5.76235 6.49769 3.69876
18 1 11.8664 8.03183 0.598737
92 2 9.26421 8.00752 0.24822
3 1 8.32399 4.20593 1.91804
37 1 10.4422 5.62181 1.06343
32 1 14.0806 7.95989 2.533
45 1 13.4251 5.64592 1.07916
61 1 14.2052 5.50133 3.91261
97 2 12.0589 6.63909 3.04492
13 1 -1.65304 0.0789991 6.88303
79 2 -1.08538 0.294178 4.45956
9 1 1.11213 0.0770717 6.2839
51 1 1.33255 1.56406 4.10561
57 1 2.08606 2.40961 7.90211
67 1 3.52881 1.58893 5.54417
73 1 -0.24313 2.47765 6.43455
83 2 3.50014 -0.229027 7.54717
12 1 1.94444 4.03364 5.57456
86 2 -0.521802 3.72961 4.21086
82 2 4.09868 4.2224 7.41871
16 1 4.77423 4.14039 4.97624
52 1 10.1206 1.5523 7.90806
58 1 9.53588 2.6928 3.90935
68 1 7.90058 1.55117 6.24531
74 1 11.7025 2.73396 5.42445
26 1 14.0914 3.8665 5.98723
54 1 1.7912 5.52831 7.75695
56 1 1.06699 6.49876 3.97949
70 1 -0.469807 5.50916 6.26261
72 1 3.41032 6.43892 5.46906
15 1 6.77031 4.02624 6.85922
25 1 5.75212 7.8373 5.91633
81 2 7.46616 4.25594 4.46407
10 1 10.2909 7.96126 5.67066
11 1 9.54528 3.9492 6.36166
84 2 8.01216 7.7509 4.22982
85 2 11.8897 3.73878 7.66225
53 1 9.70396 5.61749 3.99296
55 1 10.1897 6.41901 7.97334
69 1 12.009 5.66729 5.64242
71 1 8.05657 6.53492 6.45413
14 1 12.9912 8.08278 4.95499
80 2 12.446 8.12595 7.43761
31 1 -2.5317 -0.0867295 9.37961
49 1 -1.86983 2.37962 10.8079
65 1 -2.53931 2.42672 8.2294
101 2 -0.359515 1.36109 8.95074
4 1 3.09747 4.14925 9.86928
17 1 -0.56661 0.0553119 11.2522
41 1 1.16663 2.18962 10.6302
91 2 2.17909 -0.0538426 11.6734
21 1 4.14882 -0.227224 10.0229
44 1 6.24754 1.52271 10.7625
60 1 5.48308 1.43945 8.04193
6 1 7.84019 0.0219575 8.89445
36 1 9.36739 1.57179 10.613
96 2 7.74106 2.57 8.8638
75 1 11.8728 1.98912 11.9161
87 2 -3.36861 7.86288 11.7902
46 1 -2.14746 5.49888 10.9148
62 1 -2.7399 5.44293 8.08442
8 1 -0.388737 3.89866 8.93927
27 1 1.70525 7.8038 9.02146
98 2 -0.483555 6.55064 8.7617
38 1 0.973016 5.5794 10.7485
76 1 3.75741 5.89322 12.0525
33 1 5.75771 3.8389 9.31813
47 1 6.36595 6.27525 10.8148
63 1 5.68604 6.35939 8.05048
89 2 5.2183 3.95108 11.7692
2 1 11.6266 7.7794 9.95815
29 1 9.91609 3.9829 9.21746
19 1 7.78607 3.91387 11.3219
39 1 9.44417 6.21552 10.7847
93 2 10.4777 4.0151 11.7441
99 2 7.79827 5.33428 8.85646
23 1 12.4524 3.88018 9.99928
ITEM: TIMESTEP
2300
ITEM: NUMBER OF ATOMS
102
ITEM: BOX BOUNDS xy xz yz pp pp pp
-4.6513164923095438e+00 1.6198997049423799e+01 9.8389091651813046e-02
-5.5810279644224567e-02 8.0216382202778433e+00 -4.0487085345375355e+00
-1.8286438499501489e-01 1.2073722343908216e+01 -1.1557205936638469e-01
ITEM: ATOMS id type x y z
24 1 -1.01313 3.65227 1.7639
1 1 -0.0939579 0.0680954 1.86953
35 1 2.20516 1.64411 1.14486
95 2 3.76738 2.51831 3.05068
20 1 3.62409 4.13015 0.649818
30 1 1.57445 4.05758 2.71439
94 2 1.00359 3.96435 0.344441
43 1 5.17238 1.63309 1.06432
59 1 5.98583 1.45691 3.94656
78 1 7.75899 2.10317 -0.077135
34 1 5.7819 3.96398 2.58666
90 2 6.27675 4.03855 0.14478
28 1 9.74343 0.0679113 2.74707
42 1 10.3708 2.41161 1.23683
102 2 11.7621 1.44111 3.11761
7 1 11.8526 4.10676 3.0278
50 1 13.4711 2.34025 0.974568
66 1 13.9244 2.40665 3.78125
88 2 14.6803 -0.122857 0.228716
77 1 -0.527496 5.90905 -0.200318
5 1 3.62399 8.02243 2.94821
40 1 2.11397 6.46335 1.18817
100 2 3.55624 5.48688 2.90305
22 1 7.32913 8.04765 1.89263
48 1 5.1428 6.44179 1.10277
64 1 5.64408 6.39588 3.76606
18 1 11.9702 7.98912 0.527856
92 2 9.4473 7.98772 0.32815
3 1 8.29067 4.07544 1.89421
37 1 10.4486 5.65732 1.1806
32 1 14.0361 7.98113 2.55028
45 1 13.4815 5.50271 1.03817
61 1 14.393 5.51232 3.78265
97 2 12.0644 6.53089 3.09582
13 1 -1.70948 0.0376368 6.99902
79 2 -0.984007 0.30213 4.41824
9 1 1.07297 0.0564687 6.27731
51 1 1.37569 1.54773 3.98108
57 1 2.08084 2.55366 8.02169
67 1 3.57571 1.57564 5.6004
73 1 -0.236938 2.63094 6.41613
83 2 3.52051 -0.266164 7.65354
12 1 1.85568 4.0536 5.58941
86 2 -0.359862 3.79775 4.20065
82 2 4.13852 4.19855 7.37389
16 1 4.73835 4.04667 4.96328
52 1 10.2096 1.49317 7.88553
58 1 9.28323 2.44189 3.98642
68 1 7.92773 1.45783 6.35045
74 1 11.7715 2.37732 5.5532
26 1 14.059 3.98774 5.92958
54 1 1.8507 5.55695 7.87999
56 1 1.13985 6.63831 3.94455
70 1 -0.34191 5.56506 6.2783
72 1 3.42864 6.42563 5.54725
15 1 6.85463 3.94751 6.97737
25 1 5.81906 7.81982 5.94596
81 2 7.32267 4.29299 4.4744
10 1 10.3463 7.91079 5.64569
11 1 9.55268 3.97284 6.21758
84 2 7.91676 7.69797 4.26118
85 2 11.924 3.78767 7.72084
53 1 9.65497 5.61172 3.9143
55 1 10.323 6.44985 7.92517
69 1 11.8534 5.52362 5.55336
71 1 8.07567 6.33093 6.46267
14 1 13.1778 7.90022 5.02757
80 2 12.6167 7.93969 7.46809
31 1 -2.5747 0.141025 9.42238
49 1 -1.7037 2.61813 10.8225
65 1 -2.60239 2.54517 8.11592
101 2 -0.496734 1.50101 8.85884
4 1 3.38044 3.94012 9.93682
17 1 -0.426975 0.100141 11.2391
41 1 1.15488 2.36161 10.6246
91 2 2.12154 0.046963 11.5373
21 1 4.22842 0.159094 10.0658
44 1 6.4735 1.58235 10.7594
60 1 5.54861 1.50841 7.98097
6 1 7.96652 0.00711257 8.87859
36 1 9.48641 1.57243 10.5881
96 2 7.88959 2.49914 8.8238
75 1 12.2907 1.80082 11.8895
87 2 -2.99823 7.71723 11.7448
46 1 -1.83664 5.53054 10.8029
62 1 -2.63004 5.50599 8.05698
8 1 -0.290713 4.0198 8.93367
27 1 1.62548 7.94651 9.04184
98 2 -0.524734 6.5718 8.95139
38 1 1.2044 5.63825 10.6644
76 1 3.7937 6.00027 12.0522
33 1 5.87439 3.92859 9.36361
47 1 6.38831 6.32006 10.7909
63 1 5.88125 6.45102 8.22006
89 2 5.24468 3.93182 11.8149
2 1 11.6582 7.84281 9.97526
29 1 10.0551 3.94823 9.04448
19 1 7.9545 3.9984 11.3176
39 1 9.52882 6.31507 10.7511
93 2 10.5475 3.84039 11.4564
99 2 8.00767 5.38125 8.92928
23 1 12.5524 3.95691 9.99419
ITEM: TIMESTEP
2400
ITEM: NUMBER OF ATOMS
102
ITEM: BOX BOUNDS xy xz yz pp pp pp
-4.4455405225593800e+00 1.6103142299716939e+01 8.5978213738266626e-02
7.1483988734072565e-02 8.0003734679892879e+00 -3.9263764365806826e+00
-2.5521054924314512e-01 1.2146068508156342e+01 -9.5425432766274212e-03
ITEM: ATOMS id type x y z
24 1 -0.834394 3.93597 1.82352
1 1 -0.0443577 0.32579 1.85849
35 1 2.18198 1.6473 1.09746
95 2 3.5293 2.71521 2.98526
20 1 3.58267 4.07691 0.595478
30 1 1.50927 3.9956 2.67046
94 2 1.08512 4.02195 0.126324
43 1 5.23385 1.67899 1.01347
59 1 5.90454 1.50472 3.68524
78 1 7.76392 2.17307 -0.270118
34 1 5.65666 4.06252 2.43879
90 2 6.20083 4.09625 0.136338
28 1 9.76503 -0.0894239 2.74697
42 1 10.2215 2.44971 1.26021
102 2 11.9038 1.35738 3.03162
7 1 11.9339 4.02709 2.91499
50 1 13.4232 2.52798 0.9833
66 1 14.0409 2.46759 3.64153
88 2 14.5066 0.101319 0.0424006
77 1 -0.490833 6.07534 -0.208582
5 1 3.44244 7.97361 2.95523
40 1 1.97691 6.2979 1.16115
100 2 3.52421 5.37456 3.08664
22 1 7.31311 7.91375 1.80801
48 1 4.99715 6.48682 0.935874
64 1 5.74061 6.55478 3.64899
18 1 11.8042 7.91094 0.825186
92 2 9.34773 7.92999 0.27911
3 1 8.1767 4.21322 1.8429
37 1 10.3817 5.62492 1.2443
32 1 14.0697 7.71106 2.51972
45 1 13.5407 5.66803 0.963372
61 1 14.2484 5.37681 3.87719
97 2 11.9251 6.48393 3.0753
13 1 -1.57159 0.173705 6.97
79 2 -0.917697 0.235828 4.53041
9 1 1.24317 0.0270588 6.18486
51 1 1.38469 1.64545 3.95753
57 1 2.25515 2.6663 7.98401
67 1 3.71273 1.68976 5.56557
73 1 -0.074882 2.50913 6.41027
83 2 3.67563 -0.059012 7.68635
12 1 2.02983 4.11584 5.61194
86 2 -0.308021 3.59416 4.2505
82 2 4.2128 4.31492 7.53456
16 1 4.87921 4.13386 5.0016
52 1 10.2396 1.52433 7.82321
58 1 9.32054 2.4371 3.8979
68 1 7.84381 1.6914 6.34929
74 1 11.7811 2.49576 5.45071
26 1 14.0615 3.8139 5.92891
54 1 2.00119 5.69397 7.96258
56 1 1.20069 6.48999 3.90834
70 1 -0.232229 5.57209 6.10558
72 1 3.60958 6.50365 5.49358
15 1 6.68494 4.09099 7.06208
25 1 5.96713 7.83861 5.88928
81 2 7.39754 4.32656 4.41722
10 1 10.3154 7.99159 5.53451
11 1 9.47838 4.01325 6.38526
84 2 7.96641 7.59153 4.23926
85 2 12.0086 3.74176 7.61469
53 1 9.74041 5.38575 4.04052
55 1 10.3119 6.57424 7.97303
69 1 12.0102 5.50812 5.46866
71 1 8.17537 6.46924 6.37815
14 1 13.1582 8.01466 4.93104
80 2 12.5263 7.9217 7.38107
31 1 -2.4324 0.21746 9.40574
49 1 -1.88082 2.43514 10.912
65 1 -2.28733 2.72113 8.20209
101 2 -0.0976135 1.60827 8.85599
4 1 3.43131 4.24403 10.0819
17 1 -0.134801 0.21324 11.2849
41 1 1.34406 2.56578 10.8077
91 2 2.33865 0.15682 11.7634
21 1 4.31141 -0.137129 10.1805
44 1 6.3788 1.55381 10.9296
60 1 5.65719 1.49663 8.14666
6 1 7.98734 0.231728 9.03941
36 1 9.57333 1.62144 10.7131
96 2 8.0342 2.75373 8.76674
75 1 12.1806 2.09881 12.1077
87 2 -2.90369 8.02287 11.9524
46 1 -1.73868 5.61288 10.6961
62 1 -2.4252 5.63081 7.96137
8 1 -0.056941 4.19748 8.81967
27 1 1.89402 8.06584 9.19516
98 2 -0.102269 6.79336 8.65784
38 1 1.23427 5.72579 10.7122
76 1 3.92558 6.03749 12.0709
33 1 5.9315 4.01791 9.53812
47 1 6.77085 6.47806 11.0339
63 1 5.88585 6.54735 8.27622
89 2 5.47398 4.01843 11.7599
2 1 11.7433 7.80612 9.97055
29 1 10.0986 4.01158 9.16096
19 1 8.08266 3.91503 11.1991
39 1 9.52077 6.32166 10.6828
93 2 10.6888 3.98286 11.7586
99 2 8.02734 5.46213 8.89562
23 1 12.5812 4.12491 10.0294
ITEM: TIMESTEP
2500
ITEM: NUMBER OF ATOMS
102
ITEM: BOX BOUNDS xy xz yz pp pp pp
-4.6253211294667373e+00 1.6163185521796400e+01 3.7259035726008839e-02
9.9916622875442229e-02 8.1088979701769102e+00 -3.9973946433963232e+00
-1.9935705334500042e-01 1.2090215012258195e+01 1.2741459305236455e-01
ITEM: ATOMS id type x y z
24 1 -1.04135 3.8577 1.84381
1 1 -0.309711 0.497513 1.90721
35 1 1.9179 1.70643 1.18023
95 2 3.72124 2.78295 3.00805
20 1 3.5324 4.12891 0.875823
30 1 1.42173 4.18081 2.67266
94 2 0.802794 4.18729 0.32668
43 1 5.09505 1.64475 0.941728
59 1 5.93981 1.65628 3.8249
78 1 7.75947 2.00879 -0.16819
34 1 5.71775 4.06157 2.42906
90 2 6.28323 4.03859 0.147133
28 1 9.86584 0.190879 2.8078
42 1 10.3144 2.38685 1.11604
102 2 11.9418 1.48481 2.94745
7 1 11.8585 4.11445 3.13318
50 1 13.3847 2.52683 0.986457
66 1 14.0532 2.47074 3.7756
88 2 14.5988 0.100912 0.0743959
77 1 -0.729327 6.0362 0.0717669
5 1 3.58414 8.1442 2.97493
40 1 1.91945 6.59804 1.20341
100 2 3.54799 5.50914 2.97582
22 1 7.30164 7.90727 2.00693
48 1 5.12206 6.42642 0.947505
64 1 5.75174 6.47786 3.79768
18 1 11.8736 7.79811 0.435071
92 2 9.28441 7.95699 0.228681
3 1 8.31546 4.02098 1.99986
37 1 10.4104 5.71964 1.22679
32 1 14.0643 7.85966 2.45983
45 1 13.5002 5.56549 1.05545
61 1 14.2342 5.39733 3.89731
97 2 12.0187 6.69483 2.98667
13 1 -1.56408 0.309638 6.93191
79 2 -0.965015 0.249511 4.55554
9 1 1.09404 0.238791 6.23894
51 1 1.4209 1.80431 3.91692
57 1 2.21055 2.74767 7.86987
67 1 3.55621 1.65495 5.70565
73 1 -0.257405 2.877 6.57364
83 2 3.57168 -0.189438 7.66463
12 1 1.96173 4.21447 5.65255
86 2 -0.380104 3.82981 4.25902
82 2 4.20674 4.50005 7.28551
16 1 4.84411 4.15715 4.8922
52 1 10.2297 1.75202 7.8442
58 1 9.57641 2.69309 3.88789
68 1 8.04748 1.64651 6.2805
74 1 11.9022 2.45711 5.5078
26 1 14.177 3.94314 5.95989
54 1 1.82155 5.6092 7.86713
56 1 1.05206 6.49709 3.91064
70 1 -0.547415 5.85682 6.31014
72 1 3.34269 6.62891 5.36954
15 1 6.84229 4.09548 6.93088
25 1 5.75499 7.83924 5.93156
81 2 7.47194 4.1419 4.46751
10 1 10.3603 8.11356 5.63839
11 1 9.62002 4.17818 6.26772
84 2 8.00045 7.90286 4.27853
85 2 12.0628 3.91387 7.65579
53 1 9.69876 5.74088 3.99173
55 1 10.3639 6.57244 8.07068
69 1 11.9335 5.49155 5.5117
71 1 8.17027 6.57842 6.41974
14 1 12.9846 7.93046 4.97842
80 2 12.4952 8.0326 7.47923
31 1 -2.61199 0.145145 9.34778
49 1 -1.96551 2.73625 11.0284
65 1 -2.4434 2.73261 8.29674
101 2 -0.270469 1.50863 8.97443
4 1 3.36706 4.50336 9.95184
17 1 -0.353971 0.266111 11.1528
41 1 1.47561 2.55311 10.6461
91 2 2.22855 0.16104 11.6476
21 1 4.14773 0.177102 10.0439
44 1 6.4458 1.71851 10.793
60 1 5.59315 1.68701 7.89902
6 1 8.0206 0.144652 8.90039
36 1 9.42558 1.79766 10.7052
96 2 7.80897 2.6516 8.81162
75 1 12.1009 2.32063 11.8156
87 2 -3.15183 8.11376 11.6446
46 1 -1.97433 5.66895 10.9474
62 1 -2.67736 5.52181 8.07079
8 1 -0.259107 4.06795 9.02266
27 1 1.68678 7.93218 9.06446
98 2 -0.494103 6.6505 8.84779
38 1 1.2428 5.67516 10.7557
76 1 3.83648 6.17228 12.2828
33 1 5.86166 4.05881 9.31762
47 1 6.19706 6.39069 10.7986
63 1 5.88865 6.51105 8.18371
89 2 5.23727 4.0579 11.8042
2 1 11.6028 8.19445 9.85506
29 1 10.0193 4.09143 9.0968
19 1 7.92754 4.22 11.2957
39 1 9.5441 6.56772 10.7236
93 2 10.5365 4.25996 11.518
99 2 7.97921 5.47452 9.00375
23 1 12.65 4.23475 10.0869
ITEM: TIMESTEP
2600
ITEM: NUMBER OF ATOMS
102
ITEM: BOX BOUNDS xy xz yz pp pp pp
-4.7219380947580580e+00 1.6163344409237610e+01 1.8178260963442234e-02
8.6613516228989162e-02 8.1969328601477134e+00 -4.0747719464838541e+00
-1.9080090749257383e-01 1.2081658866405773e+01 2.0214637637671173e-01
ITEM: ATOMS id type x y z
24 1 -0.942512 3.98763 1.78494
1 1 -0.128335 0.317895 1.93016
35 1 1.9682 1.83317 1.19609
95 2 3.54341 2.79894 3.05996
20 1 3.61691 4.11763 0.47059
30 1 1.45381 4.27936 2.81438
94 2 0.944715 4.03337 0.270291
43 1 5.07667 1.77366 1.05795
59 1 5.81864 1.6001 3.80002
78 1 7.86871 1.96729 -0.345385
34 1 5.66103 4.08925 2.47984
90 2 6.17253 4.03752 0.0735669
28 1 9.93372 0.18318 2.81844
42 1 10.4819 2.52467 1.14277
102 2 11.9189 1.51264 3.12136
7 1 11.911 4.06421 2.84951
50 1 13.5358 2.41326 1.07696
66 1 13.9804 2.66113 3.80784
88 2 14.5573 0.0245679 0.131419
77 1 -0.686206 5.98998 -0.0956872
5 1 3.51572 8.16978 2.98359
40 1 2.01363 6.35238 1.17054
100 2 3.56915 5.52546 3.03818
22 1 7.37694 8.17327 1.86783
48 1 5.25997 6.40747 1.0763
64 1 5.69413 6.44795 3.71524
18 1 11.8076 7.98086 0.716561
92 2 9.35011 7.93489 0.289903
3 1 8.17366 3.9833 1.94258
37 1 10.289 5.71815 1.1501
32 1 14.1082 8.0478 2.56161
45 1 13.5246 5.65463 1.01826
61 1 14.2168 5.45174 3.81561
97 2 11.9672 6.57554 3.0534
13 1 -1.62789 0.179898 6.90637
79 2 -0.9886 0.398518 4.51938
9 1 1.02901 0.070494 6.28872
51 1 1.3181 1.88457 3.89629
57 1 2.02459 2.64916 7.95864
67 1 3.40878 1.57484 5.71981
73 1 -0.466652 2.65327 6.43592
83 2 3.44918 -0.125474 7.55921
12 1 1.92964 4.08809 5.71846
86 2 -0.560767 3.87594 4.22098
82 2 4.0585 4.32025 7.47496
16 1 4.71341 4.11443 4.93826
52 1 10.1941 1.57102 7.86492
58 1 9.52059 2.5434 3.96065
68 1 7.87536 1.71818 6.30522
74 1 11.7929 2.73044 5.46085
26 1 14.1877 4.185 6.03405
54 1 1.80108 5.62871 7.88686
56 1 1.20409 6.77198 3.86598
70 1 -0.474481 5.60574 6.32223
72 1 3.38887 6.53708 5.36557
15 1 6.70348 4.21666 6.8628
25 1 5.72535 7.95588 5.91859
81 2 7.3475 4.29051 4.47479
10 1 10.3698 8.13089 5.6075
11 1 9.52597 4.08008 6.25302
84 2 7.92627 7.84636 4.18967
85 2 11.8737 4.05644 7.70051
53 1 9.60015 5.49013 3.95932
55 1 10.3261 6.568 8.00953
69 1 11.9859 5.71653 5.56982
71 1 8.06982 6.61902 6.38365
14 1 13.0645 8.15892 4.95014
80 2 12.4948 8.26854 7.48374
31 1 -2.57622 0.331246 9.38064
49 1 -2.06154 2.71536 10.9099
65 1 -2.55384 2.8475 8.23315
101 2 -0.480595 1.7123 8.93063
4 1 3.06526 4.32955 9.96364
17 1 -0.485834 0.283425 11.293
41 1 0.982042 2.47333 10.7066
91 2 2.10054 0.311264 11.6287
21 1 4.09448 -0.0284829 10.0029
44 1 6.3277 1.78266 10.8338
60 1 5.45483 1.65487 8.07165
6 1 7.82179 0.185866 8.81628
36 1 9.51624 1.78663 10.7191
96 2 7.82643 2.79187 8.74563
75 1 12.1053 2.2531 11.967
87 2 -3.01433 8.36105 11.8915
46 1 -2.18619 5.96389 10.952
62 1 -2.72073 5.68773 8.07816
8 1 -0.355859 4.25227 8.8446
27 1 1.59625 8.12577 9.06305
98 2 -0.613105 6.83417 8.83185
38 1 0.966546 5.8277 10.6647
76 1 3.67299 6.19442 12.0194
33 1 5.71166 4.21877 9.40863
47 1 6.51011 6.65528 10.8476
63 1 5.63441 6.50177 8.1332
89 2 5.25933 4.35576 11.6727
2 1 11.5698 8.08774 10.0346
29 1 9.95247 4.13123 9.07823
19 1 7.92871 4.11226 11.21
39 1 9.53266 6.48373 10.7277
93 2 10.5767 4.16078 11.7045
99 2 7.93231 5.61877 8.84321
23 1 12.5744 4.27956 10.0793
ITEM: TIMESTEP
2700
ITEM: NUMBER OF ATOMS
102
ITEM: BOX BOUNDS xy xz yz pp pp pp
-4.4745688685449228e+00 1.6013692320621040e+01 3.0884061540936699e-02
4.1509069827219747e-02 8.0178294137778146e+00 -3.9897606094647617e+00
-2.2508860310100864e-01 1.2115946562014217e+01 -2.2061516394954964e-02
ITEM: ATOMS id type x y z
24 1 -0.886522 3.98104 1.89973
1 1 0.0201712 0.0541245 1.91061
35 1 2.08995 1.55838 1.04256
95 2 3.64551 2.54365 3.02519
20 1 3.54951 4.04315 0.754454
30 1 1.51504 4.02509 2.7165
94 2 1.02956 4.05253 0.269482
43 1 5.05569 1.66841 1.02279
59 1 5.99741 1.4693 3.76046
78 1 7.73273 2.06588 -0.0763869
34 1 5.73662 3.92447 2.55004
90 2 6.29339 4.09153 0.123771
28 1 9.73431 0.0443277 2.68241
42 1 10.2497 2.35051 1.20352
102 2 11.7055 1.41495 2.92101
7 1 11.8799 4.05883 3.05588
50 1 13.2354 2.49785 0.904859
66 1 13.8357 2.51599 3.73154
88 2 14.5599 0.0705312 0.164614
77 1 -0.494757 5.98612 -0.324336
5 1 3.47828 7.95884 3.12097
40 1 2.08757 6.38396 1.0943
100 2 3.55233 5.44466 3.00276
22 1 7.24699 7.81201 1.81968
48 1 5.06112 6.47281 0.964323
64 1 5.71503 6.52385 3.60722
18 1 11.8287 7.98739 0.602434
92 2 9.30589 7.98144 0.235192
3 1 8.24981 4.2665 1.94139
37 1 10.451 5.61442 1.18563
32 1 13.982 7.88619 2.49549
45 1 13.3689 5.55299 1.04528
61 1 14.2247 5.49093 3.84797
97 2 11.8658 6.62809 3.0319
13 1 -1.57384 0.220235 6.90897
79 2 -0.894127 0.24399 4.52829
9 1 1.31335 0.0814928 6.31266
51 1 1.37369 1.53273 3.95207
57 1 2.1335 2.72114 7.97193
67 1 3.70336 1.68498 5.585
73 1 -0.192959 2.68609 6.46651
83 2 3.74995 -0.177585 7.68241
12 1 1.98813 4.04129 5.61906
86 2 -0.310919 3.70971 4.3112
82 2 4.18443 4.24556 7.42509
16 1 4.75902 4.22492 4.9125
52 1 10.1384 1.63021 7.85214
58 1 9.27853 2.45638 3.92972
68 1 7.8753 1.55251 6.36319
74 1 11.567 2.4302 5.41304
26 1 13.9621 3.78017 5.87973
54 1 1.90484 5.71323 7.93927
56 1 1.12316 6.45599 4.01496
70 1 -0.442845 5.66033 6.27949
72 1 3.49981 6.5072 5.45988
15 1 6.70284 4.07597 6.88608
25 1 5.69964 7.78881 5.947
81 2 7.27828 4.29718 4.3585
10 1 10.1412 8.00839 5.62002
11 1 9.41801 4.06346 6.10993
84 2 7.88965 7.64429 4.18116
85 2 11.817 3.77249 7.66743
53 1 9.58295 5.63901 3.93685
55 1 10.2903 6.60863 7.95988
69 1 11.9011 5.51362 5.66675
71 1 8.04411 6.44991 6.47283
14 1 12.937 7.96546 4.954
80 2 12.4021 7.95757 7.37157
31 1 -2.34815 0.0451786 9.44019
49 1 -1.89335 2.44971 10.9263
65 1 -2.3718 2.5756 8.30385
101 2 -0.280847 1.5429 8.86652
4 1 3.43051 4.26345 10.0629
17 1 -0.226839 0.195365 11.1866
41 1 1.2628 2.52514 10.6674
91 2 2.30978 0.106893 11.6025
21 1 4.32701 0.124205 10.1393
44 1 6.4045 1.49774 10.8818
60 1 5.81439 1.57604 8.1468
6 1 8.06434 0.0201759 8.95299
36 1 9.42979 1.69584 10.711
96 2 7.94402 2.64468 8.9538
75 1 11.9794 2.08048 12.1364
87 2 -3.03861 7.97807 11.6823
46 1 -1.69219 5.51758 10.8726
62 1 -2.56836 5.65597 7.84923
8 1 -0.298202 4.15602 8.85902
27 1 1.88665 8.20807 9.20162
98 2 -0.257507 6.61516 8.79806
38 1 1.29807 5.74015 10.6815
76 1 3.89054 6.00591 12.1359
33 1 5.89181 3.97746 9.38672
47 1 6.34701 6.3475 10.8435
63 1 5.7904 6.54087 8.30244
89 2 5.36714 3.94279 11.8385
2 1 11.588 8.04653 9.91522
29 1 9.89685 4.12618 9.11329
19 1 7.962 3.97744 11.3235
39 1 9.46447 6.45574 10.7914
93 2 10.5463 4.00899 11.6394
99 2 7.99781 5.38673 8.94973
23 1 12.4736 3.97128 10.0633
ITEM: TIMESTEP
2800
ITEM: NUMBER OF ATOMS
102
ITEM: BOX BOUNDS xy xz yz pp pp pp
-4.6321509217916601e+00 1.6105912463982712e+01 1.0795562938329096e-03
-1.3465640640772528e-01 8.0190349920137027e+00 -4.0253180141027238e+00
-2.1128697820090903e-01 1.2102144937114135e+01 -1.9702141439401713e-01
ITEM: ATOMS id type x y z
24 1 -1.06426 3.88392 1.8885
1 1 -0.217638 0.306141 1.93514
35 1 2.00018 1.71601 1.25729
30 1 1.43488 3.99651 2.70145
94 2 0.950098 4.01731 0.273042
5 1 3.55741 -0.0423854 2.7988
95 2 3.6885 2.60946 3.0421
43 1 5.21524 1.62845 1.12215
59 1 5.9334 1.44709 3.90844
78 1 7.77786 2.13326 -0.307705
34 1 5.65737 3.9587 2.56295
42 1 10.1849 2.37776 1.16713
102 2 11.9134 1.40109 3.07791
7 1 11.7757 4.01623 2.95945
18 1 11.8843 0.149259 0.715522
58 1 9.39173 2.60382 3.91774
50 1 13.4103 2.45503 0.904347
66 1 13.9352 2.43556 3.76774
88 2 14.4964 0.0767043 -0.0602932
75 1 16.1976 2.05434 -0.376474
20 1 3.50165 3.99186 0.498945
40 1 1.87245 6.29471 1.20157
100 2 3.462 5.40702 2.9548
56 1 1.03011 6.55055 3.83367
90 2 6.12638 4.057 0.0855492
22 1 7.28242 7.76169 1.95374
48 1 4.96145 6.47673 1.02577
64 1 5.6289 6.40686 3.8006
28 1 9.92171 7.9242 2.84282
92 2 9.27672 8.14012 0.267251
3 1 8.15309 4.33389 1.84752
37 1 10.3703 5.6146 1.1737
32 1 13.993 7.80126 2.53722
45 1 13.3752 5.54325 1.02215
61 1 14.246 5.35449 3.82005
97 2 12.0297 6.50327 3.01621
13 1 -1.70223 -0.125684 6.97323
79 2 -1.07655 0.262274 4.37905
86 2 -0.334743 3.61535 4.23311
9 1 1.10244 -0.121213 6.18041
51 1 1.36775 1.4939 3.99862
57 1 2.01794 2.37279 7.89384
67 1 3.60388 1.47675 5.5156
73 1 -0.254932 2.48126 6.4256
16 1 4.79984 4.08063 5.10814
52 1 10.2112 1.36624 7.9692
68 1 7.95569 1.44349 6.23699
74 1 11.726 2.45208 5.47281
11 1 9.59752 3.84599 6.36955
26 1 14.2621 3.80291 5.95284
85 2 12.0176 3.55357 7.58285
14 1 13.1622 -0.020359 4.99111
80 2 12.5567 0.20136 7.51995
83 2 3.44027 7.54304 7.64055
12 1 2.03368 3.91673 5.54081
54 1 1.72373 5.60415 7.91301
70 1 -0.467193 5.4233 6.2176
72 1 3.28909 6.37447 5.4096
82 2 4.18533 4.20031 7.45782
15 1 6.81003 3.94837 6.87762
25 1 5.67272 7.82137 6.02462
81 2 7.45078 4.36745 4.61577
10 1 10.4343 7.84305 5.64464
84 2 7.95391 7.67396 4.28423
53 1 9.64386 5.54372 3.90522
69 1 11.9376 5.47753 5.64378
71 1 8.12838 6.3825 6.54958
49 1 -1.96524 2.20485 10.9205
65 1 -2.51601 2.30053 8.09294
17 1 -0.379132 -0.152506 11.3056
101 2 -0.443179 1.43867 8.98653
41 1 1.19452 2.12313 10.7964
91 2 2.15909 -0.132589 11.587
27 1 1.68412 -0.0555781 9.21641
21 1 4.19539 -0.105397 9.98392
44 1 6.30603 1.43951 10.8157
60 1 5.48306 1.53207 8.0639
33 1 5.81069 3.90137 9.41046
89 2 5.13613 3.92646 11.7486
6 1 7.96926 -0.0234412 8.9139
36 1 9.31899 1.62766 10.5956
96 2 7.8585 2.52316 8.79255
2 1 11.5691 -0.208202 10.0491
29 1 9.932 3.86962 9.13073
19 1 7.82175 3.99832 11.3504
93 2 10.5694 3.88106 11.616
31 1 -2.57926 7.86235 9.48803
87 2 -3.0136 7.76955 11.9102
46 1 -2.02499 5.45853 10.8422
62 1 -2.70665 5.29979 8.15526
98 2 -0.444546 6.45653 8.72652
4 1 3.3067 3.84196 9.90806
8 1 -0.357014 3.95266 8.89835
38 1 1.11675 5.42423 10.6828
76 1 3.69766 5.98753 11.9743
47 1 6.33721 6.37212 10.8022
63 1 5.74515 6.36726 8.15461
55 1 10.4633 6.38005 7.9057
39 1 9.56061 6.13706 10.608
99 2 7.96834 5.36399 8.96868
77 1 12.0648 5.7714 12.282
23 1 12.527 3.73023 10.0696
ITEM: TIMESTEP
2900
ITEM: NUMBER OF ATOMS
102
ITEM: BOX BOUNDS xy xz yz pp pp pp
-4.4984309905323023e+00 1.6018058609454261e+01 -8.0833486795836365e-03
-1.1762417662318003e-02 7.9948435453029507e+00 -3.9702890323983753e+00
-1.9303829123103267e-01 1.2083896250144246e+01 -9.8318872359369425e-02
ITEM: ATOMS id type x y z
24 1 -0.915318 3.91028 1.84534
1 1 -0.0372185 0.200169 1.95
35 1 2.23945 1.65308 1.22243
30 1 1.54081 4.08437 2.66941
94 2 0.975459 3.96987 0.291733
5 1 3.55357 0.150141 3.13713
95 2 3.71781 2.65564 3.13568
43 1 5.05573 1.5543 1.0772
59 1 6.03005 1.60656 3.90414
78 1 7.78425 2.06886 -0.126809
34 1 5.69479 3.98857 2.52014
42 1 10.4312 2.43526 1.10653
102 2 11.7913 1.54746 2.92634
7 1 11.8699 4.16332 3.07496
18 1 11.8471 0.142986 0.548827
58 1 9.40094 2.56244 3.92911
50 1 13.3175 2.51011 1.01144
66 1 13.9677 2.54495 3.74436
88 2 14.4531 0.0514332 0.274128
75 1 16.08 2.03787 -0.247638
20 1 3.49939 4.14163 0.621294
40 1 2.08879 6.61083 1.23546
100 2 3.62632 5.53164 2.98255
56 1 1.14522 6.46436 3.95033
90 2 6.24137 4.0029 0.134428
22 1 7.30578 8.1681 1.76854
48 1 5.11187 6.47027 0.967956
64 1 5.78118 6.43991 3.62068
28 1 9.8755 8.06642 2.72115
92 2 9.27631 7.98831 0.254407
3 1 8.30561 4.11404 1.89387
37 1 10.3849 5.62498 1.2974
32 1 14.0049 7.91185 2.58456
45 1 13.5299 5.59813 1.1503
61 1 14.3198 5.48893 3.8877
97 2 11.9686 6.70024 3.03588
13 1 -1.43182 -0.0757135 6.87282
79 2 -0.849765 0.231903 4.49982
86 2 -0.381634 3.7633 4.2437
9 1 1.40287 -0.0317264 6.33954
51 1 1.42021 1.69639 4.0381
57 1 2.10639 2.39325 8.02211
67 1 3.65358 1.61582 5.63052
73 1 -0.284983 2.44756 6.51827
16 1 4.73245 4.06042 5.00286
52 1 10.0112 1.63623 7.96399
68 1 7.78705 1.65485 6.25293
74 1 11.6545 2.51112 5.48891
11 1 9.45545 3.96462 6.26847
26 1 14.0105 3.83273 5.97979
85 2 11.7613 3.73151 7.61558
14 1 13.0629 0.117251 5.0287
80 2 12.4051 0.305099 7.33789
83 2 3.60218 7.63179 7.58998
12 1 1.93576 3.99269 5.52231
54 1 1.9635 5.47513 7.92234
70 1 -0.32995 5.32622 6.38911
72 1 3.54611 6.37448 5.43436
82 2 4.10256 4.05354 7.33768
15 1 6.69913 3.97873 6.86303
25 1 5.87081 7.84836 5.87368
81 2 7.26931 4.27386 4.3878
10 1 10.2677 7.92466 5.67602
84 2 7.9381 7.74353 4.19351
53 1 9.65894 5.71888 3.99803
69 1 11.9181 5.49587 5.61246
71 1 8.09531 6.42675 6.38588
49 1 -1.84371 2.42178 10.772
65 1 -2.52588 2.41339 8.18143
17 1 -0.42737 0.0175128 11.3072
101 2 -0.298938 1.24588 8.85704
41 1 1.20755 2.22755 10.8337
91 2 2.23185 -0.00642988 11.6269
27 1 1.74205 -0.136696 9.20239
21 1 4.23314 -0.0772942 9.99869
44 1 6.20903 1.45133 10.8148
60 1 5.61302 1.40544 8.1507
33 1 5.82693 3.85443 9.31028
89 2 5.41851 3.93831 11.7946
6 1 7.91527 0.000432509 8.88207
36 1 9.36205 1.43509 10.6501
96 2 7.77091 2.52695 8.89248
2 1 11.4858 0.192846 9.98735
29 1 9.95144 4.00453 9.23438
19 1 7.98509 3.90289 11.1401
93 2 10.4623 3.88054 11.6483
31 1 -2.51826 7.87241 9.3095
87 2 -2.97778 7.95604 11.661
46 1 -1.83779 5.50736 10.8599
62 1 -2.7034 5.51879 8.0451
98 2 -0.536033 6.43597 8.8765
4 1 3.28343 3.98533 9.95169
8 1 -0.349973 3.92944 8.83512
38 1 1.05057 5.56595 10.8127
76 1 3.85763 6.03738 12.0339
47 1 6.57597 6.29771 10.876
63 1 5.81912 6.39971 8.19846
55 1 10.4552 6.50079 7.99522
39 1 9.45896 6.4045 10.7569
99 2 7.90505 5.35593 8.77193
77 1 12.1173 5.86629 11.999
23 1 12.4804 4.05642 10.1179
ITEM: TIMESTEP
3000
ITEM: NUMBER OF ATOMS
102
ITEM: BOX BOUNDS xy xz yz pp pp pp
-4.5824657987015325e+00 1.6060207850730443e+01 -3.8216405553144719e-02
5.6522827491343186e-02 8.1804680448140132e+00 -3.9820415424179032e+00
-2.5272840270776431e-01 1.2143586361620972e+01 1.5559087230535526e-01
ITEM: ATOMS id type x y z
24 1 -0.939388 4.25901 1.89045
1 1 -0.0305238 0.150668 1.85435
35 1 1.99134 1.79599 1.15142
30 1 1.47071 4.02419 2.90382
94 2 0.936742 4.16662 0.25737
5 1 3.45355 0.152827 2.7609
95 2 3.58715 2.66105 2.91929
43 1 5.24021 1.54932 0.900933
59 1 5.79256 1.54883 3.71444
78 1 7.76831 1.84925 -0.293649
34 1 5.68524 4.0503 2.41042
42 1 10.321 2.43795 1.13355
102 2 11.8298 1.43421 2.94214
7 1 11.9063 4.06466 2.93761
18 1 11.8723 0.0611487 0.569508
58 1 9.51778 2.47469 3.97146
50 1 13.4108 2.52369 1.02159
66 1 14.0128 2.55132 3.66336
88 2 14.5272 0.0799386 0.0375071
75 1 16.1102 2.16268 -0.0282653
20 1 3.4931 4.00261 0.539345
40 1 1.92222 6.32262 1.09195
100 2 3.48296 5.47593 2.93523
56 1 0.935243 6.60806 3.85341
90 2 6.23022 4.00723 0.0568268
22 1 7.28725 7.84783 1.90876
48 1 4.92421 6.45564 0.898841
64 1 5.60925 6.5315 3.71635
28 1 9.78847 8.11948 2.6482
92 2 9.31104 7.96667 0.213014
3 1 8.2417 4.14457 1.87912
37 1 10.3017 5.68613 1.05658
32 1 13.9891 7.95747 2.38934
45 1 13.4583 5.69142 1.04346
61 1 14.2306 5.62223 3.81886
97 2 11.8235 6.6148 3.13454
13 1 -1.63887 0.257922 6.95403
79 2 -1.00648 0.499555 4.42997
86 2 -0.382201 3.77747 4.37658
9 1 1.144 0.146418 6.32908
51 1 1.32078 1.58558 3.98798
57 1 2.07979 2.79135 8.11247
67 1 3.51291 1.58469 5.56319
73 1 -0.215264 2.6157 6.52057
16 1 4.73821 4.16164 5.03679
52 1 10.1502 1.71846 8.00213
68 1 7.90628 1.61434 6.28949
74 1 11.7352 2.68186 5.39063
11 1 9.55105 4.12879 6.2537
26 1 14.0368 4.00762 5.91624
85 2 11.9204 3.8003 7.64316
14 1 13.0782 0.226782 4.94215
80 2 12.3803 0.360147 7.43606
83 2 3.51027 7.80222 7.67901
12 1 2.06488 4.09167 5.68544
54 1 1.84133 5.72611 7.82285
70 1 -0.564086 5.76754 6.19658
72 1 3.34741 6.55385 5.39788
82 2 4.18386 4.43064 7.57932
15 1 6.81241 4.07237 6.90967
25 1 5.6373 7.94606 5.98684
81 2 7.30096 4.34584 4.44128
10 1 10.1904 8.05199 5.59602
84 2 7.83159 7.7419 4.24307
53 1 9.58066 5.65063 3.89843
69 1 11.917 5.66647 5.61524
71 1 8.04019 6.56686 6.36476
49 1 -1.83737 2.55406 10.9054
65 1 -2.62265 2.65475 8.20793
17 1 -0.337455 0.243949 11.1882
101 2 -0.344522 1.6523 8.92502
41 1 1.20413 2.6044 10.7304
91 2 2.31701 0.179454 11.6765
27 1 1.54961 0.204857 9.10397
21 1 4.153 0.0753637 10.0293
44 1 6.5299 1.66938 11.0011
60 1 5.62405 1.53337 8.15428
33 1 5.86533 3.89161 9.42473
89 2 5.26086 4.1202 11.7793
6 1 8.04265 0.265212 9.048
36 1 9.63367 1.90895 10.6826
96 2 7.93983 2.76381 8.83637
2 1 11.7064 0.327984 10.0065
29 1 10.0505 4.21271 9.20191
19 1 8.01262 4.21446 11.341
93 2 10.5415 4.30604 11.7095
31 1 -2.45756 8.09044 9.43643
87 2 -3.05513 8.13959 11.9058
46 1 -2.11118 5.69619 10.8101
62 1 -2.76574 5.68885 8.03101
98 2 -0.449788 6.78126 8.80059
4 1 3.36158 4.51493 9.91985
8 1 -0.49522 4.36776 8.738
38 1 1.13408 5.98888 10.7355
76 1 3.74715 6.24713 12.2553
47 1 6.44577 6.59433 10.9238
63 1 5.92479 6.58167 8.17634
55 1 10.3379 6.69165 7.93617
39 1 9.61166 6.54121 10.7014
99 2 7.90366 5.57324 9.06218
77 1 12.1122 6.2548 12.1232
23 1 12.5252 3.78042 10.0711
ITEM: TIMESTEP
3100
ITEM: NUMBER OF ATOMS
102
ITEM: BOX BOUNDS xy xz yz pp pp pp
-4.6773212823490766e+00 1.6066066059192956e+01 -8.0218593319699966e-02
8.9275782060384223e-02 8.1175446782024672e+00 -4.0290366298363800e+00
-1.7722812578663749e-01 1.2068086084699843e+01 1.2542046026286061e-01
ITEM: ATOMS id type x y z
24 1 -1.12332 3.93183 1.69551
1 1 -0.0381475 0.185005 1.94944
35 1 2.06957 1.60012 1.22399
30 1 1.4142 4.02606 2.65599
94 2 0.945357 3.97658 0.207153
5 1 3.53585 0.0903218 3.11701
95 2 3.57044 2.65677 3.05073
43 1 5.08896 1.69796 1.02789
59 1 5.96006 1.55969 3.75737
78 1 7.63445 1.99672 -0.212581
34 1 5.5884 3.95874 2.62662
42 1 10.2211 2.39595 1.087
102 2 11.795 1.57059 3.09123
7 1 11.7086 4.07381 3.1156
18 1 11.7309 0.102435 0.67232
58 1 9.34512 2.55858 3.8572
50 1 13.2389 2.49382 1.05703
66 1 13.9432 2.51424 3.73063
88 2 14.555 0.0835236 0.18362
75 1 16.1321 2.12637 -0.179168
20 1 3.37548 4.00466 0.765902
40 1 1.87574 6.4092 1.18377
100 2 3.45283 5.38633 2.95222
56 1 0.950548 6.52137 3.96542
90 2 6.11092 4.12893 0.219003
22 1 7.1546 7.98836 1.95948
48 1 5.00266 6.36371 1.18342
64 1 5.6197 6.39891 3.76963
28 1 9.7498 8.01013 2.78773
92 2 9.13218 8.04215 0.322275
3 1 8.16543 4.173 2.02368
37 1 10.2705 5.61615 1.22298
32 1 13.9292 7.95796 2.51097
45 1 13.3784 5.5816 1.08361
61 1 14.1141 5.60283 3.85147
97 2 12.0004 6.61522 2.95798
13 1 -1.48576 0.210228 6.9542
79 2 -1.01829 0.275206 4.50298
86 2 -0.46863 3.85026 4.07866
9 1 1.32636 0.255875 6.19098
51 1 1.25865 1.75731 3.91636
57 1 1.99721 2.78688 7.77649
67 1 3.6773 1.65135 5.62662
73 1 -0.185322 2.57287 6.27996
16 1 4.68885 4.15809 4.98805
52 1 10.1111 1.76647 7.90826
68 1 7.94044 1.6995 6.3264
74 1 11.6563 2.52921 5.4142
11 1 9.48109 4.00538 6.30284
26 1 14.0639 3.98402 5.89613
85 2 11.8517 3.83045 7.60106
14 1 13.0945 0.117766 4.99097
80 2 12.5145 0.561445 7.45372
83 2 3.56099 7.91523 7.63502
12 1 1.83924 4.22032 5.52822
54 1 1.84452 5.7383 7.96
70 1 -0.534907 5.52296 6.33949
72 1 3.3271 6.52671 5.43699
82 2 3.98425 4.28467 7.25703
15 1 6.6998 4.17784 6.81552
25 1 5.68179 7.77061 5.91295
81 2 7.25429 4.10201 4.54742
10 1 10.2423 8.00676 5.67287
84 2 7.83616 7.68423 4.33386
53 1 9.53305 5.52477 4.08631
69 1 11.8336 5.47624 5.61753
71 1 8.06976 6.64625 6.48949
49 1 -1.91566 2.59803 10.8089
65 1 -2.51832 2.68957 8.23199
17 1 -0.377672 0.233658 11.3195
101 2 -0.274021 1.60585 9.01575
41 1 1.22812 2.52919 10.6332
91 2 2.13869 0.168781 11.5576
27 1 1.63651 0.269291 9.07861
21 1 4.16945 0.0194492 10.0417
44 1 6.22514 1.87267 10.8347
60 1 5.58333 1.74728 7.93494
33 1 5.78823 4.10084 9.33239
89 2 5.15382 4.24509 11.8256
6 1 7.95176 0.291313 8.81033
36 1 9.28904 1.72702 10.7844
96 2 7.76629 2.80185 8.87909
2 1 11.6068 0.491856 9.95432
29 1 9.93469 4.09621 9.22365
19 1 7.96583 4.1338 11.2174
93 2 10.4939 4.11373 11.559
31 1 -2.63787 8.08246 9.28925
87 2 -3.13731 8.1953 11.7007
46 1 -2.0083 5.76342 10.8939
62 1 -2.84933 5.50223 8.08091
98 2 -0.540879 6.72741 8.81531
4 1 3.25934 4.20465 9.90597
8 1 -0.244734 4.30347 8.96111
38 1 1.09919 5.8808 10.7691
76 1 3.62014 6.19726 12.2186
47 1 6.36393 6.62906 10.9425
63 1 5.77476 6.62314 8.19163
55 1 10.5474 6.58715 8.0476
39 1 9.34948 6.42937 10.6826
99 2 7.90247 5.54476 8.80839
77 1 11.9643 6.25807 11.9761
23 1 12.486 4.24138 9.93644
ITEM: TIMESTEP
3200
ITEM: NUMBER OF ATOMS
102
ITEM: BOX BOUNDS xy xz yz pp pp pp
-4.6082828273516041e+00 1.6103093565392889e+01 3.4304112154931045e-02
-1.8529649943521534e-02 8.0226538701141870e+00 -4.0374933741136081e+00
-2.2737338461003009e-01 1.2118231343523240e+01 -7.7275779829321614e-02
ITEM: ATOMS id type x y z
24 1 -0.895886 3.82061 1.90594
1 1 -0.0935214 0.276643 1.89663
35 1 1.93378 1.82913 1.18815
30 1 1.64703 4.1628 2.89107
94 2 0.967457 3.97574 0.344623
5 1 3.48294 0.12558 2.90529
95 2 3.56084 2.70133 3.12875
43 1 5.09488 1.67518 1.2393
59 1 5.88599 1.50804 3.95895
78 1 7.76031 2.0887 -0.157135
34 1 5.73058 4.05729 2.51773
42 1 10.3714 2.42915 1.08322
102 2 11.8951 1.40881 2.96758
7 1 11.8768 4.13285 2.98116
18 1 11.7429 0.08176 0.542622
58 1 9.54687 2.6976 3.96032
50 1 13.4106 2.44821 0.924448
66 1 14.0353 2.37038 3.6768
88 2 14.4437 0.00607342 0.0233385
75 1 16.0357 2.02009 -0.348493
20 1 3.57729 4.08782 0.582717
40 1 2.08194 6.42075 1.14704
100 2 3.69413 5.53478 3.04803
56 1 1.21953 6.57974 3.82662
90 2 6.31777 4.01253 0.0291537
22 1 7.28411 8.03318 1.7718
48 1 5.25695 6.4496 1.00525
64 1 5.80101 6.55575 3.57365
28 1 9.84881 8.04727 2.7524
92 2 9.33106 8.0871 0.242892
3 1 8.23074 4.19831 1.8977
37 1 10.431 5.60193 1.22949
32 1 13.9565 7.90172 2.41708
45 1 13.341 5.61327 1.00081
61 1 14.1272 5.45894 3.85631
97 2 11.8846 6.64023 3.0622
13 1 -1.62127 0.103718 6.84939
79 2 -0.945954 0.161093 4.34863
86 2 -0.28357 3.62472 4.3724
9 1 1.1067 -0.00842741 6.21951
51 1 1.23619 1.61733 3.92998
57 1 2.03638 2.4202 8.09833
67 1 3.49467 1.43544 5.75206
73 1 -0.23952 2.53265 6.50441
16 1 4.7539 4.12953 5.08687
52 1 10.0882 1.55337 7.89781
68 1 7.89668 1.63454 6.34884
74 1 11.838 2.48072 5.44981
11 1 9.55811 4.02761 6.32687
26 1 14.0097 3.92049 5.96184
85 2 11.8599 3.74923 7.66671
14 1 13.1431 0.0933959 5.02098
80 2 12.4077 0.242472 7.43735
83 2 3.51123 7.59197 7.56657
12 1 2.07381 3.93844 5.67352
54 1 1.83491 5.49964 7.87926
70 1 -0.413033 5.50747 6.22163
72 1 3.43162 6.49641 5.36055
82 2 4.15487 4.22527 7.55521
15 1 6.7437 4.02106 6.94948
25 1 5.76714 7.84666 5.90161
81 2 7.41932 4.32978 4.39414
10 1 10.3391 7.94171 5.54804
84 2 7.90343 7.68196 4.18361
53 1 9.69863 5.49816 3.94122
69 1 11.9263 5.51682 5.69629
71 1 8.03232 6.4879 6.47905
49 1 -1.98318 2.36181 10.9671
65 1 -2.65784 2.45938 8.21318
17 1 -0.410128 -0.121629 11.187
101 2 -0.455727 1.34747 8.79222
41 1 1.02098 2.33984 10.7645
91 2 2.27335 0.10653 11.6705
27 1 1.69007 -0.0850311 9.18213
21 1 4.15183 0.10623 10.1188
44 1 6.47178 1.5886 10.857
60 1 5.46975 1.54513 8.18651
33 1 5.82238 3.93617 9.45633
89 2 5.36336 3.96891 11.7233
6 1 7.88088 -0.0237816 8.84655
36 1 9.5051 1.7131 10.7283
96 2 7.86583 2.50672 8.90663
2 1 11.5473 -0.104275 9.94495
29 1 10.0457 4.01674 9.07266
19 1 7.92672 3.92888 11.1587
93 2 10.4398 3.99109 11.6564
31 1 -2.49406 7.97896 9.3168
87 2 -2.99454 7.85941 11.708
46 1 -1.96339 5.51058 10.8217
62 1 -2.67797 5.43439 8.11114
98 2 -0.447314 6.61975 8.79354
4 1 3.25811 4.02492 10.0195
8 1 -0.423704 4.00298 8.85492
38 1 1.02341 5.48812 10.7422
76 1 3.77577 6.04037 12.0307
47 1 6.31076 6.35395 10.867
63 1 5.84291 6.48238 8.20144
55 1 10.3943 6.48078 7.88703
39 1 9.40882 6.17767 10.7746
99 2 7.96487 5.36674 8.99002
77 1 11.9237 5.90949 12.2021
23 1 12.4539 3.97943 10.0689
ITEM: TIMESTEP
3300
ITEM: NUMBER OF ATOMS
102
ITEM: BOX BOUNDS xy xz yz pp pp pp
-4.4471464618639853e+00 1.6219089533364290e+01 1.8861267521603389e-01
-1.4092837022117807e-01 8.0161348454917434e+00 -3.9146696037156725e+00
-2.1707023169640927e-01 1.2107928190609602e+01 -2.0619352472944039e-01
ITEM: ATOMS id type x y z
24 1 -0.889235 3.93262 1.88088
1 1 0.00264311 0.300573 2.1546
35 1 2.19349 1.6241 1.21584
30 1 1.60491 4.00814 2.74221
94 2 1.07321 4.0543 0.234139
5 1 3.61042 0.106915 3.00738
95 2 3.83106 2.62593 2.90187
43 1 5.26558 1.585 1.06337
59 1 6.18967 1.44165 3.79489
78 1 7.74403 1.96469 -0.173334
34 1 5.76629 4.05213 2.52764
42 1 10.3702 2.35777 1.14501
102 2 11.8512 1.47029 2.87421
7 1 11.8514 4.09778 2.94361
18 1 11.8964 0.00499255 0.661137
58 1 9.38513 2.53871 3.87559
50 1 13.5074 2.31816 0.971652
66 1 13.9893 2.32936 3.73637
88 2 14.6109 0.109924 0.14259
75 1 16.2385 2.03023 -0.105583
20 1 3.65937 4.04509 0.560921
40 1 2.00562 6.38609 1.25642
100 2 3.49317 5.38472 2.96753
56 1 1.24173 6.37724 4.01841
90 2 6.21089 4.11683 0.138974
22 1 7.43382 7.7804 1.77596
48 1 5.14388 6.65083 0.876895
64 1 5.74477 6.36957 3.52983
28 1 10.0024 7.98341 2.71341
92 2 9.49716 7.96341 0.208561
3 1 8.28716 4.21974 1.92451
37 1 10.5766 5.64784 1.20074
32 1 14.1757 7.87618 2.55919
45 1 13.514 5.58963 0.999781
61 1 14.3911 5.46581 3.88668
97 2 12.1787 6.51602 2.94802
13 1 -1.44066 0.0207169 6.9565
79 2 -0.832802 0.408341 4.58765
86 2 -0.235239 3.68315 4.28066
9 1 1.31959 -0.0454246 6.44628
51 1 1.41853 1.61342 3.99845
57 1 2.18004 2.44041 7.89446
67 1 3.83682 1.63995 5.68457
73 1 -0.179895 2.39382 6.50795
16 1 4.80282 4.12021 4.84893
52 1 10.2026 1.59051 7.96283
68 1 7.93238 1.44892 6.35698
74 1 11.8179 2.4765 5.38791
11 1 9.75103 3.97559 6.19107
26 1 14.0465 3.70637 5.94167
85 2 12.0234 3.56239 7.67675
14 1 12.9034 0.0705414 4.97967
80 2 12.4603 -0.243968 7.3528
83 2 3.84515 7.60103 7.71608
12 1 2.08817 4.01453 5.54712
54 1 2.04914 5.38883 7.92565
70 1 -0.156366 5.44614 6.28509
72 1 3.51995 6.44982 5.4251
82 2 4.37162 4.03961 7.38883
15 1 6.80073 3.9171 6.88575
25 1 5.88094 7.78035 5.99468
81 2 7.39284 4.52418 4.40499
10 1 10.4219 7.88921 5.63616
84 2 8.10653 7.80397 4.16186
53 1 9.77135 5.63658 3.88361
69 1 12.0882 5.47882 5.47469
71 1 8.24369 6.32225 6.42462
49 1 -1.73459 2.30276 10.9989
65 1 -2.30385 2.42248 8.2209
17 1 -0.371839 -0.121633 11.0779
101 2 -0.155514 1.43311 8.9135
41 1 1.45522 2.19643 10.7321
91 2 2.23296 -0.20338 11.5768
27 1 1.88235 -0.0972588 9.10405
21 1 4.26147 -0.262031 10.1183
44 1 6.47862 1.41475 10.8406
60 1 5.87334 1.36636 8.24079
33 1 6.04047 3.78871 9.44141
89 2 5.33157 3.80521 11.7929
6 1 7.99569 -0.0121296 9.03599
36 1 9.67554 1.59003 10.659
96 2 8.06248 2.56875 8.77364
2 1 11.7161 -0.285006 10.0038
29 1 10.0958 3.96089 9.06026
19 1 8.11725 3.82915 11.341
93 2 10.8103 3.77547 11.6913
31 1 -2.15021 7.76906 9.3894
87 2 -2.75005 7.77924 11.9216
46 1 -1.59155 5.37026 10.8512
62 1 -2.44193 5.36458 8.00637
98 2 -0.209182 6.43034 8.91211
4 1 3.45866 4.00078 9.99044
8 1 -0.191641 3.85496 8.98217
38 1 1.36254 5.46382 10.7051
76 1 3.925 5.78778 12.1184
47 1 6.63459 6.27869 10.9227
63 1 5.97238 6.3366 8.08687
55 1 10.488 6.37188 7.95806
39 1 9.70031 6.09713 10.8159
99 2 8.11723 5.35562 8.91812
77 1 12.2193 5.74916 12.0987
23 1 12.5977 3.72958 9.98342
ITEM: TIMESTEP
3400
ITEM: NUMBER OF ATOMS
102
ITEM: BOX BOUNDS xy xz yz pp pp pp
-4.5678768199467923e+00 1.6157512247301668e+01 7.8590679380248260e-02
1.1037955768460214e-02 7.9975639461697678e+00 -3.9869552520253562e+00
-2.2718057228831601e-01 1.2118038531201517e+01 -7.2798098061777630e-02
ITEM: ATOMS id type x y z
24 1 -0.963334 3.75369 1.69586
1 1 -0.158974 0.413035 1.74028
35 1 2.11329 1.59303 1.10752
30 1 1.60151 4.06235 2.70235
94 2 0.991559 3.98067 0.208174
5 1 3.3372 0.158963 2.89812
95 2 3.63504 2.64479 3.21634
43 1 5.1327 1.65228 1.08105
59 1 6.02029 1.43534 3.8349
78 1 7.74435 2.08547 -0.267745
34 1 5.67741 3.94009 2.51009
42 1 10.2619 2.41084 1.26253
102 2 11.8577 1.41225 3.08932
7 1 11.8768 4.08262 3.03885
18 1 11.8198 0.106405 0.668207
58 1 9.37562 2.46839 3.86424
50 1 13.2655 2.53243 0.979779
66 1 13.9634 2.48454 3.77512
88 2 14.4556 0.129108 0.195897
75 1 16.0595 2.07613 -0.477428
20 1 3.54447 3.98008 0.682618
40 1 1.949 6.37628 1.16881
100 2 3.57467 5.44847 3.01139
56 1 1.11819 6.59889 3.85602
90 2 6.28211 4.0449 0.0430191
22 1 7.28056 7.96525 1.83827
48 1 5.31204 6.32766 0.963972
64 1 5.72828 6.41462 3.85416
28 1 9.85774 7.82456 2.82505
92 2 9.31567 7.97654 0.209556
3 1 8.18913 4.35396 1.87377
37 1 10.5053 5.6876 1.1381
32 1 14.0125 7.99922 2.532
45 1 13.506 5.57715 1.09089
61 1 14.3518 5.46264 3.77454
97 2 12.001 6.54217 3.06846
13 1 -1.68365 0.108968 6.89513
79 2 -1.02826 0.41803 4.38939
86 2 -0.406091 3.70079 4.17781
9 1 1.13728 0.0245634 6.35261
51 1 1.19876 1.65744 3.86166
57 1 2.1729 2.42574 7.92466
67 1 3.65822 1.51335 5.55759
73 1 -0.114431 2.42023 6.44068
16 1 4.90485 4.12842 5.02632
52 1 10.28 1.5909 7.85774
68 1 8.01514 1.55261 6.34555
74 1 11.7846 2.52479 5.4832
11 1 9.67023 3.90914 6.30881
26 1 14.1504 3.90507 5.93767
85 2 12.0045 3.78773 7.65854
14 1 13.0447 0.124152 4.99634
80 2 12.483 0.0730077 7.49214
83 2 3.69606 7.71468 7.56117
12 1 1.95283 4.04538 5.59891
54 1 1.90834 5.66811 7.87919
70 1 -0.335184 5.58103 6.26453
72 1 3.36753 6.3846 5.42025
82 2 4.26831 4.32397 7.45361
15 1 6.83384 4.03812 6.95243
25 1 5.84079 7.8605 5.98225
81 2 7.39851 4.20748 4.53348
10 1 10.4789 7.8201 5.58189
84 2 8.02512 7.57107 4.28913
53 1 9.65445 5.41849 3.99722
69 1 11.9446 5.36426 5.59534
71 1 8.23033 6.41448 6.42314
49 1 -1.81106 2.48331 10.8642
65 1 -2.33061 2.73375 8.17537
17 1 -0.35259 -0.0577991 11.4495
101 2 -0.316038 1.52162 8.93213
41 1 1.10994 2.36503 10.734
91 2 2.3235 0.0483579 11.7442
27 1 1.81977 -0.0118997 9.25655
21 1 4.22296 0.174089 9.93811
44 1 6.33453 1.39853 10.8713
60 1 5.65052 1.66102 7.94169
33 1 5.81431 3.92064 9.3951
89 2 5.42576 3.94674 11.7315
6 1 7.9071 -0.0282229 8.85037
36 1 9.30042 1.53828 10.6924
96 2 7.8489 2.54062 8.86586
2 1 11.6828 0.010681 9.93455
29 1 10.0604 3.88975 9.22462
19 1 8.03345 4.03541 11.2187
93 2 10.5696 4.04076 11.5744
31 1 -2.3798 7.9828 9.3437
87 2 -2.92395 7.98974 11.7091
46 1 -1.75218 5.69533 10.9429
62 1 -2.62102 5.52403 8.21546
98 2 -0.354917 6.65145 8.84198
4 1 3.31456 3.93302 9.94692
8 1 -0.0826573 4.07012 8.90823
38 1 1.18265 5.64751 10.7694
76 1 3.85857 5.93714 11.8995
47 1 6.51134 6.39204 10.8968
63 1 5.87078 6.45659 8.13737
55 1 10.3686 6.34496 8.0302
39 1 9.49203 6.39524 10.7584
99 2 8.0633 5.29904 8.85886
77 1 12.1501 5.89914 12.291
23 1 12.6189 4.04138 10.0202
ITEM: TIMESTEP
3500
ITEM: NUMBER OF ATOMS
102
ITEM: BOX BOUNDS xy xz yz pp pp pp
-4.6435767019943164e+00 1.6074128930811462e+01 -2.3032055177042935e-02
8.6656050673965090e-02 8.1952875987687559e+00 -4.0444157160057843e+00
-1.8210981788027159e-01 1.2072967776793462e+01 2.0054364944271749e-01
ITEM: ATOMS id type x y z
24 1 -1.07088 3.95813 1.85117
1 1 -0.0669057 0.362558 1.88326
35 1 2.04666 1.7433 1.15387
30 1 1.55765 4.17016 2.72603
94 2 0.877 4.18773 0.346948
5 1 3.52733 0.196025 3.03487
95 2 3.57743 2.69725 2.95132
43 1 5.09775 1.59353 0.986886
59 1 5.84781 1.63372 3.92777
78 1 7.70664 2.01615 -0.076772
34 1 5.59743 3.95836 2.49075
42 1 10.3614 2.52264 1.28046
102 2 11.8818 1.52704 2.93589
7 1 11.8406 4.09871 3.06586
18 1 11.8848 0.0681936 0.464932
58 1 9.4873 2.64092 4.07013
50 1 13.4285 2.3274 1.05311
66 1 13.9537 2.51434 3.74515
88 2 14.4737 0.00207351 0.0521948
75 1 16.026 2.05388 -0.352742
20 1 3.44327 4.14322 0.626232
40 1 2.07247 6.61045 1.12383
100 2 3.55686 5.45869 2.98991
56 1 1.2015 6.63368 3.85119
90 2 6.25758 4.03693 0.298375
22 1 7.26789 7.87817 1.9211
48 1 4.94603 6.54119 0.952816
64 1 5.77793 6.34399 3.69465
28 1 9.91169 8.06533 2.74541
92 2 9.38299 7.99519 0.31387
3 1 8.24193 4.05759 2.03804
37 1 10.3041 5.69409 1.28427
32 1 14.0305 7.95742 2.4576
45 1 13.4843 5.61422 1.07349
61 1 14.139 5.41224 3.74475
97 2 11.9874 6.60392 3.07324
13 1 -1.53393 0.295262 6.82887
79 2 -0.954574 0.286561 4.40055
86 2 -0.458319 3.87958 4.25979
9 1 1.23106 0.196419 6.18909
51 1 1.24552 1.74012 4.00786
57 1 2.0382 2.80307 7.98758
67 1 3.65594 1.65601 5.60993
73 1 -0.128927 2.77936 6.50581
16 1 4.77612 4.1284 4.99269
52 1 10.1436 1.75434 7.84335
68 1 7.75363 1.6657 6.26695
74 1 11.7054 2.50549 5.50052
11 1 9.49105 4.16765 6.41503
26 1 13.9972 4.03596 5.92738
85 2 11.8526 3.97804 7.62432
14 1 13.1562 0.146013 4.93957
80 2 12.5201 0.387672 7.42085
83 2 3.48316 7.78419 7.67007
12 1 1.92117 4.14293 5.57188
54 1 1.7481 5.76722 7.83131
70 1 -0.362361 5.7284 6.28716
72 1 3.41525 6.39897 5.44009
82 2 4.04908 4.38979 7.43957
15 1 6.70195 4.10395 6.93616
25 1 5.64756 7.91747 5.90265
81 2 7.36369 4.15069 4.49553
10 1 10.2499 8.12294 5.5297
84 2 7.89098 7.77374 4.28573
53 1 9.71393 5.71778 4.08952
69 1 11.8749 5.64732 5.70492
71 1 7.92202 6.57387 6.41478
49 1 -1.96955 2.68204 10.902
65 1 -2.65042 2.82472 8.24061
17 1 -0.332801 0.302619 11.1282
101 2 -0.453932 1.66619 8.89033
41 1 1.22421 2.69821 10.5957
91 2 2.16241 0.336229 11.5683
27 1 1.68306 0.164342 9.03483
21 1 4.05143 0.131762 10.1461
44 1 6.21944 1.73043 10.8703
60 1 5.38851 1.66623 8.14198
33 1 5.8007 4.08813 9.34737
89 2 5.22216 4.28619 11.8243
6 1 7.88771 0.286726 8.93774
36 1 9.41823 2.01769 10.6705
96 2 7.82784 2.86039 8.785
2 1 11.5846 0.167659 9.85969
29 1 9.96893 4.23583 9.08728
19 1 7.82163 4.27918 11.2323
93 2 10.458 4.22686 11.6879
31 1 -2.51906 8.21345 9.29625
87 2 -3.17436 8.18761 11.7367
46 1 -2.04791 5.94333 10.8521
62 1 -2.79502 5.8048 7.83296
98 2 -0.480835 6.74892 8.80737
4 1 3.24583 4.50316 9.95758
8 1 -0.449668 4.31949 8.95217
38 1 0.998541 5.80503 10.6428
76 1 3.62966 6.23034 12.2115
47 1 6.40209 6.52652 10.9486
63 1 5.69751 6.58002 8.26111
55 1 10.2236 6.57559 7.86771
39 1 9.53032 6.47865 10.6599
99 2 7.86429 5.67126 8.95042
77 1 11.9951 6.16308 12.2872
23 1 12.4071 4.54166 9.99347
ITEM: TIMESTEP
3600
ITEM: NUMBER OF ATOMS
102
ITEM: BOX BOUNDS xy xz yz pp pp pp
-4.6068338439521046e+00 1.6140195124742668e+01 2.4512797790493025e-02
7.7245383623976149e-02 8.2148567067750342e+00 -3.9891515169998986e+00
-2.2177986214336354e-01 1.2112637821056556e+01 2.1070209039900256e-01
ITEM: ATOMS id type x y z
24 1 -1.02937 4.10398 1.78706
1 1 -0.0282801 0.17126 1.96895
35 1 2.10883 1.77792 1.17103
5 1 3.43666 0.151778 2.84028
95 2 3.59974 2.73116 3.0651
20 1 3.55692 4.08967 0.662881
43 1 5.2235 1.66767 0.972367
59 1 5.73948 1.81773 4.02884
78 1 7.62725 2.05429 -0.474698
34 1 5.68828 4.14811 2.48862
90 2 6.16602 4.07801 0.0566402
42 1 10.3188 2.3006 1.15274
102 2 11.9008 1.5378 2.99076
7 1 11.9418 4.05884 2.90739
18 1 11.8363 0.0237338 0.803265
28 1 9.88158 0.161795 2.70782
3 1 8.22657 3.87965 1.88053
50 1 13.4528 2.51476 1.0701
66 1 14.1427 2.53461 3.73812
77 1 -0.55752 6.03107 -0.334161
30 1 1.51828 4.01477 2.74648
94 2 0.977699 4.04968 0.213637
40 1 1.9477 6.35125 1.13676
100 2 3.40269 5.5541 2.99317
56 1 1.04926 6.44492 4.08101
22 1 7.38685 8.12336 1.86798
48 1 5.14729 6.44369 1.00054
64 1 5.59121 6.61994 3.66506
76 1 7.73458 6.02487 -0.104112
92 2 9.19224 7.97833 0.154015
37 1 10.3479 5.57798 1.13093
88 2 14.7213 8.08101 0.202307
32 1 14.0792 8.05101 2.48969
45 1 13.626 5.57713 1.00953
61 1 14.3072 5.5923 3.67248
97 2 11.8769 6.64032 2.98752
13 1 -1.68173 0.167481 6.90543
79 2 -1.01986 0.33959 4.52491
86 2 -0.330864 3.75503 4.24391
9 1 1.11872 0.182151 6.40149
51 1 1.31809 1.59887 4.10333
57 1 2.18447 2.7728 7.99373
73 1 -0.13208 2.68717 6.44159
12 1 1.95615 4.20094 5.63598
67 1 3.55276 1.67639 5.71925
16 1 4.69638 4.23264 4.99063
68 1 7.97467 1.86054 6.24386
58 1 9.53436 2.65351 3.9281
52 1 10.2152 1.72136 7.99053
74 1 11.7119 2.64077 5.45565
85 2 11.9402 3.8797 7.66465
10 1 10.2037 0.277508 5.60886
26 1 14.0736 4.04323 5.93196
80 2 12.459 0.568707 7.38923
62 1 -2.90793 5.6239 7.95637
83 2 3.63382 7.81171 7.69766
54 1 1.8237 5.83205 7.9437
70 1 -0.479066 5.69804 6.28713
72 1 3.40349 6.61372 5.50755
82 2 4.12367 4.42814 7.41381
15 1 6.89175 4.22302 6.92835
25 1 5.85507 7.97295 5.9644
81 2 7.31535 4.30764 4.39779
11 1 9.51249 4.12529 6.15671
84 2 7.93454 7.9037 4.2272
53 1 9.53862 5.68822 3.80722
69 1 11.8038 5.58907 5.50127
71 1 8.21253 6.63624 6.43602
55 1 10.5313 6.73197 8.08631
14 1 13.0626 8.0944 4.87028
49 1 -1.81224 2.75723 10.8737
65 1 -2.54638 2.66726 8.13976
31 1 -2.53009 0.240427 9.39103
87 2 -3.03425 0.33682 11.8639
17 1 -0.390121 0.415161 11.3881
101 2 -0.295167 1.71367 8.87191
41 1 1.28255 2.61941 10.6493
91 2 2.17805 0.195535 11.7336
44 1 6.43241 1.64063 10.9361
60 1 5.68506 1.65196 8.03028
33 1 5.89266 4.13845 9.38312
6 1 8.03017 0.195644 8.92469
36 1 9.49606 1.80839 10.8272
96 2 7.96222 2.73812 8.82844
75 1 12.1576 2.31412 12.1812
46 1 -1.91662 5.74079 10.8373
27 1 1.72854 8.17011 9.15687
98 2 -0.534571 6.89491 8.87205
4 1 3.30161 4.44394 9.89041
8 1 -0.321742 4.38601 8.77237
38 1 1.04814 5.95504 10.7469
21 1 4.20228 7.93509 10.0223
89 2 5.35039 4.23225 11.754
19 1 8.08064 4.08457 11.2139
47 1 6.53138 6.49093 10.9417
63 1 5.9287 6.55388 8.16849
2 1 11.7524 8.38462 10.1195
29 1 10.0429 4.12064 9.05104
93 2 10.6953 4.22478 11.565
39 1 9.50379 6.59273 10.8734
99 2 8.05624 5.54124 9.01157
23 1 12.531 4.0963 9.95969
ITEM: TIMESTEP
3700
ITEM: NUMBER OF ATOMS
102
ITEM: BOX BOUNDS xy xz yz pp pp pp
-4.4456902241353893e+00 1.5973055525759657e+01 -1.7748188974001551e-02
3.0736714589386406e-02 7.9959179200973711e+00 -3.9528865094017163e+00
-2.3065549402800833e-01 1.2121513452941185e+01 -5.4745365313249493e-02
ITEM: ATOMS id type x y z
24 1 -1.06964 3.91836 1.91975
1 1 -0.14748 0.119328 1.87181
35 1 2.12688 1.68628 1.31275
5 1 3.4962 0.104912 3.18646
95 2 3.6517 2.69592 3.12634
20 1 3.59233 4.00994 0.644531
43 1 4.97642 1.58979 0.967374
59 1 5.98842 1.48247 3.59927
78 1 3.80021 2.04382 12.1591
34 1 5.7248 3.99036 2.53918
90 2 6.23803 3.98023 0.133153
42 1 10.4314 2.46266 0.985545
102 2 11.7635 1.39806 2.9579
7 1 11.5997 4.00957 2.95824
18 1 11.7997 8.01051 0.447933
28 1 9.74087 7.92444 2.73161
3 1 8.26386 4.15517 1.93734
50 1 13.315 2.40577 1.01011
66 1 13.9079 2.50119 3.72629
77 1 11.9704 6.00349 12.1346
30 1 1.58968 4.14808 2.70066
94 2 1.00447 3.95075 0.278208
40 1 1.98658 6.52036 1.15272
100 2 3.62719 5.5158 2.999
56 1 1.13652 6.65714 3.85066
22 1 7.2864 0.0460461 1.66735
48 1 4.93879 6.4561 0.946439
64 1 5.83782 6.44229 3.64696
76 1 3.77113 6.01806 12.1601
92 2 9.36378 7.96548 0.286505
37 1 10.3734 5.69626 1.19173
88 2 14.3668 7.91468 0.00954346
32 1 13.9237 -0.050718 2.41255
45 1 13.281 5.41619 1.01495
61 1 14.1803 5.50674 3.85771
97 2 11.9135 6.65507 3.02579
13 1 -1.42283 0.0549585 6.99693
79 2 -0.870748 0.28944 4.44669
86 2 -0.386031 3.75064 4.23502
9 1 1.20872 8.02485 6.15412
51 1 1.31533 1.7726 3.95101
57 1 2.06986 2.54733 8.03448
73 1 -0.183712 2.54544 6.41336
12 1 2.02398 4.03642 5.59191
67 1 3.59466 1.67269 5.63352
16 1 4.79621 4.10189 5.09086
68 1 7.95252 1.58292 6.37836
58 1 9.34949 2.41719 3.81382
52 1 10.1476 1.71714 7.85325
74 1 11.7005 2.40491 5.48242
85 2 11.8928 3.68167 7.68397
10 1 10.2307 7.8887 5.67838
26 1 -2.49919 3.80254 5.99804
80 2 12.4638 0.368775 7.47689
62 1 -2.73164 5.5096 8.18304
83 2 3.49561 7.71893 7.56077
54 1 1.97856 5.58589 7.9535
70 1 -0.418574 5.55195 6.36978
72 1 3.35474 6.49533 5.50443
82 2 4.19608 4.27412 7.42306
15 1 6.85542 4.01603 6.85102
25 1 5.71068 7.8234 5.86562
81 2 7.43255 4.19574 4.46531
11 1 9.48154 3.8485 6.16721
84 2 7.99545 7.67149 4.2391
53 1 9.68176 5.56308 4.05653
69 1 11.9503 5.4031 5.58693
71 1 8.02548 6.35892 6.4232
55 1 10.536 6.41353 7.94352
14 1 13.1203 8.03364 5.00995
49 1 -1.79019 2.29097 11.0207
65 1 -2.39078 2.57469 8.3372
31 1 -2.29071 0.0823589 9.41156
87 2 -2.90376 8.00544 11.7472
17 1 -0.307603 7.8582 11.29
101 2 -0.26419 1.45134 8.96478
41 1 1.12284 2.43106 10.7924
91 2 2.33778 0.0305551 11.6278
44 1 6.39672 1.56613 10.8832
60 1 5.54841 1.55593 7.94883
33 1 5.89222 3.99421 9.38042
6 1 8.05406 8.0471 8.93042
36 1 9.37989 1.70765 10.6976
96 2 7.84136 2.75908 8.85681
75 1 -0.589473 2.09658 -0.0743749
46 1 -1.90106 5.47266 10.9004
27 1 1.67876 0.130529 9.21925
98 2 -0.396711 6.51077 8.83032
4 1 3.3305 4.03188 9.89522
8 1 -0.323798 4.00188 8.92541
38 1 1.2391 5.61321 10.7674
21 1 4.19005 7.89278 10.0155
89 2 5.30898 4.02777 11.7408
19 1 8.04148 4.12349 11.221
47 1 6.39228 6.39257 10.8678
63 1 5.84677 6.4863 8.12547
2 1 11.682 0.394594 9.92673
29 1 10.0515 3.96776 9.1326
93 2 10.4741 3.94386 11.7753
39 1 9.58889 6.36347 10.6578
99 2 8.0216 5.36229 8.7402
23 1 12.3573 3.64951 10.2278
ITEM: TIMESTEP
3800
ITEM: NUMBER OF ATOMS
102
ITEM: BOX BOUNDS xy xz yz pp pp pp
-4.7014544993561644e+00 1.6081669639092837e+01 -4.4045327412619954e-02
-1.6010062891112514e-01 8.0476714847549111e+00 -4.0737395328506922e+00
-2.1218522006019125e-01 1.2103043178973362e+01 -1.9382914415620994e-01
ITEM: ATOMS id type x y z
24 1 -1.1309 3.94609 1.91707
1 1 -0.0485717 0.0144069 1.90792
35 1 2.15222 1.61138 1.16198
5 1 3.64981 -0.029746 2.80991
95 2 3.67545 2.54452 2.91764
20 1 3.55073 3.98425 0.555943
43 1 5.24985 1.71453 1.15454
59 1 5.98154 1.51039 3.85856
78 1 3.62236 1.92966 12.2125
34 1 5.57909 4.00743 2.54375
90 2 6.119 3.95221 0.00458035
42 1 10.1748 2.37746 1.2199
102 2 11.8151 1.44354 2.98408
7 1 11.8099 3.9164 2.95076
18 1 11.8174 8.20216 0.711381
28 1 9.7964 8.04386 2.78906
3 1 8.09849 4.33957 1.88255
50 1 13.3447 2.57687 0.941522
66 1 14.0461 2.35082 3.65782
77 1 12.0207 5.81999 12.1156
30 1 1.52294 3.93812 2.74639
94 2 0.920252 4.09682 0.296073
40 1 1.92089 6.43054 1.21834
100 2 3.49703 5.3763 2.96688
56 1 1.22823 6.50927 3.90396
22 1 7.31386 -0.200878 1.91261
48 1 5.25235 6.33472 1.05175
64 1 5.52775 6.41438 3.76086
76 1 3.68892 5.91669 11.9459
92 2 9.13067 8.06798 0.139734
37 1 10.4001 5.64714 1.3044
88 2 14.5805 8.06921 0.204684
32 1 13.9693 0.00249032 2.49964
45 1 13.5235 5.68474 1.01316
61 1 14.2035 5.43586 3.90874
97 2 11.9976 6.49224 3.00423
13 1 -1.6332 -0.0191241 6.91123
79 2 -0.928149 0.206945 4.55373
86 2 -0.445985 3.73859 4.3339
9 1 1.23621 7.84854 6.19272
51 1 1.34864 1.46439 3.97014
57 1 1.98763 2.40404 7.96131
73 1 -0.328308 2.39703 6.46369
12 1 1.9229 3.79029 5.53413
67 1 3.58677 1.37808 5.53871
16 1 4.57071 3.95539 4.99486
68 1 7.89467 1.55208 6.27466
58 1 9.34992 2.6613 3.95464
52 1 9.99985 1.51363 7.80206
74 1 11.6885 2.51332 5.40915
85 2 11.8223 3.54274 7.5825
10 1 10.22 7.9377 5.46488
26 1 -2.6368 3.77068 5.9688
80 2 12.3135 0.131249 7.42217
62 1 -2.65426 5.29764 8.002
83 2 3.51575 7.58882 7.68037
54 1 1.75176 5.46331 7.81567
70 1 -0.592984 5.61575 6.3549
72 1 3.48207 6.41708 5.48915
82 2 4.01151 4.27967 7.44601
15 1 6.59268 4.04272 6.92077
25 1 5.77282 7.72695 6.00502
81 2 7.3392 4.32272 4.49234
11 1 9.34303 4.01403 6.37579
84 2 7.85995 7.66179 4.26704
53 1 9.64297 5.49057 3.96562
69 1 11.8449 5.5287 5.71144
71 1 8.08392 6.41108 6.50284
55 1 10.299 6.4807 7.93939
14 1 13.0905 8.13737 4.93519
49 1 -2.01086 2.29864 10.7961
65 1 -2.6659 2.28268 8.1713
31 1 -2.65281 -0.194365 9.41326
87 2 -3.19178 7.75399 11.7758
17 1 -0.532982 7.97848 11.2146
101 2 -0.455392 1.28652 8.97305
41 1 1.21128 2.02236 10.7858
91 2 2.11183 -0.160844 11.6814
44 1 6.26654 1.549 10.9051
60 1 5.51212 1.37256 8.02648
33 1 5.76816 3.85187 9.40932
6 1 7.88217 7.93224 8.87338
36 1 9.25379 1.38779 10.6448
96 2 7.71189 2.4223 8.75639
75 1 -0.58294 2.11731 -0.290969
46 1 -2.00713 5.39179 10.8907
27 1 1.56535 -0.164954 9.05707
98 2 -0.5481 6.50716 8.87223
4 1 3.13353 4.05178 9.94259
8 1 -0.405142 3.85269 8.99907
38 1 0.989509 5.52682 10.8043
21 1 4.07999 7.90731 10.0218
89 2 5.13126 3.87886 11.7839
19 1 7.95264 3.92513 11.3317
47 1 6.30507 6.33327 10.8729
63 1 5.68453 6.27061 8.23366
2 1 11.4514 0.0144492 9.96495
29 1 9.88823 3.78695 9.20094
93 2 10.4089 3.85957 11.5764
39 1 9.42354 6.29637 10.7398
99 2 7.80291 5.36321 8.96689
23 1 12.429 3.90986 9.95197
ITEM: TIMESTEP
3900
ITEM: NUMBER OF ATOMS
102
ITEM: BOX BOUNDS xy xz yz pp pp pp
-4.5419445289106841e+00 1.6043465274289066e+01 9.9203275651586313e-03
9.1872570170260737e-02 8.0101263591833636e+00 -4.0063995821867886e+00
-1.8736366625388978e-01 1.2078221625167075e+01 2.0598929353627754e-02
ITEM: ATOMS id type x y z
24 1 -0.91871 4.08463 1.87071
1 1 -0.0873911 0.283695 1.97834
35 1 2.13702 1.63851 1.1686
5 1 3.37374 0.0993171 3.17355
95 2 3.68617 2.59714 3.05927
20 1 3.65522 3.98641 0.660406
43 1 5.04702 1.7336 1.05162
59 1 5.85152 1.51036 3.76988
78 1 3.76883 2.12847 12.1256
34 1 5.66897 3.89563 2.52396
90 2 6.25675 4.08865 0.196478
42 1 10.3621 2.4323 1.17257
102 2 11.7777 1.75698 2.98663
7 1 11.8153 4.23707 3.03679
18 1 11.8694 7.97679 0.646809
28 1 9.72525 8.11185 2.83621
3 1 8.18286 4.20375 1.79352
50 1 13.4355 2.53954 0.994809
66 1 13.9413 2.55298 3.67108
77 1 12.0629 6.0142 12.1332
30 1 1.61586 3.88739 2.72459
94 2 1.023 3.99908 0.141818
40 1 2.01773 6.28717 1.26194
100 2 3.46604 5.41497 3.01596
56 1 0.977118 6.52486 3.86365
22 1 7.1805 0.0266716 1.90667
48 1 4.99299 6.54201 1.00984
64 1 5.63841 6.40958 3.58338
76 1 3.79351 6.02039 12.0583
92 2 9.34543 8.07799 0.376755
37 1 10.4371 5.6302 1.16404
88 2 14.3955 7.97332 0.136996
32 1 13.9262 0.156681 2.53845
45 1 13.5147 5.64755 1.10361
61 1 14.4016 5.61219 3.80824
97 2 11.831 6.78724 3.23399
13 1 -1.58994 0.0125849 6.85865
79 2 -1.03822 0.397678 4.48227
86 2 -0.354029 3.62989 4.11515
9 1 1.24399 7.8491 6.16879
51 1 1.38222 1.54061 4.19291
57 1 2.22238 2.5336 7.87635
73 1 -0.246387 2.36362 6.29738
12 1 2.03301 3.89735 5.59122
67 1 3.62675 1.63908 5.65574
16 1 4.78939 4.01211 4.88498
68 1 7.90614 1.65618 6.48667
58 1 9.37841 2.6088 3.93853
52 1 10.2361 1.66164 8.0709
74 1 11.7321 2.59602 5.43892
85 2 11.7906 3.81929 7.57761
10 1 10.248 8.03867 5.76275
26 1 -2.50527 3.89859 5.90254
80 2 12.5439 0.184437 7.51124
62 1 -2.60668 5.54496 7.99694
83 2 3.56067 7.69169 7.63804
54 1 1.93801 5.61246 7.88581
70 1 -0.262569 5.4521 6.2821
72 1 3.3937 6.40095 5.45822
82 2 4.25293 4.36156 7.39144
15 1 6.7743 4.09861 6.91885
25 1 5.63704 7.77076 5.85656
81 2 7.41344 4.29335 4.40588
11 1 9.50109 4.08947 6.26079
84 2 7.83841 7.78641 4.32529
53 1 9.57403 5.66281 4.06209
69 1 11.9938 5.55943 5.56648
71 1 8.05035 6.53539 6.50865
55 1 10.2332 6.55687 7.97486
14 1 12.988 8.19792 5.03487
49 1 -1.73682 2.51227 10.8087
65 1 -2.44331 2.45861 8.03047
31 1 -2.51605 0.0783105 9.30807
87 2 -2.96021 7.9856 11.7537
17 1 -0.317424 8.03888 11.2599
101 2 -0.206787 1.48048 8.77493
41 1 1.08539 2.53243 10.713
91 2 2.23262 0.13506 11.5437
44 1 6.32163 1.59729 10.8999
60 1 5.45538 1.61678 8.08734
33 1 5.88201 4.08188 9.38656
6 1 7.91901 8.05943 8.98597
36 1 9.60256 1.80493 10.733
96 2 7.90929 2.5956 8.98784
75 1 -0.476062 1.96327 -0.207444
46 1 -1.93254 5.63826 10.8231
27 1 1.69112 0.0630695 9.14859
98 2 -0.511641 6.57026 8.76538
4 1 3.33728 4.02812 9.92313
8 1 -0.278367 4.08227 8.67774
38 1 1.07072 5.53028 10.6685
21 1 4.21604 7.84021 10.075
89 2 5.31381 4.0163 11.6972
19 1 7.96658 3.95214 11.3196
47 1 6.35487 6.47323 10.9009
63 1 5.69833 6.54421 8.08479
2 1 11.508 0.196272 9.93509
29 1 9.96987 4.21253 9.19936
93 2 10.5234 4.15346 11.6501
39 1 9.45386 6.31212 10.6718
99 2 7.83468 5.56118 8.96959
23 1 12.5981 3.87876 9.91574
ITEM: TIMESTEP
4000
ITEM: NUMBER OF ATOMS
102
ITEM: BOX BOUNDS xy xz yz pp pp pp
-4.5460941581020213e+00 1.6088788902872565e+01 2.8198070168880093e-02
7.3376035635177583e-02 8.1663594749730990e+00 -3.9835033253983658e+00
-2.8030058090502230e-01 1.2171158539818208e+01 1.5833551060828724e-01
ITEM: ATOMS id type x y z
24 1 -1.14895 3.98872 1.8345
1 1 -0.0312045 0.121283 1.75043
35 1 2.03815 1.67284 0.977882
5 1 3.457 0.169322 2.8279
95 2 3.53498 2.68028 3.04436
20 1 3.55251 3.98252 0.647113
43 1 5.07779 1.70621 0.849602
59 1 5.82892 1.63597 3.78902
78 1 3.80112 2.17479 12.1532
34 1 5.69907 3.9972 2.5233
90 2 6.16069 3.97058 0.0475392
42 1 10.3593 2.46664 1.1447
102 2 11.9062 1.45686 2.9844
7 1 11.8426 4.09782 3.0055
18 1 11.9147 7.99635 0.481758
28 1 9.92822 8.03713 2.69815
3 1 8.06339 4.26186 1.97232
50 1 13.3588 2.52573 0.878012
66 1 14.0191 2.50137 3.71294
77 1 12.0571 6.17013 12.1844
30 1 1.40063 4.04811 2.64755
94 2 0.938311 3.99059 0.240753
40 1 2.07607 6.44467 1.12893
100 2 3.51461 5.3743 3.05072
56 1 1.20784 6.664 3.96047
22 1 7.26022 -0.00705286 1.87136
48 1 5.18694 6.35635 0.930697
64 1 5.64518 6.5454 3.69041
76 1 3.76629 6.17931 12.2366
92 2 9.27343 8.04451 0.14298
37 1 10.2572 5.79052 1.13109
88 2 14.5972 7.99953 0.0513656
32 1 14.0155 0.10928 2.4884
45 1 13.3491 5.56564 0.948931
61 1 14.2872 5.62914 3.89897
97 2 12.0632 6.62759 2.96995
13 1 -1.57702 0.213013 6.82646
79 2 -0.937355 0.331107 4.40104
86 2 -0.396725 3.83272 4.23253
9 1 1.20265 8.13741 6.23633
51 1 1.31118 1.49667 3.75448
57 1 2.13687 2.66173 8.00123
73 1 -0.169661 2.6985 6.50039
12 1 2.0062 4.13746 5.5423
67 1 3.45828 1.62656 5.41709
16 1 4.7247 4.07496 4.93702
68 1 7.86869 1.82453 6.14896
58 1 9.55892 2.63688 3.88194
52 1 10.1397 1.80784 7.85607
74 1 11.8659 2.62371 5.44537
85 2 11.8886 3.86599 7.79379
10 1 10.2493 8.18512 5.58088
26 1 -2.52534 3.95624 6.10599
80 2 12.4624 0.495112 7.37753
62 1 -2.56434 5.56978 8.2172
83 2 3.64436 7.76756 7.63762
54 1 1.84271 5.61397 7.87036
70 1 -0.401338 5.65679 6.43629
72 1 3.36211 6.65898 5.46996
82 2 4.13666 4.303 7.51924
15 1 6.72084 4.20302 6.88716
25 1 5.76375 7.93039 5.89236
81 2 7.33752 4.23662 4.52983
11 1 9.71909 4.20973 6.30782
84 2 7.97871 7.87581 4.18528
53 1 9.71335 5.72027 3.98608
69 1 11.9653 5.74511 5.6178
71 1 8.23146 6.53286 6.53242
55 1 10.4503 6.80391 8.09742
14 1 13.1168 8.2043 5.01826
49 1 -1.97349 2.57629 10.9396
65 1 -2.53734 2.59494 8.35555
31 1 -2.46872 0.0996567 9.37701
87 2 -2.99368 8.15851 11.6994
17 1 -0.337608 8.10436 11.2364
101 2 -0.334698 1.51995 8.86479
41 1 1.33297 2.41584 10.6725
91 2 2.27319 0.203617 11.7063
44 1 6.34473 1.87744 10.9979
60 1 5.65506 1.65041 8.09831
33 1 5.86669 4.16813 9.52113
6 1 8.06982 8.21975 8.80564
36 1 9.41635 1.76894 10.8012
96 2 7.89929 2.86678 8.77691
75 1 -0.635076 1.99026 -0.314084
46 1 -1.89346 5.666 10.9699
27 1 1.76538 0.106794 9.10225
98 2 -0.292158 6.58579 8.86063
4 1 3.36332 4.41993 10.0411
8 1 -0.224332 4.11339 9.14419
38 1 1.25668 5.87371 10.8362
21 1 4.30485 8.14014 10.105
89 2 5.26798 4.3256 11.9726
19 1 7.93748 4.19652 11.2701
47 1 6.41111 6.71359 10.9546
63 1 5.83915 6.64102 8.3439
2 1 11.6007 0.435624 9.93526
29 1 10.162 4.21135 9.19681
93 2 10.5316 4.16349 11.701
39 1 9.49255 6.69711 10.7687
99 2 8.15318 5.57684 8.86139
23 1 12.5567 4.18964 10.1834
ITEM: TIMESTEP
4100
ITEM: NUMBER OF ATOMS
102
ITEM: BOX BOUNDS xy xz yz pp pp pp
-4.6119464417954781e+00 1.6089956662141642e+01 3.4627589265790026e-03
8.0268475351358504e-02 8.1116502261892354e+00 -4.0234525385804485e+00
-1.3730102534651145e-01 1.2028158984259699e+01 1.1051870154061547e-01
ITEM: ATOMS id type x y z
24 1 -1.00409 3.9562 1.93641
1 1 -0.189667 0.100196 2.10992
35 1 1.87855 1.72223 1.405
5 1 3.42415 0.183565 3.14714
95 2 3.63573 2.65123 3.03841
20 1 3.53979 4.05772 0.648313
43 1 5.10517 1.66836 1.12598
59 1 5.88307 1.6192 3.74724
78 1 3.75321 2.10988 12.0492
34 1 5.69994 4.04663 2.57013
90 2 6.21367 4.05146 0.206171
42 1 10.382 2.53477 1.15678
102 2 11.7401 1.47503 2.98211
7 1 11.7413 4.06405 3.0395
18 1 11.8797 8.14631 0.744408
28 1 9.91386 7.95369 2.825
3 1 8.19128 4.28794 1.84845
50 1 13.4553 2.48696 1.06255
66 1 14.0167 2.41964 3.6643
77 1 12.005 6.19285 11.9198
30 1 1.50402 4.08014 2.84535
94 2 0.979068 4.12732 0.330899
40 1 1.90518 6.50508 1.31688
100 2 3.63786 5.50175 2.96579
56 1 1.31721 6.62125 3.9503
22 1 7.41541 -0.121512 1.92826
48 1 5.20236 6.38728 1.04649
64 1 5.70821 6.40562 3.81271
76 1 3.78317 6.1552 11.8947
92 2 9.26753 7.94131 0.291335
37 1 10.3782 5.69397 1.12885
88 2 14.5572 8.05023 0.14253
32 1 13.9321 0.0542163 2.46952
45 1 13.512 5.68964 1.04832
61 1 14.147 5.41779 3.77707
97 2 11.8758 6.62981 3.03815
13 1 -1.53447 0.19963 6.89035
79 2 -1.004 0.176304 4.52796
86 2 -0.421885 3.79002 4.27113
9 1 1.25921 8.02196 6.23709
51 1 1.43819 1.67561 4.21345
57 1 2.10013 2.54697 8.02889
73 1 -0.139059 2.52938 6.57802
12 1 1.98422 4.22717 5.64111
67 1 3.71106 1.72625 5.5598
16 1 4.76076 4.04286 4.93419
68 1 7.94245 1.54633 6.28361
58 1 9.38245 2.64611 3.97114
52 1 10.1765 1.63173 7.86989
74 1 11.7966 2.4904 5.38343
85 2 11.892 3.76199 7.59074
10 1 10.3601 8.04822 5.60843
26 1 -2.56191 3.83 5.88664
80 2 12.4508 0.511287 7.42746
62 1 -2.73844 5.67275 7.89061
83 2 3.55537 7.91722 7.63166
54 1 1.78396 5.6646 7.89125
70 1 -0.452069 5.71162 6.29703
72 1 3.45395 6.45721 5.50882
82 2 4.12061 4.35617 7.37053
15 1 6.74111 4.11511 6.88184
25 1 5.75587 7.86082 5.94362
81 2 7.40555 4.31548 4.38207
11 1 9.54965 4.13401 6.21798
84 2 7.96547 7.69892 4.22864
53 1 9.65204 5.62796 3.95142
69 1 11.8129 5.42072 5.5483
71 1 8.01717 6.61956 6.48034
55 1 10.2931 6.54993 7.8781
14 1 13.1039 7.96589 4.99843
49 1 -2.01741 2.54454 10.9011
65 1 -2.48801 2.59847 8.21012
31 1 -2.51572 0.250523 9.42441
87 2 -3.07972 8.14745 11.8831
17 1 -0.430744 8.11855 11.3017
101 2 -0.398287 1.69065 9.10347
41 1 1.15141 2.59209 10.7109
91 2 2.23828 0.190705 11.635
44 1 6.38067 1.62531 10.6599
60 1 5.47655 1.71235 7.96776
33 1 5.77472 4.14008 9.27315
6 1 8.05634 8.17226 8.98539
36 1 9.42163 1.83582 10.6686
96 2 7.70068 2.76677 8.79605
75 1 -0.602734 2.11649 0.0300299
46 1 -2.08829 5.63222 10.7865
27 1 1.65314 0.175926 9.14399
98 2 -0.547375 6.70523 8.87292
4 1 3.18681 4.13514 9.94408
8 1 -0.338744 4.24608 8.7402
38 1 1.02774 5.78836 10.6282
21 1 4.1824 8.0551 9.94558
89 2 5.3235 4.12991 11.5717
19 1 7.89365 4.23926 11.2334
47 1 6.3703 6.56924 10.7568
63 1 5.79748 6.58287 8.19283
2 1 11.6025 0.43689 9.93905
29 1 9.93884 4.06879 9.02078
93 2 10.554 4.08061 11.5597
39 1 9.66555 6.56312 10.5598
99 2 7.90712 5.56313 8.90706
23 1 12.4086 3.94203 9.95906
ITEM: TIMESTEP
4200
ITEM: NUMBER OF ATOMS
102
ITEM: BOX BOUNDS xy xz yz pp pp pp
-4.5724426971709908e+00 1.6050227265407003e+01 1.3853619850296520e-02
4.7998737773895864e-03 8.0282105034175455e+00 -4.0340690516143374e+00
-2.3354359222855159e-01 1.2124401551141730e+01 -4.8389622805039077e-02
ITEM: ATOMS id type x y z
24 1 -0.923392 4.08852 1.92276
1 1 0.110308 0.147706 1.83292
35 1 2.24794 1.5835 1.11264
5 1 3.56374 0.0926868 3.09791
95 2 3.79388 2.61361 3.18193
20 1 3.57811 3.94355 0.659608
43 1 5.18441 1.68392 1.02748
59 1 6.04816 1.50057 3.88748
78 1 3.71279 2.06535 12.1655
34 1 5.68495 4.09635 2.46953
90 2 6.20368 4.15326 0.0917922
42 1 10.3849 2.3105 1.19807
102 2 11.8271 1.35789 3.06672
7 1 11.7564 3.98885 3.03706
18 1 11.8805 7.98711 0.531886
28 1 9.97341 7.85031 2.76817
3 1 8.28896 4.18262 1.85329
50 1 13.4651 2.34982 1.04686
66 1 13.9986 2.45423 3.75666
77 1 11.9775 6.14954 12.2269
30 1 1.56818 4.0303 2.62813
94 2 1.01796 3.94974 0.177766
40 1 2.01315 6.43857 1.13821
100 2 3.46055 5.57854 3.09526
56 1 0.97914 6.47923 3.83146
22 1 7.22372 -0.0582754 1.66403
48 1 4.95963 6.31012 0.897929
64 1 5.76173 6.44796 3.6716
76 1 3.69943 6.11872 12.1185
92 2 9.29456 8.10366 0.165752
37 1 10.3905 5.60892 1.10737
88 2 14.4701 7.96354 0.209757
32 1 14.0879 0.0592804 2.51624
45 1 13.4526 5.53775 1.11347
61 1 14.2014 5.60099 3.77875
97 2 11.9556 6.55185 3.09927
13 1 -1.70485 -0.0444769 6.83663
79 2 -0.92813 0.376718 4.43221
86 2 -0.36666 3.74438 4.30486
9 1 1.10125 8.08568 6.18444
51 1 1.40809 1.4841 3.922
57 1 1.95758 2.65247 7.8983
73 1 -0.36003 2.4412 6.48605
12 1 2.01172 4.01879 5.65746
67 1 3.46116 1.52701 5.65587
16 1 4.8208 4.09235 4.99922
68 1 7.84007 1.6221 6.2895
58 1 9.35204 2.46985 3.97954
52 1 10.1638 1.5496 7.93315
74 1 11.6345 2.42826 5.50919
85 2 11.8095 3.71495 7.65196
10 1 10.1784 8.03784 5.55055
26 1 -2.60338 3.91891 5.88788
80 2 12.3532 0.300031 7.42594
62 1 -2.96707 5.45323 8.10551
83 2 3.58636 7.61975 7.73546
54 1 1.71803 5.56056 7.91656
70 1 -0.457796 5.5696 6.36332
72 1 3.39718 6.41088 5.47165
82 2 4.21481 4.34849 7.36483
15 1 6.78496 4.12406 6.91322
25 1 5.74064 7.81792 5.95195
81 2 7.3762 4.31968 4.46337
11 1 9.44519 3.97833 6.22511
84 2 7.96202 7.66766 4.23861
53 1 9.70124 5.53689 4.05512
69 1 11.7537 5.54146 5.64336
71 1 8.17839 6.44215 6.44859
55 1 10.4346 6.565 8.07672
14 1 13.0315 8.07848 4.88453
49 1 -1.85044 2.47107 10.8487
65 1 -2.57798 2.49732 8.12179
31 1 -2.53896 0.079536 9.38692
87 2 -2.98598 8.03039 11.6883
17 1 -0.389599 8.10564 11.2109
101 2 -0.409799 1.37183 8.67181
41 1 1.16631 2.33065 10.6285
91 2 2.07016 0.0319917 11.5617
44 1 6.35571 1.53515 10.7989
60 1 5.55896 1.50271 8.13402
33 1 5.8486 3.99644 9.42799
6 1 7.98094 8.05312 8.74302
36 1 9.3301 1.5216 10.733
96 2 7.96311 2.53953 8.90945
75 1 -0.450305 2.0889 -0.154255
46 1 -1.89363 5.4911 10.8701
27 1 1.68467 0.0594235 9.04161
98 2 -0.564798 6.66719 8.76908
4 1 3.28324 3.99667 10.0004
8 1 -0.519088 4.05593 8.91304
38 1 1.01552 5.59908 10.6145
21 1 4.23955 8.01604 10.0686
89 2 5.21136 3.98921 11.8632
19 1 7.89458 3.95015 11.3313
47 1 6.31784 6.31144 10.8919
63 1 5.80705 6.36934 8.188
2 1 11.4997 0.0479961 10.0765
29 1 9.99705 3.99499 9.16144
93 2 10.532 4.06788 11.6793
39 1 9.46904 6.43255 10.8002
99 2 8.02415 5.46287 8.91139
23 1 12.5429 3.99103 10.2147
ITEM: TIMESTEP
4300
ITEM: NUMBER OF ATOMS
102
ITEM: BOX BOUNDS xy xz yz pp pp pp
-4.4774824023568929e+00 1.5990968414738793e+01 1.6729026392752911e-02
-8.6551969751283153e-02 8.0134057113605959e+00 -4.0012430140109050e+00
-2.4147562359750552e-01 1.2132333582510698e+01 -1.5454625839068187e-01
ITEM: ATOMS id type x y z
24 1 -1.03631 3.78203 1.74542
1 1 -0.0234367 0.299938 1.8431
35 1 2.03559 1.78434 1.12161
5 1 3.41212 -0.0645204 2.85043
95 2 3.61113 2.54832 2.92403
20 1 3.644 4.1744 0.528851
43 1 5.03499 1.63605 1.01547
59 1 5.84671 1.32672 3.78919
78 1 3.78579 1.96841 11.9516
34 1 5.6744 3.83326 2.45558
90 2 6.2389 4.00381 0.101081
42 1 10.165 2.44362 1.20982
102 2 11.7591 1.51751 2.9069
7 1 11.8641 4.15474 3.00029
18 1 11.8039 8.09078 0.666083
28 1 9.8655 8.06706 2.84481
3 1 8.14939 4.13691 1.89575
50 1 13.2072 2.45782 0.958441
66 1 13.8577 2.3822 3.74461
77 1 12.001 5.88174 12.1398
30 1 1.47523 4.03348 2.61247
94 2 1.0456 4.05731 0.268045
40 1 1.93647 6.51639 1.04975
100 2 3.56581 5.28287 2.90736
56 1 1.17687 6.54676 3.79271
22 1 7.27828 0.133283 1.77543
48 1 5.11086 6.49814 1.00197
64 1 5.79733 6.34935 3.59176
76 1 3.85754 5.86345 12.2958
92 2 9.25473 7.93899 0.308524
37 1 10.3405 5.56956 1.26172
88 2 14.5174 8.01423 0.0616493
32 1 13.9865 0.00697576 2.48797
45 1 13.535 5.65882 1.07151
61 1 14.298 5.49652 3.78327
97 2 11.9178 6.63445 3.03392
13 1 -1.40219 0.0273064 7.03931
79 2 -0.850695 0.484757 4.43859
86 2 -0.303197 3.67914 4.09114
9 1 1.22834 7.92446 6.12342
51 1 1.37135 1.53911 3.93584
57 1 2.16697 2.41436 8.00993
73 1 -0.00609185 2.42831 6.48647
12 1 2.02262 3.88926 5.68342
67 1 3.6388 1.45036 5.39378
16 1 4.65381 4.11452 5.00959
68 1 7.87701 1.45431 6.40341
58 1 9.40101 2.65155 3.9661
52 1 10.0645 1.56222 7.8456
74 1 11.6191 2.43575 5.57462
85 2 11.8651 3.73286 7.67006
10 1 10.0978 7.87065 5.59848
26 1 -2.37628 3.64196 6.04074
80 2 12.4482 0.244158 7.4573
62 1 -2.59692 5.29294 8.06992
83 2 3.58521 7.61549 7.57737
54 1 1.89162 5.45035 7.82341
70 1 -0.248488 5.43832 6.27535
72 1 3.46006 6.4635 5.35163
82 2 4.10219 4.10201 7.49084
15 1 6.67374 3.92556 6.87396
25 1 5.76479 7.73369 5.92431
81 2 7.28933 4.34877 4.53506
11 1 9.53768 3.91527 6.26104
84 2 7.89042 7.74203 4.33642
53 1 9.74491 5.66836 4.11548
69 1 11.9816 5.50963 5.5279
71 1 8.02769 6.19231 6.5001
55 1 10.2239 6.46326 8.0877
14 1 12.9742 8.10149 4.86632
49 1 -1.68069 2.32747 10.9626
65 1 -2.32577 2.38697 8.30131
31 1 -2.40517 -0.156955 9.41547
87 2 -2.96268 7.79683 11.82
17 1 -0.221741 7.93086 11.2583
101 2 -0.227801 1.40534 8.94604
41 1 1.13738 2.31623 10.672
91 2 2.41168 -0.0313251 11.6881
44 1 6.26338 1.462 10.9272
60 1 5.58075 1.31327 8.11479
33 1 5.75578 3.85879 9.3529
6 1 7.97967 7.87217 9.10573
36 1 9.33898 1.60422 10.6207
96 2 7.72284 2.46808 8.86169
75 1 -0.399353 2.03873 -0.474322
46 1 -1.85778 5.35619 10.8217
27 1 1.78987 -0.0739946 9.16765
98 2 -0.262648 6.41105 8.86856
4 1 3.32764 4.27387 10.0607
8 1 -0.0869716 3.85287 8.8721
38 1 1.12064 5.5302 10.815
21 1 4.22998 7.78137 10.0237
89 2 5.22503 3.91365 11.7651
19 1 7.86811 3.92675 11.3224
47 1 6.42259 6.37059 11.0584
63 1 5.75376 6.29411 8.18611
2 1 11.4566 0.0166133 9.9726
29 1 9.85541 3.87903 9.2193
93 2 10.4636 3.88615 11.7183
39 1 9.49121 6.22304 10.8118
99 2 7.84518 5.32856 8.98117
23 1 12.5962 3.87525 10.1175
ITEM: TIMESTEP
4400
ITEM: NUMBER OF ATOMS
102
ITEM: BOX BOUNDS xy xz yz pp pp pp
-4.6592880709839077e+00 1.6137420277128008e+01 -7.2476885168838599e-03
5.0936182768668695e-02 8.0073886067656641e+00 -4.0126201053390824e+00
-1.9270053349386629e-01 1.2083558492407043e+01 -2.3075210465661789e-02
ITEM: ATOMS id type x y z
24 1 -0.961925 4.13983 1.81927
1 1 -0.285504 0.166022 1.9918
35 1 2.02842 1.57346 1.16439
5 1 3.38665 0.190693 3.09916
95 2 3.67933 2.77568 3.07575
20 1 3.56184 3.98581 0.661779
43 1 5.17538 1.68138 1.14035
59 1 5.92887 1.66972 3.94523
78 1 3.89838 2.07407 12.2598
34 1 5.75135 4.02379 2.57161
90 2 6.17052 4.02179 -0.0210895
42 1 10.4591 2.54984 1.31548
102 2 11.9242 1.46109 3.03505
7 1 11.7711 4.11347 2.95749
18 1 11.9279 8.02053 0.560893
28 1 9.88123 8.03663 2.71448
3 1 8.32092 4.23943 1.93965
50 1 13.4172 2.5982 1.01249
66 1 14.123 2.50947 3.68166
77 1 12.0548 6.07093 12.0488
30 1 1.56729 4.02014 2.74975
94 2 0.852691 4.05236 0.106806
40 1 1.82377 6.39221 1.09375
100 2 3.44151 5.5022 2.97051
56 1 1.02443 6.58454 3.86749
22 1 7.29619 -0.0935971 1.99711
48 1 5.0788 6.44206 1.13905
64 1 5.61769 6.5455 3.75245
76 1 3.76271 6.02649 12.1471
92 2 9.30356 8.04517 0.311352
37 1 10.368 5.82003 1.17086
88 2 14.5003 8.03159 0.106732
32 1 14.0008 -0.1171 2.46433
45 1 13.5098 5.45998 0.958969
61 1 14.2731 5.42036 3.7791
97 2 11.9698 6.5942 3.10748
13 1 -1.69331 0.174255 6.88289
79 2 -1.04926 0.184799 4.48411
86 2 -0.458493 3.75415 4.33658
9 1 1.16829 7.96344 6.32982
51 1 1.31009 1.57915 4.13438
57 1 2.034 2.60205 7.84864
73 1 -0.213927 2.61589 6.5011
12 1 1.86618 4.01871 5.61133
67 1 3.63607 1.62866 5.73189
16 1 4.78285 4.19493 5.08677
68 1 8.04687 1.60945 6.30326
58 1 9.44245 2.46548 3.97423
52 1 10.1923 1.5063 7.88036
74 1 11.8844 2.66936 5.44052
85 2 11.9199 3.67732 7.59342
10 1 10.3217 8.14312 5.52591
26 1 -2.65913 4.01511 5.92767
80 2 12.5336 0.011104 7.4712
62 1 -2.83453 5.52338 8.0488
83 2 3.51862 7.56938 7.67
54 1 1.83409 5.59057 7.91553
70 1 -0.415003 5.65933 6.39029
72 1 3.35797 6.46058 5.56893
82 2 4.12133 4.31017 7.41115
15 1 6.90873 4.20715 6.9
25 1 5.72206 7.92274 5.98446
81 2 7.36429 4.1287 4.47501
11 1 9.55276 4.01694 6.25085
84 2 7.88405 7.71508 4.26194
53 1 9.63883 5.6087 3.94967
69 1 11.7782 5.6136 5.47871
71 1 8.16976 6.56539 6.40727
55 1 10.3192 6.49729 7.93616
14 1 13.1093 8.13295 4.91932
49 1 -2.17872 2.4622 10.6488
65 1 -2.46652 2.52921 8.06186
31 1 -2.59333 0.0214736 9.34431
87 2 -3.10556 8.00862 11.7826
17 1 -0.496317 8.05525 11.2828
101 2 -0.308021 1.51349 8.92764
41 1 1.16492 2.32431 10.7328
91 2 2.10782 -0.0255459 11.6987
44 1 6.28026 1.53718 10.8491
60 1 5.50273 1.4023 8.09625
33 1 5.9555 3.95959 9.35089
6 1 7.84064 7.97577 8.81649
36 1 9.44918 1.58018 10.6607
96 2 7.84391 2.69661 8.83587
75 1 -0.593805 2.00925 -0.263938
46 1 -2.13312 5.60978 10.7856
27 1 1.60628 -0.00194316 9.17813
98 2 -0.49891 6.61643 8.81188
4 1 3.38273 4.16839 9.96647
8 1 -0.366476 3.99867 8.94748
38 1 1.12751 5.58824 10.6339
21 1 4.0761 7.71209 10.0818
89 2 5.36067 3.97872 11.8467
19 1 7.94117 4.02498 11.2518
47 1 6.45864 6.36864 10.8832
63 1 5.85198 6.45341 8.16879
2 1 11.6662 0.072617 9.9373
29 1 10.0126 3.95195 9.09874
93 2 10.5197 4.02067 11.5465
39 1 9.47137 6.46643 10.6442
99 2 7.99986 5.41908 8.87125
23 1 12.5409 4.00057 9.87341
ITEM: TIMESTEP
4500
ITEM: NUMBER OF ATOMS
102
ITEM: BOX BOUNDS xy xz yz pp pp pp
-4.4873490363844182e+00 1.6085593866047656e+01 8.3229759756279515e-03
8.6014244480007385e-02 8.1695361554115742e+00 -3.9080781463124472e+00
-1.7977368991740317e-01 1.2070631648830579e+01 1.7415039989158906e-01
ITEM: ATOMS id type x y z
24 1 -1.05434 4.01543 1.8645
1 1 0.0223265 0.0618811 1.9607
35 1 2.06645 1.62479 1.20851
5 1 3.48739 0.161283 2.92813
95 2 3.60782 2.67465 3.11159
20 1 3.60863 3.98672 0.811678
43 1 5.09075 1.62448 0.986866
59 1 5.90146 1.66272 3.73928
78 1 3.8868 2.26771 12.0085
34 1 5.63311 4.06559 2.68761
90 2 6.18387 4.05768 0.319448
42 1 10.3643 2.40069 1.13472
102 2 11.931 1.43899 2.89908
7 1 11.9739 4.02017 2.95208
18 1 11.8448 7.87542 0.566059
28 1 9.87289 8.05449 2.69561
3 1 8.18142 3.85671 1.95165
50 1 13.4226 2.4256 1.02289
66 1 14.0567 2.44535 3.78847
77 1 12.2343 6.21238 12.1533
30 1 1.58287 4.20043 2.87155
94 2 0.955094 4.09027 0.427328
40 1 2.1476 6.46641 1.15046
100 2 3.53272 5.56133 3.09835
56 1 1.25164 6.57994 4.0299
22 1 7.31133 0.107452 1.86827
48 1 5.11973 6.52866 1.05461
64 1 5.79597 6.54528 3.69102
76 1 3.91638 6.23719 12.0119
92 2 9.27081 7.88257 0.236064
37 1 10.233 5.49916 1.12428
88 2 14.5772 7.93628 0.101752
32 1 14.0313 0.0220939 2.47681
45 1 13.4645 5.58032 1.02753
61 1 14.1657 5.54464 3.81694
97 2 11.9102 6.63491 2.96744
13 1 -1.53712 0.305177 6.84843
79 2 -0.906436 0.316276 4.43681
86 2 -0.381326 3.97477 4.21661
9 1 1.22954 8.15334 6.32708
51 1 1.35178 1.72993 3.97553
57 1 1.98743 2.71568 7.8489
73 1 -0.249797 2.62114 6.37223
12 1 2.00358 4.16946 5.59512
67 1 3.56631 1.70428 5.66357
16 1 4.73466 4.14035 5.03931
68 1 8.03413 1.62247 6.27306
58 1 9.59118 2.69222 3.93503
52 1 10.2746 1.80026 7.81044
74 1 11.8191 2.44292 5.44563
85 2 12.0342 3.97495 7.696
10 1 10.2124 7.99452 5.65104
26 1 -2.4632 3.93757 5.95059
80 2 12.5294 0.34856 7.35376
62 1 -2.70622 5.66073 7.983
83 2 3.59444 8.013 7.69148
54 1 1.91493 5.8222 7.81594
70 1 -0.327347 5.63862 6.27556
72 1 3.52538 6.69926 5.47263
82 2 4.21672 4.39176 7.54194
15 1 6.83028 4.25149 6.97582
25 1 5.72809 7.98613 5.87978
81 2 7.37078 4.14754 4.46884
11 1 9.6095 4.15204 6.28666
84 2 7.99893 7.8783 4.19865
53 1 9.67477 5.58192 3.94245
69 1 11.9161 5.40109 5.59113
71 1 8.03018 6.57735 6.39164
55 1 10.3309 6.71087 8.00538
14 1 13.1176 8.00363 4.93273
49 1 -1.66325 2.67784 10.9053
65 1 -2.52489 2.77086 8.30856
31 1 -2.45063 0.303009 9.2875
87 2 -2.93676 8.23024 11.6923
17 1 -0.362042 8.14071 11.327
101 2 -0.356887 1.58521 8.87889
41 1 1.1149 2.70545 10.7582
91 2 2.27494 0.243437 11.537
44 1 6.64806 1.78921 10.7662
60 1 5.72197 1.65033 7.9749
33 1 5.86788 4.21068 9.38355
6 1 8.20078 8.16044 8.87382
36 1 9.64328 1.8479 10.6845
96 2 8.01985 2.77604 8.79673
75 1 -0.444275 1.99156 -0.160345
46 1 -1.83505 5.81139 10.908
27 1 1.70222 0.306773 9.19191
98 2 -0.478906 6.80019 8.80311
4 1 3.24339 4.25722 10.0015
8 1 -0.2431 4.27187 8.83606
38 1 1.25292 5.71123 10.7237
21 1 4.35662 8.2801 10.0015
89 2 5.2811 4.17612 11.6701
19 1 8.00396 4.22817 11.3119
47 1 6.55848 6.51717 10.8382
63 1 5.87053 6.82236 8.18934
2 1 11.6585 0.349416 9.86888
29 1 10.1741 4.14962 9.19305
93 2 10.6464 4.21798 11.6709
39 1 9.67711 6.49023 10.7112
99 2 8.03272 5.60891 8.90141
23 1 12.6939 4.09725 10.1847
ITEM: TIMESTEP
4600
ITEM: NUMBER OF ATOMS
102
ITEM: BOX BOUNDS xy xz yz pp pp pp
-4.5154790145405350e+00 1.6086826325657555e+01 3.3790502981565503e-02
8.8869107448497076e-02 8.1629470832858324e+00 -3.9604431918645902e+00
-2.6656477411447277e-01 1.2157422733027653e+01 1.7041619073433412e-01
ITEM: ATOMS id type x y z
24 1 -0.977174 3.80854 1.82947
1 1 -0.0209582 0.408051 1.92762
35 1 2.06391 1.82172 1.12418
5 1 3.44819 0.157356 2.94233
95 2 3.58037 2.73395 2.92888
20 1 3.58149 4.13776 0.451127
43 1 5.03628 1.75334 0.910758
59 1 5.90076 1.59608 3.78041
78 1 3.82355 2.24184 12.1129
34 1 5.80577 4.1104 2.47943
90 2 6.20647 3.99761 -0.0488378
42 1 10.2174 2.28627 1.09302
102 2 11.8212 1.50009 3.00979
7 1 11.6783 4.0302 3.01426
18 1 11.8195 8.04167 0.703407
28 1 9.87143 7.92265 2.7849
3 1 8.26679 4.18258 1.86097
50 1 13.3856 2.52609 0.975471
66 1 13.9552 2.58874 3.76431
77 1 12.1873 6.15946 12.2403
30 1 1.48927 4.09155 2.79469
94 2 0.92805 4.04036 0.168458
40 1 2.03118 6.48459 1.15984
100 2 3.5758 5.50579 2.91723
56 1 1.27255 6.5883 3.91174
22 1 7.16513 0.0295263 1.8392
48 1 5.07459 6.43017 0.930425
64 1 5.71101 6.58861 3.68836
76 1 3.82795 6.2255 12.1594
92 2 9.25112 8.02588 0.213847
37 1 10.3932 5.63998 1.03012
88 2 14.5704 7.92507 0.053593
32 1 13.9618 0.111148 2.38121
45 1 13.4353 5.62432 1.01607
61 1 14.2381 5.4779 3.71703
97 2 11.9911 6.5584 2.9095
13 1 -1.40706 0.374989 7.04925
79 2 -1.01336 0.311541 4.46114
86 2 -0.449159 3.73358 4.34079
9 1 1.2848 8.09708 6.19751
51 1 1.31756 1.77752 3.94442
57 1 2.12475 2.82676 8.06227
73 1 -0.0653898 2.69594 6.56562
12 1 1.95273 4.21494 5.49256
67 1 3.56772 1.71373 5.64433
16 1 4.71119 4.08159 4.86078
68 1 7.98961 1.72422 6.25771
58 1 9.43443 2.55101 3.83284
52 1 10.1182 1.62976 8.04113
74 1 11.7059 2.5839 5.47053
85 2 11.9514 3.82648 7.57217
10 1 10.3619 8.15061 5.61979
26 1 -2.55358 4.04094 5.95636
80 2 12.5098 0.549619 7.54657
62 1 -2.70793 5.76498 8.04041
83 2 3.73477 7.89125 7.58825
54 1 2.02885 5.66354 7.91589
70 1 -0.323137 5.73389 6.28363
72 1 3.47863 6.65625 5.42607
82 2 4.20944 4.1433 7.4066
15 1 6.82378 4.1958 6.92108
25 1 5.86208 7.91034 5.95664
81 2 7.40391 4.30775 4.43332
11 1 9.58651 4.01143 6.27285
84 2 7.97249 7.76928 4.20551
53 1 9.6864 5.56477 3.97098
69 1 11.9425 5.57399 5.61337
71 1 8.18145 6.65819 6.50714
55 1 10.5056 6.58268 8.03319
14 1 13.1786 8.07005 5.10219
49 1 -1.95781 2.51856 10.9707
65 1 -2.54227 2.71681 8.22214
31 1 -2.47867 0.302038 9.45256
87 2 -2.9128 8.11017 11.9424
17 1 -0.323326 8.28031 11.3236
101 2 -0.259978 1.77898 8.99749
41 1 1.31235 2.52253 10.6967
91 2 2.33006 0.266149 11.7833
44 1 6.31893 1.87718 10.9074
60 1 5.74982 1.56968 8.16158
33 1 5.8863 4.17004 9.46879
6 1 7.99845 8.1419 8.89729
36 1 9.4062 1.71337 10.8428
96 2 7.91724 2.6851 8.94784
75 1 -0.515618 1.98988 -0.482993
46 1 -1.78916 5.8279 10.9626
27 1 1.75425 0.349873 9.02529
98 2 -0.33301 6.78554 8.82996
4 1 3.40937 4.43018 10.0627
8 1 -0.391397 4.35776 9.0526
38 1 1.26444 5.92238 10.671
21 1 4.28673 8.00451 9.99222
89 2 5.41826 4.25905 11.8604
19 1 8.02956 4.19437 11.263
47 1 6.45572 6.50121 10.8823
63 1 5.86816 6.47652 8.21919
2 1 11.571 0.183173 10.0185
29 1 9.95325 4.08284 9.16063
93 2 10.6192 4.20316 11.6758
39 1 9.52752 6.47264 10.7896
99 2 8.04281 5.63796 8.9465
23 1 12.4478 4.20947 9.94548
ITEM: TIMESTEP
4700
ITEM: NUMBER OF ATOMS
102
ITEM: BOX BOUNDS xy xz yz pp pp pp
-4.6214892565375694e+00 1.6117841635756555e+01 7.3579699086086622e-02
3.5198459266447372e-02 8.0124252264333862e+00 -4.0752273198671380e+00
-1.7379330228254997e-01 1.2064651261195735e+01 -3.3776314300159267e-02
ITEM: ATOMS id type x y z
24 1 -0.986276 3.84137 1.95433
1 1 -0.13738 0.33865 1.94819
35 1 2.11767 1.61191 1.22363
5 1 3.58863 0.0698388 3.01013
95 2 3.74805 2.68146 3.01566
20 1 3.65526 4.00278 0.750431
43 1 5.27869 1.73927 1.09111
59 1 6.11883 1.44747 3.81538
78 1 3.85412 1.99147 12.0704
34 1 5.79265 4.01693 2.64721
90 2 6.29307 4.06498 0.133813
42 1 10.3108 2.53461 1.19529
102 2 11.7615 1.5671 3.05665
7 1 11.9257 4.0795 3.17264
18 1 11.9268 7.9508 0.696556
28 1 9.95021 8.09479 2.87344
3 1 8.25488 4.36256 1.98961
50 1 13.3396 2.44596 1.02963
66 1 14.0653 2.34833 3.70697
77 1 11.8995 6.03752 12.1706
30 1 1.66751 3.9852 2.66863
94 2 1.02101 4.03473 0.250091
40 1 1.90651 6.4769 1.1621
100 2 3.52069 5.43699 2.91336
56 1 1.15091 6.56209 3.85018
22 1 7.37823 -0.118831 1.79656
48 1 5.1173 6.58376 1.01547
64 1 5.70349 6.54701 3.7197
76 1 3.67951 6.09435 11.9443
92 2 9.5018 8.12745 0.419836
37 1 10.476 5.63643 1.26445
88 2 14.4851 8.08375 0.152641
32 1 13.9584 -0.0405878 2.61139
45 1 13.3525 5.5734 1.19953
61 1 14.2978 5.55439 3.74066
97 2 11.9459 6.63785 3.20858
13 1 -1.60875 0.0990373 6.89073
79 2 -0.970639 0.326104 4.50708
86 2 -0.276643 3.80157 4.28707
9 1 1.25457 8.03153 6.27934
51 1 1.38672 1.62249 3.93138
57 1 2.09063 2.5824 7.97862
73 1 -0.26501 2.4446 6.39783
12 1 1.83279 4.05232 5.60304
67 1 3.68461 1.55437 5.52043
16 1 4.74834 4.11432 4.99078
68 1 7.83773 1.32567 6.29504
58 1 9.41457 2.50989 4.02506
52 1 10.0959 1.53369 7.82078
74 1 11.6533 2.4058 5.51703
85 2 11.9317 3.72103 7.68691
10 1 10.3215 7.90377 5.59254
26 1 -2.62891 3.77851 5.85195
80 2 12.4124 0.350371 7.38826
62 1 -2.79903 5.54413 8.00716
83 2 3.57548 7.55528 7.66779
54 1 1.86455 5.64093 7.87356
70 1 -0.612102 5.52214 6.17705
72 1 3.22163 6.45994 5.51668
82 2 4.15763 4.28368 7.3962
15 1 6.72221 3.89664 6.84555
25 1 5.74542 7.64121 5.99973
81 2 7.32106 4.37625 4.51207
11 1 9.50006 3.98927 6.30648
84 2 7.91612 7.6427 4.27361
53 1 9.66989 5.56747 3.88718
69 1 11.8617 5.45523 5.71308
71 1 7.98228 6.35004 6.40015
55 1 10.44 6.42814 7.90885
14 1 13.0244 8.03385 4.9896
49 1 -1.90449 2.49332 10.8706
65 1 -2.5522 2.52436 8.16264
31 1 -2.60273 0.1218 9.33322
87 2 -3.02598 8.0489 11.6283
17 1 -0.412616 8.13581 11.2468
101 2 -0.340447 1.49801 8.90272
41 1 1.16912 2.5494 10.6201
91 2 2.14829 0.153942 11.5187
44 1 6.3973 1.47744 10.7861
60 1 5.36799 1.43363 8.12833
33 1 5.8285 3.97272 9.33748
6 1 8.11807 7.95462 8.84726
36 1 9.41584 1.6209 10.6897
96 2 7.83833 2.52358 8.76368
75 1 -0.478181 2.11197 -0.215273
46 1 -1.91786 5.6617 10.7591
27 1 1.66695 0.0355414 9.17228
98 2 -0.533002 6.60727 8.84031
4 1 3.29604 4.23939 9.94219
8 1 -0.242903 4.10293 8.69064
38 1 0.940949 5.64539 10.7162
21 1 4.25804 7.8475 9.92985
89 2 5.20127 3.99725 11.7452
19 1 7.8019 3.96442 11.1996
47 1 6.43652 6.30909 10.9238
63 1 5.84486 6.36648 8.28742
2 1 11.6055 0.214734 9.89379
29 1 9.96863 3.93151 9.18386
93 2 10.3772 4.00538 11.6451
39 1 9.45478 6.31214 10.7151
99 2 8.06127 5.18087 8.8163
23 1 12.396 4.11671 10.0409
ITEM: TIMESTEP
4800
ITEM: NUMBER OF ATOMS
102
ITEM: BOX BOUNDS xy xz yz pp pp pp
-4.5346738089082752e+00 1.6073269166899756e+01 4.8573973280270785e-02
-9.6978620301158891e-02 8.0385385361607007e+00 -4.0079786152888399e+00
-2.0833732163342766e-01 1.2099195280546615e+01 -1.3984008414043858e-01
ITEM: ATOMS id type x y z
24 1 -0.995754 4.17784 1.8236
1 1 0.0931182 0.140084 1.87818
35 1 1.96425 1.72481 1.24378
5 1 3.49232 0.0438166 3.09706
95 2 3.59957 2.6407 3.04696
20 1 3.64834 3.96825 0.660538
43 1 5.03996 1.57463 1.12595
59 1 5.93065 1.42355 3.84272
78 1 3.64591 1.84315 12.2209
34 1 5.68625 3.96972 2.53418
90 2 6.11035 3.99378 0.141678
42 1 10.2928 2.37057 1.12265
102 2 11.8268 1.33954 2.97022
7 1 11.7661 4.02636 2.8722
18 1 11.9012 8.0351 0.583267
28 1 9.85547 8.00676 2.67121
3 1 8.24897 4.02045 1.91431
50 1 13.4059 2.39587 0.970182
66 1 13.9544 2.53225 3.72983
77 1 12.1721 5.92957 12.0367
30 1 1.58404 4.04743 2.79948
94 2 1.03482 4.07071 0.360976
40 1 2.08134 6.48373 1.18716
100 2 3.61818 5.44728 3.09134
56 1 1.07291 6.45993 3.90347
22 1 7.25661 0.0851357 1.94656
48 1 5.13745 6.38422 1.02004
64 1 5.81846 6.39237 3.65329
76 1 3.83416 5.86855 12.2912
92 2 9.12841 7.96603 0.185288
37 1 10.4233 5.60539 1.10271
88 2 14.6116 8.05079 0.105188
32 1 14.123 0.0123564 2.45801
45 1 13.5096 5.66802 1.0384
61 1 14.2222 5.5577 3.8221
97 2 12.0675 6.64854 2.88924
13 1 -1.51946 0.00663915 6.88937
79 2 -0.851074 0.496864 4.34375
86 2 -0.318143 3.67117 4.23543
9 1 1.29524 7.92414 6.32902
51 1 1.39979 1.60441 3.98068
57 1 2.13725 2.36612 7.98448
73 1 -0.194609 2.44605 6.45102
12 1 2.0783 3.97556 5.56635
67 1 3.58539 1.5168 5.56827
16 1 4.92468 3.96567 5.04259
68 1 7.95344 1.5255 6.2251
58 1 9.4385 2.41408 3.94586
52 1 10.1392 1.42502 8.06781
74 1 11.7856 2.38725 5.42441
85 2 11.7797 3.54633 7.59238
10 1 10.3362 7.96509 5.57518
26 1 -2.44373 3.86062 6.03215
80 2 12.387 0.14266 7.45725
62 1 -2.70695 5.4624 8.12412
83 2 3.57748 7.7297 7.64039
54 1 1.98183 5.4016 7.94963
70 1 -0.289851 5.47565 6.28187
72 1 3.51089 6.34336 5.5131
82 2 4.12782 4.33331 7.5123
15 1 6.76681 4.05117 6.95047
25 1 5.71408 7.92878 5.94814
81 2 7.36995 4.3222 4.41825
11 1 9.57007 3.87117 6.23668
84 2 8.04038 7.66315 4.29712
53 1 9.80569 5.56205 3.97935
69 1 12.0572 5.56002 5.62553
71 1 8.02287 6.47195 6.39912
55 1 10.3559 6.46879 7.94854
14 1 13.0589 8.0893 4.77418
49 1 -1.81563 2.28662 10.9752
65 1 -2.472 2.23863 8.1856
31 1 -2.43523 -0.0897079 9.35948
87 2 -2.93122 8.00654 11.8555
17 1 -0.392642 7.75942 11.1921
101 2 -0.322192 1.32212 8.82862
41 1 1.15962 2.26093 10.7324
91 2 2.18717 -0.210365 11.6699
44 1 6.29878 1.48611 10.7866
60 1 5.59327 1.45496 8.02912
33 1 5.79364 3.81048 9.34827
6 1 7.96475 8.02452 8.83826
36 1 9.35341 1.49303 10.7416
96 2 7.76933 2.58008 8.86739
75 1 -0.563037 2.09767 -0.179942
46 1 -1.84997 5.45443 10.8085
27 1 1.7458 -0.170112 9.18261
98 2 -0.390394 6.5812 8.86633
4 1 3.3208 3.83984 10.0232
8 1 -0.273293 3.94442 9.04255
38 1 1.19584 5.57993 10.7933
21 1 4.19605 8.1051 9.96738
89 2 5.31439 3.96823 11.7262
19 1 7.90622 4.03006 11.2494
47 1 6.37772 6.38218 10.8026
63 1 5.67941 6.25878 8.09597
2 1 11.6272 -0.0145457 10.0729
29 1 9.86877 3.88577 9.19561
93 2 10.6896 3.85647 11.5316
39 1 9.47486 6.27729 10.7508
99 2 7.84865 5.41789 8.93915
23 1 12.5521 3.76494 9.93854
ITEM: TIMESTEP
4900
ITEM: NUMBER OF ATOMS
102
ITEM: BOX BOUNDS xy xz yz pp pp pp
-4.5802106729421457e+00 1.6070686297938288e+01 -5.8705031107854251e-02
8.0331693818113031e-02 7.9954386310750767e+00 -3.9488193438960346e+00
-2.3176851822470645e-01 1.2122626477137878e+01 -5.6296751068017651e-03
ITEM: ATOMS id type x y z
24 1 -1.00989 3.83946 1.81691
1 1 -0.0774548 0.0143446 1.93397
35 1 2.02987 1.62407 1.11076
5 1 3.53768 0.127757 3.0107
95 2 3.6816 2.59371 3.08748
20 1 3.52388 3.99726 0.545837
43 1 5.23672 1.61497 1.08019
59 1 5.87533 1.5501 3.87329
78 1 3.86321 1.99899 12.0517
34 1 5.67078 3.96959 2.45695
90 2 6.20628 4.01003 0.051554
42 1 10.2958 2.43788 1.21147
102 2 11.8856 1.52022 2.97785
7 1 11.831 4.04115 2.99337
18 1 11.9135 8.03164 0.63142
28 1 9.78953 8.06167 2.81449
3 1 8.08528 4.23452 1.75492
50 1 13.2737 2.45068 0.874063
66 1 14.0133 2.50218 3.64023
77 1 12.0257 5.93553 12.1401
30 1 1.54922 4.03029 2.74506
94 2 0.919354 3.98102 0.137833
40 1 1.84904 6.38156 1.10678
100 2 3.52388 5.47073 2.95586
56 1 0.993787 6.60199 3.96849
22 1 7.3256 -0.159976 1.88551
48 1 5.03561 6.33934 0.94267
64 1 5.58443 6.3872 3.68676
76 1 3.84776 5.92193 11.971
92 2 9.35947 8.02099 0.28615
37 1 10.2917 5.72294 1.24894
88 2 14.4624 7.97337 0.0216869
32 1 14.1012 0.0198204 2.48295
45 1 13.3579 5.60818 1.10072
61 1 14.2494 5.58056 3.82515
97 2 11.868 6.57243 3.09158
13 1 -1.49071 0.10388 7.01327
79 2 -1.02325 0.266484 4.54261
86 2 -0.432079 3.77243 4.22458
9 1 1.22977 8.02151 6.35547
51 1 1.32537 1.71652 3.97664
57 1 1.87793 2.57527 8.01528
73 1 -0.340569 2.44622 6.48384
12 1 1.8682 4.07485 5.56391
67 1 3.51868 1.61658 5.75066
16 1 4.73728 3.99687 4.93778
68 1 7.84199 1.73997 6.29409
58 1 9.38406 2.63126 3.82033
52 1 10.3266 1.87342 7.80457
74 1 11.7137 2.59251 5.38466
85 2 11.9686 3.91167 7.6266
10 1 10.2454 8.13621 5.67725
26 1 -2.59106 3.85509 5.90263
80 2 12.5285 0.241582 7.41205
62 1 -2.70081 5.37179 8.11188
83 2 3.67377 7.74388 7.73887
54 1 1.88772 5.61459 7.88896
70 1 -0.467729 5.52893 6.32256
72 1 3.51233 6.36706 5.50574
82 2 4.16973 4.22914 7.31991
15 1 6.74389 4.30253 6.9211
25 1 5.72081 7.98829 5.97586
81 2 7.26019 4.13312 4.41842
11 1 9.50269 4.03965 6.25496
84 2 7.87512 7.82283 4.16849
53 1 9.57156 5.56499 3.96391
69 1 11.8444 5.6306 5.56263
71 1 8.11634 6.58666 6.45908
55 1 10.437 6.71526 8.07774
14 1 12.9398 8.11937 4.77872
49 1 -1.89441 2.45945 10.8696
65 1 -2.53956 2.43499 8.21879
31 1 -2.49579 -0.084145 9.466
87 2 -3.10004 7.81352 11.8073
17 1 -0.386712 7.90883 11.272
101 2 -0.374675 1.43786 8.96367
41 1 1.19946 2.48666 10.7803
91 2 2.27841 0.045784 11.6988
44 1 6.31567 1.62775 10.806
60 1 5.4696 1.82595 8.14853
33 1 5.80833 4.15056 9.35752
6 1 8.04541 8.15098 9.03723
36 1 9.59816 1.9346 10.6343
96 2 7.8914 2.74353 8.80493
75 1 -0.568139 1.95323 -0.206951
46 1 -1.94855 5.46291 10.8754
27 1 1.65468 0.0200014 9.16901
98 2 -0.519397 6.47277 8.93238
4 1 3.34748 4.0684 9.80263
8 1 -0.314724 4.04106 8.99284
38 1 0.962381 5.57497 10.7482
21 1 4.14414 7.79616 10.033
89 2 5.35225 4.01395 11.831
19 1 7.89986 4.08453 11.0976
47 1 6.46352 6.29923 11.0265
63 1 5.88458 6.65696 8.2988
2 1 11.7629 0.367219 10.0792
29 1 10.0631 4.06888 9.12314
93 2 10.4249 4.10337 11.6023
39 1 9.55366 6.37108 10.8408
99 2 8.16018 5.5534 8.90838
23 1 12.5438 3.93612 10.0849
ITEM: TIMESTEP
5000
ITEM: NUMBER OF ATOMS
102
ITEM: BOX BOUNDS xy xz yz pp pp pp
-4.7091285770517244e+00 1.6149841167853495e+01 -1.1582344323192722e-02
1.0756706143087680e-01 8.1592115970303905e+00 -4.0457050648750519e+00
-1.9986951156515609e-01 1.2090727470478313e+01 1.8537865846127891e-01
ITEM: ATOMS id type x y z
24 1 -1.15426 4.1703 1.96229
1 1 -0.274465 0.181031 1.96341
35 1 1.89706 1.59293 1.10216
5 1 3.47107 0.0600464 2.9994
95 2 3.532 2.61141 2.88757
20 1 3.48997 4.04302 0.601619
43 1 4.9736 1.59801 1.01916
59 1 5.81826 1.56325 3.69776
78 1 3.72516 2.3024 12.256
34 1 5.72404 4.01105 2.45376
90 2 6.3038 4.04719 0.170059
42 1 10.3543 2.5601 1.18657
102 2 11.8555 1.69238 3.00957
7 1 11.8079 4.17208 3.05477
18 1 11.8756 8.04336 0.7653
28 1 9.75019 8.1711 2.69379
3 1 8.30703 4.23329 1.89066
50 1 13.4278 2.46952 1.14892
66 1 14.0483 2.55564 3.83499
77 1 12.1809 6.27666 12.0892
30 1 1.41174 3.92606 2.74885
94 2 0.91405 3.97065 0.348519
40 1 1.82355 6.318 1.2248
100 2 3.48352 5.24697 3.02264
56 1 0.965877 6.54587 3.86565
22 1 7.23241 0.0669338 1.95227
48 1 5.01168 6.38481 0.956478
64 1 5.64163 6.46868 3.70884
76 1 3.76001 6.15943 12.0613
92 2 9.21593 8.01422 0.244676
37 1 10.5108 5.65114 1.16412
88 2 14.5274 8.07424 0.17573
32 1 13.9616 -0.0156126 2.53005
45 1 13.4451 5.69252 1.01478
61 1 14.1523 5.56063 3.95923
97 2 11.9254 6.82482 3.21328
13 1 -1.69981 0.354528 6.94508
79 2 -1.02807 0.314514 4.42279
86 2 -0.534517 3.80657 4.30729
9 1 1.05917 7.92989 6.22067
51 1 1.30049 1.55744 4.01052
57 1 1.98501 2.6076 7.94947
73 1 -0.255101 2.45321 6.40171
12 1 1.97914 3.93657 5.63144
67 1 3.65813 1.67502 5.43585
16 1 4.71776 4.09411 4.93898
68 1 7.82281 1.80508 6.23109
58 1 9.43418 2.78596 4.00874
52 1 10.2415 1.93469 7.75328
74 1 11.7085 2.7305 5.42779
85 2 12.0141 3.82341 7.71579
10 1 10.3468 8.24339 5.54364
26 1 -2.73775 3.9529 6.00485
80 2 12.484 0.409625 7.47985
62 1 -2.75965 5.57272 8.12264
83 2 3.50141 7.79916 7.586
54 1 1.83806 5.51823 7.87534
70 1 -0.504831 5.53847 6.19426
72 1 3.26652 6.45811 5.50484
82 2 4.09943 4.26005 7.45244
15 1 6.6719 4.37335 6.85618
25 1 5.57245 7.85581 5.88433
81 2 7.41913 4.393 4.47642
11 1 9.6595 4.26256 6.36543
84 2 7.81303 7.75528 4.20274
53 1 9.70551 5.81569 4.0041
69 1 12.0331 5.73232 5.63349
71 1 7.97642 6.65892 6.37362
55 1 10.285 6.63434 7.88348
14 1 13.0005 8.18277 4.93489
49 1 -2.04044 2.54232 10.8143
65 1 -2.60183 2.65822 8.16911
31 1 -2.59814 0.15281 9.31798
87 2 -3.25983 8.16987 11.772
17 1 -0.421767 8.02696 11.2762
101 2 -0.348263 1.59953 8.84917
41 1 1.18869 2.56135 10.6442
91 2 2.21623 0.326965 11.5699
44 1 6.44621 1.92777 10.8389
60 1 5.56865 1.8399 7.93498
33 1 5.87816 4.20769 9.29494
6 1 7.99184 8.19496 8.87683
36 1 9.37649 1.94089 10.7629
96 2 7.85095 2.90213 8.7937
75 1 -0.722234 2.04437 -0.145131
46 1 -1.99463 5.76889 10.8312
27 1 1.72265 0.106549 9.05546
98 2 -0.34949 6.71257 8.785
4 1 3.30756 4.00568 9.96805
8 1 -0.477397 4.25069 8.86642
38 1 1.07835 5.72968 10.7147
21 1 4.22627 8.41178 10.0336
89 2 5.28956 4.33102 11.6326
19 1 7.9525 4.39766 11.3285
47 1 6.41673 6.61847 10.9147
63 1 5.61721 6.70867 8.20637
2 1 11.5421 0.43642 10.0014
29 1 9.88876 4.11351 9.22174
93 2 10.6541 4.26577 11.7205
39 1 9.61084 6.59249 10.7256
99 2 7.97338 5.66426 8.94496
23 1 12.5637 3.96635 10.1468
