LAMMPS (29 Aug 2024)
OMP_NUM_THREADS environment is not set. Defaulting to 1 thread. (src/comm.cpp:98)
  using 1 OpenMP thread(s) per MPI task
units           metal
dimension       3
boundary        p p p
atom_style      atomic

read_data       ../../structures/converted/Al13Fe4/al13fe4.data
Reading data file ...
  triclinic box = (0 0 0) to (15.498 8.0814 11.890858) with tilt (-6.2236995e-16 -3.8154477 4.7083176e-16)
  1 by 1 by 1 MPI processor grid
  reading atoms ...
  102 atoms
  read_data CPU = 0.001 seconds

mass            1 26.9815385
mass            2 55.845

pair_style      meam
pair_coeff      * * ../../potentials/meam/Jelinek_2012/Jelinek_2012_meamf AlS SiS MgS CuS FeS ../../potentials/meam/Jelinek_2012/Jelinek_2012_meam.alsimgcufe AlS FeS

neighbor        2.0 bin
neigh_modify    delay 10 check yes

thermo          100
thermo_style    custom step temp pe ke etotal press vol lx ly lz xy xz yz

# 1) Static relaxation with triclinic cell relaxation to ~0 bar.
fix             boxrelax all box/relax tri 0.0 vmax 0.001
min_style       cg
minimize        1.0e-8 1.0e-10 10000 100000

CITE-CITE-CITE-CITE-CITE-CITE-CITE-CITE-CITE-CITE-CITE-CITE-CITE

Your simulation uses code contributions which should be cited:

- Type Label Framework: https://doi.org/10.1021/acs.jpcb.3c08419

@Article{Gissinger24,
 author = {Jacob R. Gissinger, Ilia Nikiforov, Yaser Afshar, Brendon Waters, Moon-ki Choi, Daniel S. Karls, Alexander Stukowski, Wonpil Im, Hendrik Heinz, Axel Kohlmeyer, and Ellad B. Tadmor},
 title = {Type Label Framework for Bonded Force Fields in LAMMPS},
 journal = {J. Phys. Chem. B},
 year =    2024,
 volume =  128,
 number =  13,
 pages =   {3282–-3297}
}

CITE-CITE-CITE-CITE-CITE-CITE-CITE-CITE-CITE-CITE-CITE-CITE-CITE

Switching to 'neigh_modify every 1 delay 0 check yes' setting during minimization
Neighbor list info ...
  update: every = 1 steps, delay = 0 steps, check = yes
  max neighbors/atom: 2000, page size: 100000
  master list distance cutoff = 7
  ghost atom cutoff = 7
  binsize = 3.5, bins = 6 3 4
  2 neighbor lists, perpetual/occasional/extra = 2 0 0
  (1) pair meam, perpetual
      attributes: full, newton on
      pair build: full/bin/atomonly
      stencil: full/bin/3d
      bin: standard
  (2) pair meam, perpetual, half/full from (1)
      attributes: half, newton on
      pair build: halffull/newton/tri
      stencil: none
      bin: none
WARNING: Energy due to 6 extra global DOFs will be included in minimizer energies
 (src/min.cpp:219)
Per MPI rank memory allocation (min/avg/max) = 10.09 | 10.09 | 10.09 Mbytes
   Step          Temp          PotEng         KinEng         TotEng         Press          Volume           Lx             Ly             Lz             Xy             Xz             Yz      
         0   0             -350.6328       0             -350.6328       89312.163      1489.2769      15.498         8.0814         11.890858     -6.2236995e-16 -3.8154477      4.7083176e-16
       100   0             -358.89272      0             -358.89272     -1833.9086      1612.1903      16.044007      8.1799514      12.284366     -1.0651552e-13 -4.1544897      4.8025285e-15
       200   0             -360.93392      0             -360.93392     -1090.7242      1605.9251      16.186914      8.0685855      12.295999      0.00016234296 -4.1679216     -1.056712e-06 
       300   0             -361.3476       0             -361.3476      -1509.5366      1607.5751      16.357625      7.9821286      12.312105      0.012923539   -4.0651038     -0.012451521  
       400   0             -361.59876      0             -361.59876     -466.81293      1607.2035      16.451109      7.9294376      12.320641     -0.0037888421  -3.9647985     -0.0062481275 
       500   0             -362.59593      0             -362.59593     -13.353097      1602.0411      16.63941       7.9340972      12.134956      0.0052975768  -3.9779878      0.00050975609
       600   0             -363.45245      0             -363.45245     -78.772457      1604.2518      16.678751      7.8649963      12.229551      0.011072036   -3.992553       0.0084197342 
       700   0             -363.59831      0             -363.59831     -129.13906      1607.2431      16.66846       7.8788232      12.238402      0.022088407   -3.9885673      0.06010943   
       800   0             -363.63991      0             -363.63991      53.330114      1607.2439      16.653712      7.8811142      12.245686      0.049027771   -3.989914       0.057746919  
       900   0             -363.64219      0             -363.64219      18.106654      1607.2601      16.653226      7.8794024      12.248827      0.056804988   -3.98532        0.055888519  
       937   0             -363.6425       0             -363.6425      -9.4271286      1607.2936      16.654113      7.8782955      12.250151      0.058671463   -3.9851083      0.05555093   
Loop time of 3.33403 on 1 procs for 937 steps with 102 atoms

186.6% CPU use with 1 MPI tasks x 1 OpenMP threads

Minimization stats:
  Stopping criterion = energy tolerance
  Energy initial, next-to-last, final = 
     -350.632799696023  -363.642497573261  -363.642497970821
  Force two-norm initial, final = 147.22866 0.02646983
  Force max component initial, final = 91.937649 0.011644336
  Final line search alpha, max atom move = 0.053915941 0.00062781533
  Iterations, force evaluations = 937 1324

MPI task timing breakdown:
Section |  min time  |  avg time  |  max time  |%varavg| %total
---------------------------------------------------------------
Pair    | 3.2962     | 3.2962     | 3.2962     |   0.0 | 98.86
Neigh   | 0.0010842  | 0.0010842  | 0.0010842  |   0.0 |  0.03
Comm    | 0.0072848  | 0.0072848  | 0.0072848  |   0.0 |  0.22
Output  | 0.00026682 | 0.00026682 | 0.00026682 |   0.0 |  0.01
Modify  | 0          | 0          | 0          |   0.0 |  0.00
Other   |            | 0.02922    |            |       |  0.88

Nlocal:            102 ave         102 max         102 min
Histogram: 1 0 0 0 0 0 0 0 0 0
Nghost:           1050 ave        1050 max        1050 min
Histogram: 1 0 0 0 0 0 0 0 0 0
Neighs:           4798 ave        4798 max        4798 min
Histogram: 1 0 0 0 0 0 0 0 0 0
FullNghs:         9596 ave        9596 max        9596 min
Histogram: 1 0 0 0 0 0 0 0 0 0

Total # of neighbors = 9596
Ave neighs/atom = 94.078431
Neighbor list builds = 2
Dangerous builds = 0
unfix           boxrelax

write_data      data.al13fe4_boxrelaxed
System init for write_data ...

# 2) NPT run at 300 K and 0 bar.
reset_timestep  0
velocity        all create 300.0 24680 mom yes rot no dist gaussian

fix             npt_all all npt temp 300.0 300.0 0.1 tri 0.0 0.0 1.0

dump            d1 all custom 100 dump.al13fe4_npt.lammpstrj id type x y z
run             5000
Per MPI rank memory allocation (min/avg/max) = 8.979 | 8.979 | 8.979 Mbytes
   Step          Temp          PotEng         KinEng         TotEng         Press          Volume           Lx             Ly             Lz             Xy             Xz             Yz      
         0   300           -363.6425       3.9165824     -359.72592      2593.3151      1607.2936      16.654113      7.8782955      12.250151      0.058671463   -3.9851083      0.05555093   
       100   195.18082     -361.75923      2.5481392     -359.21109     -5297.3292      1626.3941      16.689347      7.9164492      12.309942      0.071229865   -4.0242373      0.079212757  
       200   223.86543     -361.2215       2.9226247     -358.29887      911.05808      1613.7577      16.63246       7.8812192      12.310861      0.094442948   -4.0160489      0.067012727  
       300   242.33382     -360.34064      3.1637346     -357.17691     -165.48837      1619.6867      16.731836      7.854961       12.323765      0.14077526    -3.9638529     -0.012058232  
       400   309.02346     -360.09698      4.0343861     -356.0626      -4433.29        1631.663       16.690174      7.9064023      12.364903      0.22120834    -3.9127791     -0.037524002  
       500   343.12458     -359.69478      4.4795856     -355.2152       4338.9811      1616.8382      16.665638      7.8683225      12.329983      0.31866266    -4.0019767      0.026136659  
       600   351.31761     -359.43828      4.5865479     -354.85174     -9200.5844      1642.5659      17.024214      7.7915534      12.383166      0.30670394    -4.0333181      0.15178471   
       700   321.22207     -359.54281      4.1936423     -355.34917      8627.1054      1612.0205      16.565759      7.8985063      12.3201        0.12933632    -3.8343625      0.12964718   
       800   292.47156     -359.65538      3.8182965     -355.83708     -5659.9133      1639.0519      16.574534      7.9923349      12.373076      0.037572498   -3.9759987     -0.0014167796 
       900   270.64092     -359.75301      3.5332916     -356.21972      8488.773       1603.7517      16.707838      7.8549941      12.219994      0.045358292   -4.1435075     -0.046661602  
      1000   280.36183     -360.02405      3.6602007     -356.36385     -6197.9735      1640.2276      16.633472      7.9616178      12.385681     -0.0067515016  -3.9833453     -0.0065334395 
      1100   286.80081     -359.59076      3.7442633     -355.84649      6020.7124      1617.6791      16.710615      7.8765813      12.290291      0.047684211   -3.8284632      0.064991622  
      1200   299.31203     -359.2747       3.9076008     -355.3671      -5160.845       1635.0453      16.894283      7.8403975      12.343887      0.14881371    -4.0402683      0.085792896  
      1300   296.94331     -359.24793      3.8766765     -355.37125      6772.1485      1615.3553      16.576351      7.9461137      12.26378       0.19614203    -4.1398264      0.016857264  
      1400   255.62337     -359.33567      3.3372333     -355.99844     -38.635432      1628.0296      16.653837      7.9436642      12.306289      0.20683097    -4.0178603      0.0098060556 
      1500   286.76534     -360.1975       3.7438003     -356.4537       117.243        1625.4088      16.784964      7.8002704      12.414594      0.17177357    -3.8676485      0.038625359  
      1600   256.3966      -359.78825      3.3473281     -356.44093      5910.0669      1614.3741      16.697584      7.8491024      12.317726      0.13393522    -3.9264185      0.049604087  
      1700   310.91526     -360.15568      4.0590841     -356.0966      -3049.0003      1633.8339      16.746827      7.9578464      12.259699      0.13803701    -4.0610695      0.056243934  
      1800   311.20926     -359.99948      4.0629224     -355.93655      5395.0421      1616.6918      16.610392      7.8702681      12.366814      0.092946236   -4.0583649      0.0016620728 
      1900   322.5566      -360.09835      4.2110649     -355.88728     -2024.2034      1629.9635      16.62357       7.9453415      12.340735     -0.085203467   -3.9650781     -0.044588375  
      2000   295.40951     -359.78571      3.8566523     -355.92905      5752.495       1614.3992      16.531686      7.979439       12.238309     -0.13152328    -3.9071347      0.010884379  
      2100   294.74755     -360.13623      3.8480103     -356.28822     -617.60849      1626.2366      16.558704      7.916298       12.4061       -0.057788144   -4.0074452      0.026243976  
      2200   308.61156     -360.47937      4.0290087     -356.45036      1516.9371      1618.8162      16.744178      7.8825706      12.264952      0.041157669   -4.1133682     -0.072426783  
      2300   341.67418     -360.53078      4.4606503     -356.07013     -4576.1308      1629.9905      16.703216      7.9618764      12.256587      0.098389092   -4.0487085     -0.11557206   
      2400   309.21998     -359.41981      4.0369517     -355.38286      1100.7184      1624.0333      16.536328      7.9193469      12.401279      0.085978214   -3.9263764     -0.0095425433 
      2500   317.93396     -359.52599      4.1507152     -355.37528      2281.4859      1622.7963      16.753853      7.8815668      12.289572      0.037259036   -3.9973946      0.12741459   
      2600   294.68293     -359.57564      3.8471666     -355.72848     -1205.2602      1629.7418      16.792332      7.908173       12.27246       0.018178261   -4.0747719      0.20214638   
      2700   322.56076     -360.26999      4.2111193     -356.05887      4913.1364      1616.5236      16.467617      7.9542588      12.341035      0.030884062   -3.9897606     -0.022061516  
      2800   282.5127      -359.72697      3.6882809     -356.03869     -6471.0896      1637.3073      16.711666      7.95667        12.313432      0.0010795563  -4.025318      -0.19702141   
      2900   302.50207     -360.0477       3.9492477     -356.09846      8042.9372      1605.6779      16.538117      7.9082871      12.276935     -0.0080833487  -3.970289      -0.098318872  
      3000   278.91542     -359.74759      3.6413175     -356.10627     -8831.1493      1641.9328      16.622416      7.9683543      12.396315     -0.038216406   -3.9820415      0.15559087   
      3100   315.45273     -359.89018      4.118322      -355.77185      7491.2854      1609.7326      16.634132      7.9028484      12.245314     -0.080218593   -4.0290366      0.12542046   
      3200   339.8446      -359.77516      4.4367646     -355.33839     -4569.5768      1635.991       16.639579      7.9639077      12.345605      0.034304112   -4.0374934     -0.07727578   
      3300   298.77219     -359.18029      3.900553      -355.27974      3717.21        1623.0776      16.562954      7.9508697      12.324998      0.18861268    -3.9146696     -0.20619352   
      3400   290.51766     -359.99123      3.7927878     -356.19844     -3802.1171      1627.6118      16.659843      7.9137279      12.345219      0.078590679   -3.9869553     -0.072798098  
      3500   283.57318     -360.12451      3.7021258     -356.42238      4216.8683      1613.6469      16.650258      7.9080879      12.255078     -0.023032055   -4.0444157      0.20054365   
      3600   307.46678     -360.27234      4.0140633     -356.25828     -7389.037       1636.0848      16.733365      7.9269092      12.334418      0.024512798   -3.9891515      0.21070209   
      3700   316.83458     -359.93455      4.1363625     -355.79818      7359.5025      1607.162       16.448111      7.9104358      12.352169     -0.017748189   -3.9528865     -0.054745365  
      3800   327.54751     -359.73561      4.2762227     -355.45939     -8832.1683      1644.7613      16.665339      8.013943       12.315228     -0.044045327   -4.0737395     -0.19382914   
      3900   305.66885     -359.89358      3.9905908     -355.90299      9684.6425      1605.0371      16.56909       7.8976549      12.265585      0.0099203276  -4.0063996      0.020598929  
      4000   268.40799     -360.1339       3.50414       -356.62976     -10101.56       1642.3362      16.623182      7.9346479      12.451459      0.02819807    -3.9835033      0.15833551   
      4100   287.69443     -360.19955      3.7559298     -356.44362      10686.799      1606.8175      16.674988      7.920863       12.16546       0.0034627589  -4.0234525      0.1105187    
      4200   285.23826     -359.70762      3.7238639     -355.98375     -5972.1983      1633.5221      16.574747      7.975021       12.357945      0.01385362    -4.0340691     -0.048389623  
      4300   298.94363     -359.47497      3.9027913     -355.57218      8093.766       1617.3289      16.450479      7.9454114      12.373809      0.016729026   -4.001243      -0.15454626   
      4400   298.54875     -359.60103      3.8976359     -355.70339     -4498.7267      1633.9333      16.776841      7.9333772      12.276259     -0.0072476885  -4.0126201     -0.02307521   
      4500   290.13823     -360.33075      3.7878343     -356.54292      4781.7435      1613.9024      16.656542      7.9093715      12.250405      0.008322976   -3.9080781      0.1741504    
      4600   276.78412     -360.33681      3.6134927     -356.72332     -3828.6137      1630.8295      16.608072      7.9036618      12.423988      0.033790503   -3.9604432      0.17041619   
      4700   291.20997     -360.22178      3.8018261     -356.41995      3176.5235      1612.8557      16.590524      7.9434505      12.238445      0.073579699   -4.0752273     -0.033776314  
      4800   292.27297     -359.83525      3.8157039     -356.01955     -2585.9733      1628.7736      16.55139       7.9956771      12.307533      0.048573973   -4.0079786     -0.13984008   
      4900   291.57873     -359.68032      3.8066404     -355.87368     -1693.9971      1626.3372      16.643373      7.9094773      12.354395     -0.058705031   -3.9488193     -0.0056296751 
      5000   308.50522     -359.63936      4.0276204     -355.61174     -61.795361      1624.4052      16.801682      7.8662659      12.290597     -0.011582344   -4.0457051      0.18537866   
Loop time of 12.5157 on 1 procs for 5000 steps with 102 atoms

Performance: 34.517 ns/day, 0.695 hours/ns, 399.497 timesteps/s, 40.749 katom-step/s
186.9% CPU use with 1 MPI tasks x 1 OpenMP threads

MPI task timing breakdown:
Section |  min time  |  avg time  |  max time  |%varavg| %total
---------------------------------------------------------------
Pair    | 12.373     | 12.373     | 12.373     |   0.0 | 98.86
Neigh   | 0.0015921  | 0.0015921  | 0.0015921  |   0.0 |  0.01
Comm    | 0.028419   | 0.028419   | 0.028419   |   0.0 |  0.23
Output  | 0.027454   | 0.027454   | 0.027454   |   0.0 |  0.22
Modify  | 0.072081   | 0.072081   | 0.072081   |   0.0 |  0.58
Other   |            | 0.01341    |            |       |  0.11

Nlocal:            102 ave         102 max         102 min
Histogram: 1 0 0 0 0 0 0 0 0 0
Nghost:           1050 ave        1050 max        1050 min
Histogram: 1 0 0 0 0 0 0 0 0 0
Neighs:           4727 ave        4727 max        4727 min
Histogram: 1 0 0 0 0 0 0 0 0 0
FullNghs:         9454 ave        9454 max        9454 min
Histogram: 1 0 0 0 0 0 0 0 0 0

Total # of neighbors = 9454
Ave neighs/atom = 92.686275
Neighbor list builds = 3
Dangerous builds = 0

unfix           npt_all
undump          d1

write_data      data.al13fe4_npt_relaxed
System init for write_data ...
Total wall time: 0:00:15
