ITEM: TIMESTEP
0
ITEM: NUMBER OF ATOMS
102
ITEM: BOX BOUNDS xy xz yz pp pp pp
-4.5631645421096945e+00 1.6134727747926796e+01 5.8671463040724105e-02
1.0155225523931097e-01 8.0353986749083077e+00 -3.9851082572236773e+00
-1.7964667272235374e-01 1.2070504631635528e+01 5.5550930147612809e-02
ITEM: ATOMS id type x y z
24 1 -0.992957 3.89537 1.88041
1 1 -0.116334 0.23251 1.93924
35 1 2.07511 1.68899 1.16556
95 2 3.64401 2.64282 2.99927
20 1 3.5984 4.03554 0.637709
30 1 1.55538 4.05749 2.77517
94 2 0.972258 4.0332 0.278707
43 1 5.13809 1.64131 1.06599
59 1 5.90439 1.57746 3.77447
78 1 7.75898 2.07151 -0.0789227
34 1 5.71069 4.03644 2.53819
90 2 6.24016 4.05306 0.140415
28 1 9.8531 0.11834 2.77517
42 1 10.3406 2.46115 1.20873
102 2 11.8896 1.48353 3.0213
7 1 11.8443 4.0384 3.0012
50 1 13.4182 2.48558 1.0291
66 1 14.0229 2.51449 3.80595
88 2 14.5379 0.113917 0.140415
77 1 -0.538744 6.01066 -0.0789227
5 1 3.54661 7.97754 3.0012
40 1 2.04284 6.4003 1.20873
100 2 3.59185 5.42268 3.0213
22 1 7.36344 7.83452 1.88041
48 1 5.12047 6.42472 1.0291
64 1 5.72521 6.45364 3.80595
18 1 11.9548 7.97469 0.637709
92 2 9.32865 7.97235 0.278707
3 1 8.24006 4.17166 1.93924
37 1 10.4315 5.62814 1.16556
32 1 14.0671 7.97558 2.53819
45 1 13.4945 5.58046 1.06599
61 1 14.2608 5.51661 3.77447
97 2 12.0004 6.58196 2.99927
13 1 -1.55907 0.184815 6.89054
79 2 -0.978049 0.26598 4.4532
9 1 1.21921 0.163236 6.28356
51 1 1.29794 1.64289 3.9507
57 1 1.91723 2.55492 7.94016
67 1 3.51174 1.60521 5.47817
73 1 -0.29657 2.59259 6.41269
83 2 3.60128 0.387828 7.67784
12 1 1.99596 4.03457 5.60729
86 2 -0.386106 3.80998 4.21302
82 2 4.19322 3.93182 7.43766
16 1 4.77424 4.01299 5.00032
52 1 10.3239 1.60406 7.89907
58 1 9.54535 2.59374 3.99179
68 1 8.03531 1.65902 6.28472
74 1 11.834 2.53879 5.60614
26 1 14.1128 4.06848 5.94543
54 1 2.02621 5.54321 7.89907
56 1 1.24763 6.53289 3.99179
70 1 -0.262409 5.59816 6.28472
72 1 3.53625 6.47793 5.60614
15 1 6.79732 4.12396 6.89054
25 1 5.81512 8.00762 5.94543
81 2 7.37834 4.20513 4.4532
10 1 10.3524 7.97371 5.60729
11 1 9.5756 4.10238 6.28356
84 2 7.97029 7.74912 4.21302
85 2 11.9577 4.32698 7.67784
53 1 9.65433 5.58203 3.9507
55 1 10.2736 6.49406 7.94016
69 1 11.8681 5.54436 5.47817
71 1 8.05982 6.53174 6.41269
14 1 13.1306 7.95214 5.00032
80 2 12.5496 7.87097 7.43766
31 1 -2.49552 0.161366 9.35267
49 1 -1.92292 2.55649 10.8249
65 1 -2.68921 2.62035 8.11638
101 2 -0.428837 1.55499 8.89159
4 1 3.33151 3.96529 9.95162
17 1 -0.383227 0.162262 11.2531
41 1 1.14006 2.50881 10.7253
91 2 2.24291 0.164605 11.6122
21 1 4.20813 0.30243 10.0104
44 1 6.45109 1.71223 10.8618
60 1 5.84635 1.68332 8.0849
6 1 8.02496 0.159406 8.88966
36 1 9.52872 1.73665 10.6821
96 2 7.97972 2.71427 8.86955
75 1 12.1103 2.12629 11.9698
87 2 -2.96632 8.02303 11.7504
46 1 -1.84663 5.65137 10.8618
62 1 -2.45137 5.62246 8.0849
8 1 -0.272763 4.09855 8.88966
27 1 1.71846 8.01861 9.11569
98 2 -0.318004 6.65342 8.86955
38 1 1.231 5.6758 10.6821
76 1 3.81259 6.06544 11.9698
33 1 5.86087 4.10051 9.35267
47 1 6.43347 6.49564 10.8249
63 1 5.66718 6.55949 8.11638
89 2 5.3314 4.08389 11.7504
2 1 11.6879 7.90444 9.95162
29 1 10.0162 4.07946 9.11569
19 1 7.97317 4.10141 11.2531
39 1 9.49645 6.44796 10.7253
93 2 10.5993 4.10375 11.6122
99 2 7.92756 5.49414 8.89159
23 1 12.5645 4.24158 10.0104
ITEM: TIMESTEP
100
ITEM: NUMBER OF ATOMS
102
ITEM: BOX BOUNDS xy xz yz pp pp pp
-4.6199110570612625e+00 1.6164903574110092e+01 7.1229865378058310e-02
8.2475382707155820e-02 8.0781373743530018e+00 -4.0242373483292688e+00
-2.0954187454614193e-01 1.2100399833459310e+01 7.9212757060155958e-02
ITEM: ATOMS id type x y z
24 1 -1.13807 3.91645 1.82336
1 1 -0.175697 0.227959 2.00103
35 1 2.07251 1.66495 1.26615
95 2 3.58199 2.67643 2.98423
20 1 3.5378 4.11024 0.659782
30 1 1.41284 4.04434 2.81077
94 2 0.932004 4.02696 0.287017
43 1 5.21237 1.62383 0.936823
59 1 6.06196 1.59752 3.76442
78 1 7.79515 2.06481 -0.19096
34 1 5.65407 4.07192 2.5047
90 2 6.2242 4.04855 0.066273
28 1 9.82141 0.0710295 2.7427
42 1 10.3611 2.43903 1.1196
102 2 11.8345 1.47169 3.07982
7 1 11.7008 4.02773 3.06754
50 1 13.3425 2.50246 1.03418
66 1 13.9499 2.49755 3.79674
88 2 14.5348 0.0438965 0.140619
77 1 -0.562966 6.05557 -0.0975257
5 1 3.479 8.07358 2.99056
40 1 1.97139 6.32149 1.17878
100 2 3.49601 5.44263 3.04392
22 1 7.38914 7.84487 1.8535
48 1 5.19771 6.43167 0.92974
64 1 5.73762 6.52663 3.74157
18 1 11.9916 7.94027 0.614765
92 2 9.35769 7.94546 0.238298
3 1 8.21528 4.13689 1.87581
37 1 10.4448 5.54834 1.10614
32 1 14.0444 7.95284 2.53533
45 1 13.4942 5.64476 1.12813
61 1 14.2001 5.4569 3.74196
97 2 11.9231 6.50602 2.97048
13 1 -1.63953 0.175767 6.90502
79 2 -1.02018 0.299078 4.54519
9 1 1.13109 0.143106 6.30786
51 1 1.20391 1.60899 4.02684
57 1 1.93784 2.50409 7.96884
67 1 3.50416 1.62418 5.43478
73 1 -0.327031 2.65077 6.54314
83 2 3.66513 0.378058 7.57682
12 1 1.98905 4.05112 5.53213
86 2 -0.471188 3.79529 4.31037
82 2 4.19821 3.98695 7.35421
16 1 4.77939 4.09902 4.93817
52 1 10.3279 1.67712 7.84261
58 1 9.37325 2.60591 3.91906
68 1 8.04592 1.62835 6.23119
74 1 11.8624 2.60964 5.53232
26 1 14.0883 4.08003 5.96371
54 1 2.07405 5.54265 7.88091
56 1 1.20386 6.59019 4.01625
70 1 -0.27836 5.6078 6.28862
72 1 3.48553 6.53059 5.65695
15 1 6.69575 4.12694 6.91191
25 1 5.81903 8.00852 5.8929
81 2 7.38026 4.31052 4.43716
10 1 10.4245 7.99582 5.5954
11 1 9.61207 4.03822 6.33741
84 2 7.99201 7.6805 4.19237
85 2 11.9403 4.40043 7.65263
53 1 9.66739 5.62179 3.91512
55 1 10.2507 6.54026 7.94515
69 1 11.845 5.62153 5.44484
71 1 8.10032 6.50042 6.31876
14 1 13.1116 7.96973 5.0041
80 2 12.4619 7.89811 7.4534
31 1 -2.50192 0.233621 9.41231
49 1 -1.98139 2.50884 10.9055
65 1 -2.70193 2.71889 8.18669
101 2 -0.378004 1.4826 8.9442
4 1 3.31597 4.03287 9.97927
17 1 -0.358163 0.142219 11.2574
41 1 1.20315 2.54063 10.7388
91 2 2.26234 0.125336 11.6099
21 1 4.26872 0.275908 10.036
44 1 6.44936 1.77059 10.8572
60 1 5.85681 1.73083 8.03348
6 1 8.07333 0.227039 8.89423
36 1 9.52483 1.72941 10.6985
96 2 8.02937 2.77362 8.83821
75 1 12.0329 2.13776 12.0734
87 2 -3.00385 8.0348 11.821
46 1 -1.8513 5.68012 10.9088
62 1 -2.51513 5.61431 8.21687
8 1 -0.308984 4.1062 8.97529
27 1 1.80002 8.00206 9.1132
98 2 -0.30418 6.67271 8.87649
38 1 1.28043 5.74061 10.7227
76 1 3.87299 6.03222 11.9405
33 1 5.88468 4.14282 9.322
47 1 6.43199 6.47204 10.8864
63 1 5.60956 6.72659 8.13934
89 2 5.32858 4.09409 11.7665
2 1 11.7427 7.9843 9.91947
29 1 10.0427 4.09711 9.15435
19 1 8.01715 4.12887 11.3427
39 1 9.54323 6.54021 10.6753
93 2 10.5329 4.1155 11.6579
99 2 7.97149 5.55101 8.83003
23 1 12.5504 4.30577 10.0916
ITEM: TIMESTEP
200
ITEM: NUMBER OF ATOMS
102
ITEM: BOX BOUNDS xy xz yz pp pp pp
-4.5832788898136281e+00 1.6159672965613964e+01 9.4442947623614076e-02
1.0009037605214699e-01 8.0483223510233906e+00 -4.0160488718233216e+00
-2.1000159052948497e-01 1.2100859549442649e+01 6.7012727075540124e-02
ITEM: ATOMS id type x y z
24 1 -0.865813 3.84556 1.8862
1 1 -0.105446 0.324766 1.94526
35 1 2.07547 1.75169 1.22829
95 2 3.71116 2.62046 2.96721
20 1 3.62697 4.06744 0.592354
30 1 1.69293 4.11938 2.77484
94 2 1.06638 4.10956 0.284272
43 1 5.15083 1.63827 0.948707
59 1 5.8684 1.55258 3.79114
78 1 7.74333 2.08491 -0.0446921
34 1 5.75261 4.08695 2.48435
90 2 6.29819 4.02903 0.136991
28 1 9.79102 0.170268 2.718
42 1 10.2752 2.50019 1.16653
102 2 11.9038 1.44389 3.00579
7 1 11.8605 4.09047 2.85639
50 1 13.5251 2.53942 1.03754
66 1 13.9604 2.43471 3.86904
88 2 14.5007 0.0818698 0.127113
77 1 -0.56383 6.05671 -0.0305656
5 1 3.59363 7.95409 2.90503
40 1 2.00086 6.41072 1.14545
100 2 3.70994 5.48325 2.99797
22 1 7.27059 7.81236 1.80422
48 1 5.07836 6.33631 0.953428
64 1 5.76942 6.42159 3.77517
18 1 12.0637 8.04271 0.633223
92 2 9.35746 8.03774 0.175468
3 1 8.27362 4.2582 1.91662
37 1 10.4677 5.69752 1.07723
32 1 14.1236 7.9426 2.48205
45 1 13.5017 5.59236 1.0867
61 1 14.3359 5.49287 3.77816
97 2 12.0207 6.61147 3.05308
13 1 -1.41774 0.209797 6.85649
79 2 -0.929574 0.262285 4.41567
9 1 1.25835 0.200837 6.17891
51 1 1.32361 1.6277 3.88372
57 1 1.76761 2.5522 7.97237
67 1 3.51558 1.66904 5.54085
73 1 -0.258889 2.5583 6.30954
83 2 3.55222 0.377289 7.65597
12 1 1.99373 4.10163 5.60506
86 2 -0.311607 3.88251 4.19116
82 2 4.1562 3.92181 7.47633
16 1 4.78826 4.01033 5.02284
52 1 10.2787 1.56655 8.05813
58 1 9.5561 2.56239 4.03343
68 1 8.01099 1.72218 6.31358
74 1 11.7851 2.44028 5.65071
26 1 14.0365 3.99434 5.90335
54 1 2.03787 5.69642 7.98393
56 1 1.39225 6.49025 3.95771
70 1 -0.229126 5.56979 6.22285
72 1 3.53201 6.50157 5.66668
15 1 6.78727 4.10659 6.90523
25 1 5.83269 7.99456 5.87935
81 2 7.35985 4.25647 4.43352
10 1 10.3841 7.87883 5.63027
11 1 9.61121 4.09945 6.28956
84 2 7.98902 7.82738 4.2403
85 2 11.8879 4.14905 7.72619
53 1 9.72814 5.55954 3.97966
55 1 10.3732 6.44523 7.9823
69 1 11.9165 5.51373 5.46918
71 1 8.10004 6.66618 6.47155
14 1 13.1404 7.90375 5.02719
80 2 12.5617 7.90513 7.45228
31 1 -2.53181 0.206734 9.43759
49 1 -1.83564 2.59859 10.8808
65 1 -2.63068 2.56965 8.07566
101 2 -0.49369 1.61505 8.94734
4 1 3.27833 3.84294 10.0048
17 1 -0.484914 0.166539 11.284
41 1 1.14925 2.53141 10.7071
91 2 2.10441 0.171864 11.6037
21 1 4.13759 0.321481 9.98177
44 1 6.44778 1.71666 10.8922
60 1 5.75965 1.63454 8.08553
6 1 7.99543 0.17995 8.91291
36 1 9.45992 1.77483 10.7102
96 2 7.92277 2.65693 8.85454
75 1 12.1459 2.12275 11.9092
87 2 -2.95859 8.09841 11.847
46 1 -1.87293 5.6819 10.9343
62 1 -2.4599 5.60361 7.99905
8 1 -0.388129 4.18503 8.95828
27 1 1.6181 8.11412 9.17987
98 2 -0.359147 6.60704 8.96538
38 1 1.17825 5.66468 10.722
76 1 3.80873 6.0956 11.8612
33 1 5.77816 4.08054 9.36106
47 1 6.32726 6.43785 10.7736
63 1 5.62293 6.57838 8.04018
89 2 5.29109 4.15426 11.7452
2 1 11.6389 7.7844 10.0293
29 1 10.014 4.01104 9.09023
19 1 7.98394 4.07899 11.2116
39 1 9.49653 6.45247 10.6716
93 2 10.6365 4.07906 11.6371
99 2 7.99054 5.4726 8.94787
23 1 12.5889 4.27587 10.0462
ITEM: TIMESTEP
300
ITEM: NUMBER OF ATOMS
102
ITEM: BOX BOUNDS xy xz yz pp pp pp
-4.5807708870741912e+00 1.6255693204732509e+01 1.4077526008785793e-01
1.0116125845886018e-01 7.9681805098984224e+00 -3.9638529424295910e+00
-2.1645328974970557e-01 1.2107311248662871e+01 -1.2058231642721321e-02
ITEM: ATOMS id type x y z
24 1 -1.01845 3.85172 1.7751
1 1 -0.0496624 0.351621 1.92318
35 1 2.12189 1.69714 1.02468
95 2 3.61169 2.70581 3.00308
20 1 3.59736 4.12336 0.64904
30 1 1.45864 4.14291 2.66485
94 2 0.965195 3.95841 0.211224
43 1 5.22212 1.69003 1.16636
59 1 5.98473 1.52642 3.78815
78 1 7.71881 2.1402 0.216369
34 1 5.75427 4.00612 2.53716
90 2 6.2298 4.14807 0.139466
28 1 10.0236 0.241875 2.82719
42 1 10.3841 2.53467 1.27061
102 2 12.0345 1.5451 3.01321
7 1 12.0265 4.11796 2.96076
50 1 13.3839 2.45922 0.928543
66 1 14.1526 2.50584 3.67761
88 2 14.5989 0.105838 0.0677113
77 1 -0.409897 6.05821 -0.164807
5 1 3.66153 7.86399 3.02128
40 1 2.08641 6.45142 1.16567
100 2 3.64256 5.35666 3.11093
22 1 7.68986 7.72686 1.94838
48 1 5.27135 6.55001 1.10364
64 1 5.90167 6.28673 3.88584
18 1 12.1202 7.89708 0.559297
92 2 9.38207 8.00162 0.367875
3 1 8.30566 4.28684 1.92733
37 1 10.5754 5.48544 1.27921
32 1 14.252 7.9279 2.51268
45 1 13.6467 5.64795 0.967383
61 1 14.3744 5.45309 3.77066
97 2 12.1268 6.64547 2.87376
13 1 -1.72017 0.214977 6.80669
79 2 -1.06802 0.273028 4.49656
9 1 1.13308 0.174564 6.33421
51 1 1.28158 1.62454 4.0135
57 1 1.88604 2.42459 8.02756
67 1 3.56686 1.56115 5.55095
73 1 -0.283977 2.44596 6.35014
83 2 3.68849 0.335983 7.65794
12 1 2.04596 3.89397 5.56067
86 2 -0.339723 3.74672 4.22842
82 2 4.25014 3.75181 7.40278
16 1 4.92478 3.8932 4.95577
52 1 10.247 1.51217 7.93397
58 1 9.66463 2.70682 3.88962
68 1 8.05628 1.53976 6.3042
74 1 11.9491 2.58464 5.52981
26 1 14.2127 4.07799 5.9008
54 1 2.14246 5.38855 7.92545
56 1 1.24507 6.51755 3.98735
70 1 -0.215453 5.53686 6.2399
72 1 3.6004 6.50802 5.61421
15 1 6.91011 3.95002 6.91621
25 1 5.9127 7.92008 6.009
81 2 7.51141 4.03633 4.55333
10 1 10.3872 7.89862 5.60755
11 1 9.68222 3.9633 6.24255
84 2 8.05955 7.75156 4.31835
85 2 11.9928 4.34235 7.59852
53 1 9.80011 5.66657 3.95305
55 1 10.3286 6.3821 7.85925
69 1 11.9347 5.58338 5.4508
71 1 8.0736 6.40789 6.44078
14 1 13.2119 7.97531 4.874
80 2 12.6132 7.77062 7.34444
31 1 -2.49624 0.0879046 9.28376
49 1 -2.07963 2.41864 10.7466
65 1 -2.66421 2.71487 8.01229
101 2 -0.333188 1.47333 8.77913
4 1 3.35563 3.89206 10.0159
17 1 -0.37648 0.126147 11.2034
41 1 1.1351 2.54095 10.8065
91 2 2.3501 0.202722 11.6847
21 1 4.19031 0.399953 10.1079
44 1 6.44111 1.6545 10.9899
60 1 5.89563 1.70709 8.20042
6 1 7.88973 0.0422187 8.89393
36 1 9.48109 1.66307 10.7076
96 2 8.01632 2.59961 8.96245
75 1 12.1048 1.98695 11.8901
87 2 -2.8422 7.93729 11.6568
46 1 -1.71162 5.40383 10.905
62 1 -2.38719 5.53025 8.10365
8 1 -0.266822 4.08205 8.97399
27 1 1.83088 7.83328 9.21288
98 2 -0.211285 6.63692 8.70572
38 1 1.20694 5.68479 10.7293
76 1 3.91058 6.03363 11.8826
33 1 5.8839 4.13985 9.47981
47 1 6.54124 6.48475 10.9346
63 1 5.6782 6.5794 8.20266
89 2 5.38181 4.00532 11.8529
2 1 11.6587 7.75916 9.92237
29 1 10.0382 3.91737 9.0749
19 1 8.03317 4.03846 11.3564
39 1 9.6347 6.28485 10.6536
93 2 10.6045 4.07399 11.6732
99 2 7.88143 5.41734 8.89954
23 1 12.5185 4.26966 9.972
ITEM: TIMESTEP
400
ITEM: NUMBER OF ATOMS
102
ITEM: BOX BOUNDS xy xz yz pp pp pp
-4.5088658718517376e+00 1.6315295121048322e+01 2.2120834190564512e-01
4.9974827216388205e-02 7.9939011711125492e+00 -3.9127790927091168e+00
-2.3702243280172741e-01 1.2127880391714886e+01 -3.7524001671064768e-02
ITEM: ATOMS id type x y z
24 1 -0.808368 3.65833 1.83715
1 1 -0.254209 0.301715 1.76121
35 1 2.00214 1.63507 1.19895
95 2 3.62652 2.47783 2.98539
20 1 3.61291 3.97253 0.470975
30 1 1.63082 3.98074 2.82204
94 2 1.04753 4.05162 0.179618
43 1 5.07805 1.63757 0.981989
59 1 5.73557 1.4029 3.62965
78 1 7.79414 2.01976 0.120037
34 1 5.86146 3.92552 2.41195
90 2 6.37066 3.95439 0.106935
28 1 9.7427 0.17241 2.71
42 1 10.3435 2.63567 1.23343
102 2 11.8028 1.39056 3.09272
7 1 11.9857 3.93035 3.00459
50 1 13.5341 2.47932 0.844585
66 1 14.0975 2.54175 3.77757
88 2 14.5322 0.103827 0.0570141
77 1 -0.585085 5.88085 0.00793005
5 1 3.48435 7.82487 2.78538
40 1 1.91921 6.26676 1.19861
100 2 3.62274 5.33455 3.06237
22 1 7.43558 7.69084 1.73756
48 1 5.13068 6.21668 0.962439
64 1 5.80464 6.42807 3.82096
18 1 12.0981 8.08512 0.691784
92 2 9.53266 8.00221 0.195205
3 1 8.35196 4.36026 1.87096
37 1 10.5348 5.75904 1.1368
32 1 14.2155 8.04339 2.46255
45 1 13.5195 5.59438 1.04026
61 1 14.5683 5.49334 3.76325
97 2 12.1183 6.54429 3.05287
13 1 -1.44943 0.256114 6.9234
79 2 -0.812424 0.294831 4.38376
9 1 1.22876 0.0387977 6.27265
51 1 1.41198 1.595 3.86564
57 1 1.89697 2.51709 7.93001
67 1 3.48522 1.5227 5.4538
73 1 -0.197887 2.49673 6.39442
83 2 3.61017 0.315653 7.65954
12 1 2.06552 4.00945 5.59389
86 2 -0.286142 3.7252 4.24654
82 2 4.21192 3.71796 7.45056
16 1 4.82146 3.85845 4.87449
52 1 10.4226 1.65675 7.88077
58 1 9.53188 2.54388 4.00889
68 1 8.18891 1.5998 6.41668
74 1 11.9751 2.52921 5.70669
26 1 14.3543 4.0796 5.99539
54 1 2.2093 5.44138 7.94746
56 1 1.3256 6.52291 3.94212
70 1 -0.0875674 5.56407 6.25535
72 1 3.80101 6.41616 5.69112
15 1 6.81837 4.13946 6.86814
25 1 5.94025 8.0524 5.91424
81 2 7.44986 4.26759 4.48789
10 1 10.5376 7.95662 5.56303
11 1 9.72649 4.13277 6.32322
84 2 7.97597 7.79012 4.22669
85 2 12.1544 4.35825 7.60531
53 1 9.71727 5.5699 3.98649
55 1 10.5263 6.47386 8.02624
69 1 12.0726 5.54884 5.48504
71 1 8.27056 6.58371 6.4671
14 1 13.4584 7.85587 5.00154
80 2 12.8616 7.7657 7.43585
31 1 -2.32444 0.0716416 9.39499
49 1 -1.62767 2.43678 10.9326
65 1 -2.64553 2.62168 8.13337
101 2 -0.32864 1.54482 8.99547
4 1 3.48462 3.55265 9.99365
17 1 -0.268819 -0.0836653 11.2337
41 1 1.22679 2.3978 10.7918
91 2 2.25105 -0.0602997 11.6773
21 1 4.21795 0.387585 10.0791
44 1 6.64307 1.6648 10.9646
60 1 5.98254 1.63236 8.13349
6 1 8.16741 0.0648916 9.03941
36 1 9.84369 1.63344 10.6989
96 2 8.1357 2.76791 8.83362
75 1 12.4162 1.98551 11.8088
87 2 -2.74246 7.91552 11.8108
46 1 -1.72967 5.72068 11.0015
62 1 -2.09294 5.67389 8.15394
8 1 -0.202182 4.05354 8.96309
27 1 1.94649 7.93131 9.17223
98 2 -0.00230654 6.63289 8.8151
38 1 1.55723 5.58161 10.5872
76 1 3.92966 5.95134 11.9197
33 1 6.06245 4.01646 9.40936
47 1 6.57908 6.51397 10.7458
63 1 5.90024 6.66715 8.12203
89 2 5.52058 4.09662 11.8634
2 1 12.0288 7.59794 10.0088
29 1 10.302 4.02671 9.16718
19 1 8.23276 4.07785 11.3544
39 1 9.74507 6.43709 10.7683
93 2 10.7911 4.03127 11.5765
99 2 8.13741 5.46201 8.92544
23 1 12.8455 4.23587 10.0213
ITEM: TIMESTEP
500
ITEM: NUMBER OF ATOMS
102
ITEM: BOX BOUNDS xy xz yz pp pp pp
-4.5857958510709897e+00 1.6400481772519729e+01 3.1866266094236301e-01
1.0653876545566154e-01 8.0009978937737642e+00 -4.0019767394937000e+00
-2.1956243223351102e-01 1.2110420391146679e+01 2.6136659229421731e-02
ITEM: ATOMS id type x y z
24 1 -0.915227 3.72309 1.95008
1 1 -0.247169 0.440527 1.99235
35 1 2.12863 1.66008 1.11187
95 2 3.64106 2.63883 2.9295
20 1 3.70633 4.05167 0.640843
30 1 1.63863 4.06165 2.74288
94 2 1.07887 4.06285 0.257877
43 1 5.21037 1.55408 0.851848
59 1 5.86475 1.43912 3.7372
78 1 7.8461 2.05913 0.119497
34 1 5.90903 3.71243 2.50445
90 2 6.3665 4.02463 0.0670545
28 1 9.87784 0.322667 2.7193
42 1 10.3529 2.4478 1.11938
102 2 11.9328 1.54611 3.02085
7 1 11.9673 3.98103 2.82397
50 1 13.3714 2.46503 1.03304
66 1 13.9471 2.42391 3.83684
88 2 14.5522 0.199518 0.117715
77 1 -0.199959 5.98741 0.166289
5 1 3.84199 7.93109 3.00447
40 1 2.38578 6.49207 1.23021
100 2 3.76971 5.37615 2.87188
22 1 7.63567 7.53161 1.88546
48 1 5.47812 6.3034 0.939337
64 1 5.95697 6.21813 3.76158
18 1 12.1519 7.83684 0.618638
92 2 9.58348 7.87799 0.270484
3 1 8.28434 4.40431 1.84835
37 1 10.4707 5.63966 1.16619
32 1 14.3301 7.84485 2.59942
45 1 13.7498 5.65862 0.989803
61 1 14.2077 5.38789 3.74139
97 2 12.1322 6.58667 2.93801
13 1 -1.63067 0.102024 6.91369
79 2 -1.04924 0.213257 4.64649
9 1 1.19685 0.15623 6.26946
51 1 1.3762 1.73408 3.91432
57 1 2.05436 2.43615 7.8555
67 1 3.57596 1.61147 5.32773
73 1 -0.341571 2.69057 6.44444
83 2 3.69554 0.363913 7.59592
12 1 2.11562 4.04315 5.63418
86 2 -0.412973 3.82616 4.23715
82 2 4.39356 3.98027 7.39757
16 1 4.90953 3.99233 4.98609
52 1 10.4377 1.63265 8.10145
58 1 9.66796 2.68521 3.86632
68 1 8.21179 1.7839 6.36664
74 1 11.86 2.52318 5.85537
26 1 14.1745 4.00856 5.93484
54 1 2.21292 5.42024 7.94982
56 1 1.32013 6.53376 3.98623
70 1 -0.116876 5.41981 6.34044
72 1 3.75515 6.4146 5.50473
15 1 6.98162 4.26604 6.92709
25 1 6.12913 7.87948 5.87905
81 2 7.53747 4.25692 4.48575
10 1 10.536 8.08325 5.61566
11 1 9.75884 4.16177 6.31421
84 2 8.28256 7.9261 4.2352
85 2 12.0451 4.35031 7.66582
53 1 9.85444 5.58021 3.90657
55 1 10.482 6.43439 7.89589
69 1 12.0835 5.48422 5.47656
71 1 8.33068 6.56297 6.41366
14 1 13.2962 7.82512 4.93589
80 2 12.7299 7.80379 7.43913
31 1 -2.63785 0.0958733 9.40351
49 1 -2.04347 2.55879 10.7664
65 1 -2.71619 2.73455 8.1748
101 2 -0.335814 1.47825 8.82343
4 1 3.44109 3.69007 9.86567
17 1 -0.452407 0.176117 11.1852
41 1 1.18669 2.40235 10.7471
91 2 2.36214 0.145624 11.5301
21 1 4.27759 0.358823 10.0847
44 1 6.51742 1.6999 10.863
60 1 5.97837 1.79676 8.05002
6 1 8.09435 0.144006 8.88157
36 1 9.46717 1.68907 10.8147
96 2 8.08815 2.74747 8.87948
75 1 11.99 2.09205 11.969
87 2 -2.7722 7.99392 11.8543
46 1 -1.54611 5.52812 10.9487
62 1 -2.3891 5.62571 8.10773
8 1 -0.0379144 4.05436 8.92331
27 1 2.135 7.8015 9.05789
98 2 -0.228756 6.55068 8.9345
38 1 1.42454 5.60935 10.7093
76 1 3.97999 5.95743 11.6067
33 1 6.01921 4.27255 9.33666
47 1 6.77723 6.34702 10.9398
63 1 6.02468 6.78199 8.22374
89 2 5.46788 4.00463 11.7758
2 1 11.8862 7.6895 10.0996
29 1 10.1468 4.10342 9.15351
19 1 8.16795 4.0466 11.229
39 1 9.79319 6.47878 10.7221
93 2 10.7048 4.10363 11.7528
99 2 8.20554 5.6327 8.96769
23 1 12.6095 4.52222 10.1203
ITEM: TIMESTEP
600
ITEM: NUMBER OF ATOMS
102
ITEM: BOX BOUNDS xy xz yz pp pp pp
-4.7964251679205336e+00 1.6567810993819609e+01 3.0670394385329813e-01
1.4492327697074847e-01 8.0882614380084963e+00 -4.0333181179543143e+00
-2.4615387895780927e-01 1.2137011837870965e+01 1.5178471497924204e-01
ITEM: ATOMS id type x y z
24 1 -0.98103 3.81068 1.90698
1 1 -0.259117 0.428402 1.79415
35 1 1.91892 1.89872 1.15285
95 2 3.63297 2.72553 2.92597
20 1 3.68625 4.19064 0.652015
30 1 1.61141 4.08259 2.84263
94 2 0.933989 4.05699 0.250079
43 1 5.14966 1.70647 0.939048
59 1 5.82836 1.64667 3.62388
78 1 7.86055 2.27189 0.0359145
34 1 5.81101 4.13132 2.52612
90 2 6.32612 4.06239 -0.000906228
28 1 9.91034 0.279311 2.71542
42 1 10.4013 2.55972 1.24927
102 2 12.1375 1.42581 3.06789
7 1 12.0852 4.01276 3.14231
50 1 13.7894 2.46245 1.02352
66 1 14.2733 2.63479 3.74649
88 2 14.6463 0.167582 0.126729
77 1 -0.614634 5.91104 -0.0628814
5 1 3.69929 7.87378 2.66726
40 1 2.08058 6.25725 1.19025
100 2 3.77234 5.43591 3.08578
22 1 7.63495 7.67086 1.76904
48 1 5.34268 6.36337 0.940381
64 1 5.91917 6.46437 3.76662
18 1 12.261 8.07996 0.588479
92 2 9.53695 8.05738 0.135355
3 1 8.45303 4.45705 1.77015
37 1 10.7498 5.71043 1.0683
32 1 14.5308 7.88785 2.48617
45 1 13.6645 5.44755 1.05252
61 1 14.5701 5.55104 3.74422
97 2 12.2571 6.63939 3.00919
13 1 -1.73542 0.162925 6.9226
79 2 -1.08756 0.31369 4.30579
9 1 1.14878 0.117358 6.29355
51 1 1.30946 1.68989 3.9841
57 1 1.86682 2.66467 8.04429
67 1 3.54548 1.61685 5.37687
73 1 -0.435492 2.60975 6.48387
83 2 3.53953 0.42678 7.69828
12 1 1.895 4.07015 5.56319
86 2 -0.424295 3.84833 4.1951
82 2 4.15261 4.10621 7.32629
16 1 4.92275 3.96907 4.94374
52 1 10.288 1.72693 7.86187
58 1 9.76409 2.68338 3.97718
68 1 8.00551 1.76735 6.33924
74 1 12.0449 2.70414 5.64722
26 1 14.4247 4.11698 5.99069
54 1 1.94884 5.42696 7.91701
56 1 1.49228 6.51125 3.93152
70 1 -0.304718 5.56257 6.18952
72 1 3.90951 6.3459 5.6813
15 1 6.85513 4.21392 6.97326
25 1 6.04296 8.07112 5.90316
81 2 7.5844 4.23058 4.39783
10 1 10.7241 7.9854 5.6207
11 1 9.68859 4.15452 6.37001
84 2 8.25387 7.79301 4.20295
85 2 12.2997 4.40516 7.699
53 1 9.88566 5.59911 3.91392
55 1 10.5007 6.55869 8.0259
69 1 12.136 5.50054 5.55713
71 1 8.31707 6.54234 6.4737
14 1 13.5967 7.74446 4.94495
80 2 12.9393 7.8279 7.42921
31 1 -2.80112 0.366961 9.4426
49 1 -1.9208 2.71796 10.9859
65 1 -2.7974 2.78121 8.16935
101 2 -0.526669 1.52254 8.90955
4 1 3.35649 3.86282 9.91921
17 1 -0.608735 0.199692 11.3625
41 1 1.15436 2.41595 10.6794
91 2 2.12476 0.296463 11.658
21 1 4.06631 0.685592 10.0887
44 1 6.46135 2.02028 10.907
60 1 5.78866 1.92192 8.11195
6 1 8.00853 0.270647 9.15777
36 1 9.7291 1.98744 10.6442
96 2 8.07566 2.72456 8.94477
75 1 12.4841 2.29694 11.8502
87 2 -2.89952 8.08831 11.8659
46 1 -1.9247 5.78043 10.944
62 1 -2.49419 5.67281 8.17375
8 1 -0.504787 4.07746 8.93114
27 1 1.93888 7.81297 9.15055
98 2 -0.204491 6.70436 8.9016
38 1 1.23461 5.49181 10.6414
76 1 3.88751 6.17207 11.8229
33 1 5.90763 4.46088 9.40017
47 1 6.56504 6.65216 10.8501
63 1 5.90764 6.66413 8.09971
89 2 5.40278 4.22927 11.7209
2 1 11.9854 7.87826 10.0632
29 1 10.2242 4.08801 9.17576
19 1 8.08787 4.16665 11.3375
39 1 9.76361 6.49243 10.8476
93 2 10.7904 4.15329 11.6848
99 2 8.11149 5.46226 8.99128
23 1 12.7902 4.34094 10.0544
ITEM: TIMESTEP
700
ITEM: NUMBER OF ATOMS
102
ITEM: BOX BOUNDS xy xz yz pp pp pp
-4.3682421396703859e+00 1.6161215910380729e+01 1.2933631936385628e-01
9.1446827276512987e-02 8.1196003522602247e+00 -3.8343625486536101e+00
-2.1462114165359392e-01 1.2105479100566754e+01 1.2964717953672764e-01
ITEM: ATOMS id type x y z
24 1 -0.913487 3.62205 1.82831
1 1 -0.133218 0.196552 1.91124
35 1 2.06501 1.63641 1.06702
95 2 3.67563 2.6213 2.90509
20 1 3.6844 3.98861 0.553279
30 1 1.57794 4.12701 2.71452
94 2 1.05404 3.9982 0.184206
43 1 5.10028 1.5936 1.0729
59 1 5.77287 1.38828 3.66128
78 1 7.86189 2.03331 0.0410976
34 1 5.72159 4.04264 2.4275
90 2 6.30738 4.05789 0.226116
28 1 9.77545 0.280157 2.86446
42 1 10.2829 2.42745 1.18173
102 2 11.8682 1.58929 3.07914
7 1 11.8927 4.19099 2.86117
50 1 13.4346 2.44457 0.938139
66 1 14.09 2.52762 3.78816
88 2 14.517 0.0251267 0.0957113
77 1 -0.278586 6.00859 -0.0740061
5 1 3.5722 7.88055 3.01415
40 1 2.13282 6.36201 1.23616
100 2 3.58583 5.41318 3.00911
22 1 7.43252 7.77409 1.93748
48 1 5.08713 6.37831 1.1398
64 1 5.70817 6.30283 3.94436
18 1 12.023 7.94848 0.702049
92 2 9.41457 7.91771 0.403367
3 1 8.17582 4.29516 1.96867
37 1 10.3913 5.82039 1.22095
32 1 14.1244 7.9816 2.53483
45 1 13.7566 5.59457 0.920911
61 1 14.3183 5.3678 3.65167
97 2 12.0603 6.63228 2.99009
13 1 -1.47585 0.202816 6.95256
79 2 -0.885443 0.271732 4.53975
9 1 1.34111 0.234801 6.36607
51 1 1.31677 1.67687 3.76693
57 1 2.14577 2.66756 7.89666
67 1 3.53663 1.54503 5.36794
73 1 -0.153943 2.64077 6.50557
83 2 3.78306 0.46009 7.66281
12 1 2.27166 4.1279 5.68028
86 2 -0.231824 3.89434 4.25411
82 2 4.35988 3.91406 7.52639
16 1 4.88043 3.89521 5.00406
52 1 10.3775 1.65372 8.00609
58 1 9.64532 2.83762 3.9405
68 1 8.22072 1.79712 6.32706
74 1 11.8995 2.66529 5.49102
26 1 14.1744 4.06838 5.90817
54 1 2.38723 5.57961 8.07551
56 1 1.19968 6.57984 3.88672
70 1 -0.0063697 5.7117 6.41379
72 1 3.51371 6.48912 5.53667
15 1 6.93108 4.20702 6.95732
25 1 5.85285 7.95574 5.97995
81 2 7.50421 4.35165 4.57643
10 1 10.4464 8.04389 5.61456
11 1 9.73952 4.07639 6.21326
84 2 7.93861 7.76674 4.24421
85 2 12.0965 4.27478 7.63106
53 1 9.78416 5.75383 3.89058
55 1 10.3391 6.39369 7.84167
69 1 12.0018 5.51294 5.39014
71 1 8.11747 6.54324 6.43491
14 1 13.1911 7.84516 5.02487
80 2 12.6925 7.99413 7.31373
31 1 -2.32853 0.21858 9.33965
49 1 -1.91392 2.58915 10.7849
65 1 -2.34903 2.7863 8.13684
101 2 -0.242054 1.70868 8.96206
4 1 3.58812 3.83857 10.1006
17 1 -0.178486 0.364054 11.157
41 1 1.3651 2.65956 10.7496
91 2 2.34629 0.31503 11.7022
21 1 4.24599 0.542178 10.0321
44 1 6.60832 1.74441 10.9235
60 1 6.03284 1.73533 7.95885
6 1 8.15524 0.335982 8.8145
36 1 9.52186 1.78558 10.6983
96 2 8.12022 2.88193 8.86993
75 1 12.2293 2.16497 11.8233
87 2 -2.61438 8.08623 11.7764
46 1 -1.49772 5.75178 10.8676
62 1 -2.25453 5.66743 7.96472
8 1 0.0224386 4.13697 8.97073
27 1 1.92001 8.17134 9.14328
98 2 -0.108098 6.64025 8.92857
38 1 1.52784 5.76021 10.7345
76 1 4.00934 6.19567 11.7917
33 1 5.98953 4.24006 9.48851
47 1 6.71453 6.69471 10.8633
63 1 5.74732 6.58152 8.19648
89 2 5.50184 4.13231 11.888
2 1 11.8516 7.81392 9.80355
29 1 10.2262 4.05344 9.11449
19 1 8.0951 4.2307 11.2826
39 1 9.74188 6.52511 10.6353
93 2 10.7733 4.13455 11.5305
99 2 8.07512 5.59374 8.81185
23 1 12.7096 4.37839 9.9162
ITEM: TIMESTEP
800
ITEM: NUMBER OF ATOMS
102
ITEM: BOX BOUNDS xy xz yz pp pp pp
-4.5142659043732802e+00 1.6073839690913953e+01 3.7572497695106080e-02
4.3115786286041076e-02 8.0368674340917110e+00 -3.9759987111545154e+00
-2.4110922663737000e-01 1.2131967185550533e+01 -1.4167796222545005e-03
ITEM: ATOMS id type x y z
24 1 -1.13279 3.94216 1.80936
1 1 -0.0114586 0.214128 1.84386
35 1 2.18455 1.66831 1.15828
95 2 3.63002 2.54265 3.17181
20 1 3.58865 4.0694 0.718974
30 1 1.50048 4.07263 2.72424
94 2 1.00988 4.03153 0.200929
43 1 5.10312 1.51625 1.03412
59 1 5.87218 1.47873 3.73925
78 1 7.81882 2.03561 -0.019797
34 1 5.59907 3.98928 2.54943
90 2 6.20012 3.9973 0.072956
28 1 9.86286 0.0128837 2.57346
42 1 10.2587 2.53611 1.13835
102 2 11.8142 1.39336 2.84403
7 1 11.824 4.02881 3.05549
50 1 13.3996 2.48223 0.898111
66 1 13.9619 2.53692 3.74174
88 2 14.4975 0.0953297 0.010583
77 1 -0.504721 6.0533 0.0250065
5 1 3.48789 7.97791 3.02508
40 1 1.98625 6.37745 1.21157
100 2 3.55143 5.37675 3.18509
22 1 7.36412 7.78033 1.86271
48 1 5.08934 6.39001 0.982041
64 1 5.71562 6.54596 3.76656
18 1 11.9114 7.95166 0.529361
92 2 9.34289 8.05302 0.201691
3 1 8.21526 4.19411 1.98813
37 1 10.4357 5.62106 1.1038
32 1 13.9297 8.1015 2.49578
45 1 13.4212 5.72137 0.992325
61 1 14.2404 5.57287 3.75164
97 2 11.9429 6.59068 2.92846
13 1 -1.69613 0.235052 6.85717
79 2 -0.950181 0.327552 4.35056
9 1 1.11633 -0.0283861 6.46423
51 1 1.33837 1.54666 3.9437
57 1 1.9195 2.41798 7.95261
67 1 3.52413 1.72021 5.48973
73 1 -0.436817 2.51023 6.42924
83 2 3.57872 0.424674 7.70386
12 1 1.95812 4.07237 5.65621
86 2 -0.494164 3.59955 4.16149
82 2 4.15304 3.75161 7.50071
16 1 4.80741 4.14736 4.90976
52 1 10.2466 1.55794 7.81756
58 1 9.46506 2.50846 3.9321
68 1 7.87755 1.58576 6.34407
74 1 11.6982 2.58406 5.54808
26 1 14.0457 4.0592 5.93844
54 1 2.10492 5.52912 7.82636
56 1 1.28297 6.57488 4.03806
70 1 -0.308337 5.68138 6.30191
72 1 3.62135 6.60922 5.67745
15 1 6.81763 4.08495 6.90716
25 1 5.72384 8.04889 6.08377
81 2 7.30906 4.17308 4.43504
10 1 10.3315 7.92673 5.57701
11 1 9.46346 4.12601 6.10172
84 2 7.92096 7.78482 4.28064
85 2 11.8857 4.44573 7.60609
53 1 9.72111 5.62698 3.84508
55 1 10.1464 6.46041 8.04991
69 1 11.9423 5.62948 5.35994
71 1 8.06397 6.67558 6.60676
14 1 13.0934 8.0998 4.84519
80 2 12.4756 7.75824 7.497
31 1 -2.36473 0.0487092 9.35246
49 1 -1.75151 2.45193 10.8883
65 1 -2.65448 2.68275 8.14589
101 2 -0.324089 1.49217 8.93261
4 1 3.33276 3.91822 10.0641
17 1 -0.277652 -0.0665661 11.4198
41 1 1.19685 2.36127 10.8645
91 2 2.32279 0.0156552 11.7362
21 1 4.31855 0.254293 10.195
44 1 6.46916 1.65499 10.9516
60 1 5.8297 1.60921 8.25278
6 1 7.97543 0.0585552 8.99935
36 1 9.67606 1.67901 10.7366
96 2 7.99027 2.50509 8.75621
75 1 12.1471 2.036 11.902
87 2 -2.96563 7.99659 11.7885
46 1 -1.74195 5.5624 10.8581
62 1 -2.37331 5.71858 8.03456
8 1 -0.152986 4.10252 8.8902
27 1 1.91743 8.13284 9.20681
98 2 -0.134506 6.82761 8.66267
38 1 1.27591 5.59237 10.6822
76 1 3.86398 5.9496 12.0146
33 1 5.86967 4.0833 9.3429
47 1 6.34904 6.32559 10.8507
63 1 5.55408 6.56599 8.21055
89 2 5.39509 3.97759 11.779
2 1 11.7536 7.8047 9.98362
29 1 10.0601 4.05548 9.04667
19 1 8.05841 3.92036 11.2482
39 1 9.45183 6.38654 10.8048
93 2 10.5831 4.01043 11.696
99 2 7.91381 5.37562 8.99055
23 1 12.4932 4.22079 10.0039
ITEM: TIMESTEP
900
ITEM: NUMBER OF ATOMS
102
ITEM: BOX BOUNDS xy xz yz pp pp pp
-4.7484266057432771e+00 1.6148277356327121e+01 4.5358292002362195e-02
6.6541334573102462e-02 7.9681970635480379e+00 -4.1435075414185834e+00
-1.6456804264503067e-01 1.2055426001558201e+01 -4.6661601878863090e-02
ITEM: ATOMS id type x y z
24 1 -0.969998 3.96375 1.95565
1 1 -0.150536 0.140198 2.05294
35 1 2.06443 1.83398 1.27846
95 2 3.72309 2.69827 2.944
20 1 3.59041 4.09913 0.531007
30 1 1.60064 4.14527 2.74995
94 2 1.04106 4.06019 0.409394
43 1 5.14302 1.66549 1.03182
59 1 6.26715 1.88636 3.80804
78 1 7.69869 1.99607 -0.233231
34 1 5.7881 4.09565 2.3934
90 2 6.24878 4.0613 0.135108
28 1 9.889 0.104948 2.77575
42 1 10.347 2.3007 1.25854
102 2 11.8566 1.50632 3.09478
7 1 11.8582 3.91887 3.04977
50 1 13.4469 2.50618 1.04627
66 1 14.0966 2.50783 3.67782
88 2 14.5632 0.0292078 0.181405
77 1 -0.589537 6.00042 0.0507246
5 1 3.67262 8.04762 3.03886
40 1 2.07707 6.44347 1.18762
100 2 3.5242 5.48054 3.09891
22 1 7.29727 7.96567 1.84784
48 1 5.0252 6.51623 1.08418
64 1 5.65531 6.43376 3.87758
18 1 12.0433 7.92667 0.722715
92 2 9.22849 7.92147 0.289881
3 1 8.33918 3.9331 1.85873
37 1 10.3887 5.70825 1.12572
32 1 14.1 7.87667 2.59115
45 1 13.4511 5.50241 1.15149
61 1 14.3407 5.47989 3.81607
97 2 11.9491 6.57061 3.05205
13 1 -1.56042 0.0840266 6.83208
79 2 -1.12671 0.227774 4.55624
9 1 1.10239 0.073965 6.14732
51 1 1.26559 1.66016 3.96174
57 1 1.84958 2.43141 8.09456
67 1 3.37806 1.55158 5.46948
73 1 -0.387594 2.53596 6.55022
83 2 3.43403 0.225606 7.59642
12 1 1.88834 3.96351 5.70845
86 2 -0.330247 3.88749 4.27364
82 2 4.08131 3.72977 7.39866
16 1 4.54721 3.97325 4.87974
52 1 10.259 1.53239 8.09239
58 1 9.46186 2.64845 3.9957
68 1 8.07293 1.54107 6.29786
74 1 11.765 2.50196 5.67895
26 1 14.1082 4.02319 5.95177
54 1 1.85374 5.42853 7.86364
56 1 1.14351 6.55564 3.84876
70 1 -0.352726 5.46707 6.40589
72 1 3.35657 6.3539 5.5326
15 1 6.62423 3.86452 6.89702
25 1 5.74602 8.01289 5.88215
81 2 7.40152 4.30353 4.48438
10 1 10.33 7.86612 5.58226
11 1 9.50198 3.91441 6.48141
84 2 7.86832 7.68928 4.17636
85 2 11.9098 4.25009 7.67914
53 1 9.62865 5.44555 3.92569
55 1 10.1349 6.45575 7.87595
69 1 11.7956 5.32988 5.43562
71 1 7.88684 6.22117 6.23127
14 1 13.1097 7.9068 5.06858
80 2 12.4657 7.76644 7.4079
31 1 -2.67624 0.151821 9.32932
49 1 -2.10632 2.54334 10.8572
65 1 -2.89886 2.47514 8.07535
101 2 -0.722054 1.50108 8.84491
4 1 3.1793 3.92432 10.0091
17 1 -0.590787 0.16076 11.1822
41 1 0.844074 2.5184 10.776
91 2 1.94836 0.0285707 11.5382
21 1 4.12298 0.00539606 9.88858
44 1 6.26927 1.61257 10.8019
60 1 5.74645 1.52735 8.00981
6 1 7.95873 0.111306 8.6614
36 1 9.39097 1.6965 10.7755
96 2 7.92557 2.65494 8.97748
75 1 11.9554 1.976 12.0098
87 2 -3.17729 7.98194 11.7017
46 1 -2.06018 5.58841 10.9267
62 1 -2.68438 5.55329 8.13584
8 1 -0.526712 4.01423 8.86591
27 1 1.49282 7.92544 8.98336
98 2 -0.521841 6.50731 8.82411
38 1 0.942553 5.57394 10.6167
76 1 3.55084 5.89618 12.0654
33 1 5.73373 4.045 9.37281
47 1 6.26251 6.37985 10.7425
63 1 5.50657 6.3811 8.04865
89 2 5.09728 4.00474 11.6933
2 1 11.5891 7.98193 9.92211
29 1 9.94153 4.0703 9.17042
19 1 7.76368 4.03058 11.3015
39 1 9.28718 6.35217 10.7067
93 2 10.4634 3.97077 11.5699
99 2 7.72961 5.46256 8.79538
23 1 12.4459 4.23209 10.0206
ITEM: TIMESTEP
1000
ITEM: NUMBER OF ATOMS
102
ITEM: BOX BOUNDS xy xz yz pp pp pp
-4.5578328768354961e+00 1.6065736053821649e+01 -6.7515015988067499e-03
5.3357681820454556e-02 8.0215088786878699e+00 -3.9833453214150896e+00
-2.4741141405671030e-01 1.2138269372969889e+01 -6.5334394916825829e-03
ITEM: ATOMS id type x y z
24 1 -1.10734 3.91381 1.93991
1 1 -0.0946711 0.259721 1.92037
35 1 2.08285 1.68936 1.16824
95 2 3.61648 2.72894 2.99644
20 1 3.42859 4.00382 0.62534
30 1 1.5146 4.01642 2.72498
94 2 0.8072 4.04854 0.205475
43 1 5.22862 1.74261 0.972714
59 1 5.95682 1.56061 3.64812
78 1 7.85635 2.08988 -0.146974
34 1 5.64678 3.94019 2.47492
90 2 6.10827 4.10434 0.0552686
28 1 9.91017 0.0629787 2.66676
42 1 10.2984 2.41957 1.19582
102 2 11.8774 1.42048 3.05749
7 1 11.6818 3.85127 2.99832
50 1 13.3153 2.48627 1.03257
66 1 14.053 2.30004 3.88389
88 2 14.4407 0.131651 0.102799
77 1 -0.668946 6.07924 -0.206279
5 1 3.58128 8.03312 2.89977
40 1 1.82472 6.36139 1.22064
100 2 3.63142 5.47513 2.85378
22 1 7.31346 8.02612 1.71312
48 1 5.23107 6.39396 0.998764
64 1 5.69537 6.6493 3.67537
18 1 11.9053 7.92874 0.61226
92 2 9.31623 8.09923 0.213609
3 1 8.23499 3.9999 1.8871
37 1 10.2911 5.53364 1.00662
32 1 14.0304 7.93612 2.54222
45 1 13.4079 5.677 1.11754
61 1 13.8635 5.43775 3.66023
97 2 11.8548 6.58052 2.91243
13 1 -1.47418 0.0532246 6.92241
79 2 -0.848256 0.0297215 4.43462
9 1 1.34668 0.119858 6.20078
51 1 1.37962 1.45005 3.90548
57 1 1.90747 2.58084 7.79286
67 1 3.61768 1.65215 5.50338
73 1 -0.42919 2.5662 6.34864
83 2 3.67867 0.246896 7.60813
12 1 1.98187 4.0935 5.52196
86 2 -0.513323 4.03038 4.13861
82 2 4.15933 4.1066 7.45076
16 1 4.83887 4.17922 5.00921
52 1 10.1849 1.53305 7.98976
58 1 9.45739 2.44765 3.95734
68 1 7.96088 1.59977 6.32937
74 1 11.78 2.54569 5.56997
26 1 13.9428 4.1836 6.00515
54 1 1.93323 5.49988 7.9625
56 1 1.32225 6.60232 3.98898
70 1 -0.244732 5.51943 6.31765
72 1 3.58833 6.54388 5.55203
15 1 6.84378 4.0021 6.92985
25 1 5.70944 8.02815 5.95675
81 2 7.3416 4.26449 4.38298
10 1 10.2556 8.00061 5.6357
11 1 9.51911 4.07043 6.21205
84 2 8.00436 7.80746 4.26364
85 2 11.8469 4.19283 7.73116
53 1 9.60737 5.64607 3.8778
55 1 10.1238 6.39953 8.03688
69 1 11.715 5.56117 5.52314
71 1 8.02989 6.55586 6.44831
14 1 13.1212 7.85583 5.03627
80 2 12.4358 7.79434 7.53894
31 1 -2.41948 0.0953478 9.42243
49 1 -1.92598 2.4046 10.9435
65 1 -2.6236 2.60192 8.12505
101 2 -0.348092 1.41338 8.86409
4 1 3.39138 3.98809 10.026
17 1 -0.31908 0.0536062 11.3128
41 1 1.32579 2.42521 10.7153
91 2 2.32429 0.153363 11.742
21 1 4.33697 0.0807918 10.0225
44 1 6.45525 1.67936 10.9154
60 1 5.77594 1.5425 8.11436
6 1 8.09751 -0.0296987 9.00789
36 1 9.50336 1.58098 10.6886
96 2 7.88863 2.52518 8.82535
75 1 11.9515 2.07205 12.0418
87 2 -3.03155 8.02261 11.8344
46 1 -1.95831 5.57943 10.9671
62 1 -2.4808 5.68018 8.29825
8 1 -0.303352 3.96699 8.92567
27 1 1.66295 8.01433 9.03145
98 2 -0.393275 6.58966 8.99744
38 1 1.16937 5.77005 10.6921
76 1 3.76913 6.0838 11.9924
33 1 5.86175 4.05642 9.40656
47 1 6.44206 6.39254 10.9064
63 1 5.73262 6.41104 8.11718
89 2 5.29216 4.0475 11.8154
2 1 11.598 7.89908 9.94865
29 1 9.93734 3.83656 9.13068
19 1 7.91468 4.00173 11.2345
39 1 9.41022 6.26488 10.8338
93 2 10.5466 4.07969 11.8036
99 2 7.96431 5.36319 8.8982
23 1 12.5109 4.02547 10.0812
