ITEM: TIMESTEP
10000
ITEM: NUMBER OF ATOMS
618
ITEM: BOX BOUNDS xy xz yz pp pp ff
0.0000000000000000e+00 1.9317770367296919e+01 4.0025167278329121e+00
0.0000000000000000e+00 6.6702723500479264e+00 0.0000000000000000e+00
0.0000000000000000e+00 1.0921147561319708e+02 0.0000000000000000e+00
ITEM: ATOMS id type x y z
1 1 4.25581 5.98442 5.8149
2 1 5.9286 6.2332 8.4599
3 1 4.13888 5.91593 12.9379
4 1 5.25009 0.232976 5.90325
5 1 7.52729 6.62643 10.881
6 1 5.84272 6.34527 15.4092
7 1 4.42472 5.97 20.1566
8 1 11.9493 6.02887 5.98056
9 1 6.82808 0.633759 8.39398
10 1 5.29625 0.285809 13.0857
11 1 7.58783 6.58063 17.6816
12 1 5.96707 6.18268 22.5188
13 1 4.28274 6.01485 27.1465
14 1 10.0718 1.21106 5.90333
15 1 13.5353 6.3556 8.3362
16 1 8.43667 0.872966 10.8155
17 1 12.007 5.85163 13.1323
18 1 6.80242 0.584303 15.4934
19 1 5.04256 0.183872 20.0689
20 1 7.48713 6.64147 24.7673
21 1 5.87822 6.38514 29.4291
22 1 4.06489 6.03289 34.0411
23 1 12.99 0.198532 5.86702
24 1 12.4507 3.111 5.80008
25 1 11.752 1.64408 8.46214
26 1 15.2443 6.60442 10.7287
27 1 10.7972 2.75283 10.7847
28 1 10.1016 1.05157 12.9744
29 1 13.5817 6.28748 15.4675
30 1 8.40949 0.839463 17.7621
31 1 11.7779 5.9103 20.033
32 1 6.8341 0.558489 22.2226
33 1 5.04425 0.310744 26.8829
34 1 7.63694 6.60294 31.7018
35 1 6.06283 6.26015 36.9218
36 1 15.1203 2.23175 6.09572
37 1 14.315 0.573548 8.42093
38 1 13.9675 3.42431 8.24876
39 1 13.3549 1.84506 10.7355
40 1 12.7717 0.190249 13.0843
41 1 12.3848 3.05181 13.0506
42 1 11.6582 1.42298 15.3132
43 1 14.9449 6.50656 17.7391
44 1 10.6655 2.66846 17.668
45 1 10.1324 1.0352 20.0636
46 1 13.3746 6.21523 22.3547
47 1 8.32888 0.800053 24.6117
48 1 11.7016 5.96677 26.8321
49 1 6.67811 0.528818 29.2593
50 1 5.07286 0.20686 33.9514
51 1 6.02817 6.18507 40.0764
52 1 2.55171 1.19254 5.82873
53 1 17.3334 3.93802 6.06267
54 1 16.5914 2.47423 8.55165
55 1 0.638726 0.790285 10.7998
56 1 15.6322 3.60211 10.6884
57 1 15.0058 2.0306 13.0975
58 1 14.4726 0.409928 15.5198
59 1 14.0549 3.14386 15.4674
60 1 13.3983 1.67056 17.7522
61 1 12.8231 0.0539579 19.8903
62 1 12.243 2.99225 20.0229
63 1 11.6155 1.38356 22.4172
64 1 11.1795 0.0296449 24.7404
65 1 10.7153 2.8038 24.5516
66 1 10.0258 1.25515 26.9282
67 1 13.499 6.20761 29.3254
68 1 8.43913 0.8931 31.6301
69 1 11.8073 5.98777 33.7566
70 1 6.9045 0.721513 36.362
71 1 4.77621 3.14821 5.85582
72 1 4.07912 1.51248 8.25658
73 1 3.62863 4.27725 8.38492
74 1 3.00495 2.71888 10.8018
75 1 2.44409 1.14624 13.1448
76 1 17.3193 4.05436 13.1071
77 1 1.45901 2.38552 15.3541
78 1 0.887291 0.75006 17.7968
79 1 15.6664 3.56249 17.6557
80 1 14.8336 2.12121 20.1283
81 1 14.4431 0.547544 22.3194
82 1 13.9473 3.35993 22.3505
83 1 13.5743 1.76114 24.6424
84 1 12.8505 0.262997 26.9432
85 1 12.1644 3.07746 26.8348
86 1 11.7187 1.59759 29.126
87 1 15.0786 6.56673 31.6379
88 1 10.5418 2.74323 31.5369
89 1 9.87913 1.35022 34.0552
90 1 13.547 6.62487 36.4635
91 1 8.7038 1.41899 39.0692
92 1 7.43473 2.32881 6.05579
93 1 6.88924 5.14468 5.85083
94 1 6.50496 3.58358 8.58385
95 1 5.66513 1.80471 10.7504
96 1 5.25038 4.70536 10.6904
97 1 4.60201 3.12668 13.0256
98 1 4.06568 1.59472 15.3595
99 1 3.822 4.4364 15.4721
100 1 3.0733 2.70494 17.7824
101 1 2.47772 1.10028 20.1172
102 1 17.2372 3.84746 19.9821
103 1 16.7452 2.4452 22.3007
104 1 0.756222 0.992591 24.8389
105 1 15.7838 3.75882 24.661
106 1 15.0601 2.16082 26.9341
107 1 14.3942 0.538466 29.5514
108 1 14.0515 3.35357 29.2466
109 1 13.29 2.00277 31.5881
110 1 12.6731 0.297672 34.1256
111 1 12.2904 3.17812 33.9123
112 1 11.7532 1.87698 36.2043
113 1 11.0701 0.296972 38.7811
114 1 11.0575 3.1462 38.7551
115 1 9.85352 4.15227 5.70992
116 1 9.11531 2.46782 8.34791
117 1 8.63117 5.41614 8.43373
118 1 8.11402 3.80374 10.7626
119 1 7.42734 2.16686 13.1178
120 1 7.05852 4.98485 13.0722
121 1 6.36982 3.33161 15.3291
122 1 5.70413 1.87244 17.8858
123 1 5.31817 4.69562 17.7743
124 1 4.71781 3.01458 20.2308
125 1 4.20873 1.50731 22.3721
126 1 3.65365 4.35319 22.3041
127 1 2.98658 2.754 24.8162
128 1 2.49562 1.44497 27.1252
129 1 17.3802 4.17693 27.0797
130 1 16.59 2.47347 29.3152
131 1 0.769201 0.974793 31.6853
132 1 15.6214 3.8135 31.7002
133 1 14.7954 2.03465 33.9879
134 1 14.4784 0.488744 36.1981
135 1 14.0149 3.64976 36.2851
136 1 13.3291 2.03511 38.4112
137 1 11.3107 4.40087 8.3761
138 1 10.3377 5.5478 10.7543
139 1 9.74316 4.0257 13.1289
140 1 9.03331 2.49471 15.4568
141 1 8.63459 5.29749 15.3853
142 1 7.97369 3.80377 17.5308
143 1 7.49225 2.07912 20.1117
144 1 7.02907 4.86626 20.0738
145 1 6.31878 3.34337 22.5064
146 1 5.66724 1.78915 24.793
147 1 5.16897 4.65201 24.7952
148 1 4.83304 3.07997 27.1985
149 1 4.03669 1.55947 29.3286
150 1 3.64308 4.4757 29.5324
151 1 2.98261 2.67287 31.7373
152 1 2.38182 1.01346 34.0848
153 1 17.2936 4.03847 34.0139
154 1 16.7174 2.47899 36.263
155 1 15.5677 0.869905 38.715
156 1 15.8 3.59744 38.8177
157 1 14.6689 5.10513 5.79812
158 1 12.8987 4.80174 10.8605
159 1 11.4288 4.22631 15.4506
160 1 10.12 5.57307 17.7598
161 1 9.67044 3.98805 19.9242
162 1 9.06027 2.46315 22.4243
163 1 8.47132 5.28248 22.4296
164 1 7.92453 3.64893 24.7029
165 1 7.41883 2.24902 27.123
166 1 6.97585 5.02814 27.1919
167 1 6.3133 3.56034 29.4777
168 1 5.76157 1.88987 31.6397
169 1 5.1874 4.70196 31.7556
170 1 4.72533 3.14694 34.0926
171 1 4.10076 1.64601 36.4263
172 1 3.42471 4.41349 36.3336
173 1 2.83722 2.08666 38.9989
174 1 16.1928 5.35847 8.47642
175 1 14.6119 4.9077 13.0301
176 1 12.9558 4.55807 17.6171
177 1 11.0877 4.33849 22.2615
178 1 10.0513 5.73608 24.6344
179 1 9.4992 4.15105 26.9554
180 1 9.0907 2.58405 29.2688
181 1 8.51765 5.44649 29.4123
182 1 7.85953 3.52836 31.6189
183 1 7.31225 2.38504 34.0318
184 1 6.68611 5.03391 33.8486
185 1 6.18292 3.59049 36.5528
186 1 5.7361 1.89397 38.7585
187 1 4.28216 4.36648 38.9989
188 1 17.8234 5.50522 10.6849
189 1 16.1873 5.29167 15.414
190 1 14.4437 4.81711 19.8958
191 1 13.0515 4.61817 24.6063
192 1 11.3686 4.41165 29.2754
193 1 10.1926 5.6381 31.5608
194 1 9.61495 4.08849 33.8796
195 1 8.96894 2.63449 36.6061
196 1 8.43031 5.37436 35.9396
197 1 8.17287 4.55944 38.2655
198 1 17.8945 5.35122 17.7832
199 1 16.0705 5.26487 22.3142
200 1 14.5612 5.05399 27.0157
201 1 12.8763 4.73009 31.5435
202 1 11.3094 4.73128 36.0019
203 1 10.8277 5.88604 38.5657
204 1 17.814 5.65445 24.6188
205 1 16.1811 5.27141 29.4344
206 1 14.572 5.09071 34.1918
207 1 13.4156 5.01604 38.7195
208 1 17.762 5.72074 31.8337
209 1 16.0468 5.45822 36.4136
210 1 17.4725 5.72863 38.6032
211 2 13.7177 0.856834 102.225
212 1 14.1903 0.638228 99.5029
213 1 2.84002 0.202197 103.083
214 1 1.64533 0.837894 98.7266
215 1 0.906688 1.33338 101.315
216 2 15.2379 0.103255 96.7959
217 1 14.2345 1.08358 94.5088
218 1 5.3823 1.40206 102.784
219 1 6.32599 0.977233 100.103
220 1 5.15948 6.42784 94.5724
221 1 3.93344 2.28124 98.6555
222 2 3.61024 0.815624 100.727
223 1 3.58309 1.05519 93.6118
224 1 16.8001 2.47506 95.1733
225 1 15.1736 0.61768 90.7146
226 1 2.67812 1.73695 90.8423
227 2 0.943401 1.48794 92.7927
228 1 15.3819 0.803979 88.0018
229 1 11.4971 6.53923 95.5174
230 1 6.6287 1.20304 88.9934
231 1 8.31997 6.45723 89.9077
232 1 11.003 4.79157 103.456
233 1 3.04169 2.933 102.33
234 1 7.79485 2.74224 101.989
235 1 5.46416 4.19762 103.171
236 2 7.50691 0.178728 102.26
237 2 5.21195 3.25162 100.907
238 1 6.63963 3.49329 98.7836
239 2 5.95732 1.28275 97.4555
240 1 4.37971 2.65486 96.0063
241 1 12.5397 2.44336 103.528
242 1 9.89501 1.18965 101.707
243 1 13.6506 5.54622 98.8772
244 2 10.5922 1.14725 99.2326
245 1 9.80232 3.32969 99.7092
246 1 8.29974 1.53936 97.9269
247 1 10.2488 0.149408 96.7439
248 1 7.23904 2.75306 95.712
249 1 10.656 2.80859 97.0598
250 2 8.60436 4.23448 97.1913
251 1 7.70291 2.99449 92.8707
252 2 8.30013 1.74334 90.6989
253 1 9.57856 3.75663 90.939
254 1 5.58844 1.61099 91.5441
255 1 7.89075 0.324935 92.811
256 1 9.76813 3.90739 94.8394
257 1 6.76872 3.83765 89.9949
258 1 8.8825 2.46408 88.4408
259 1 12.1029 2.08057 100.804
260 2 10.3304 3.18441 102.414
261 1 12.029 4.8215 100.698
262 2 12.4396 3.24037 98.6317
263 1 14.402 3.41794 100.462
264 1 10.839 5.60837 98.0807
265 1 12.9747 4.42887 96.4042
266 2 5.90521 1.36162 94.153
267 2 4.52033 2.43356 89.181
268 1 10.2518 5.08502 88.6753
269 1 17.0824 3.68559 99.8068
270 1 13.0868 1.47176 96.8937
271 1 10.1718 1.75895 92.7698
272 1 10.9339 1.23655 90.0044
273 2 13.5232 1.75452 89.343
274 1 11.5083 2.89487 87.8635
275 2 2.34931 3.71167 97.2914
276 1 15.1005 3.02368 97.7845
277 1 15.6184 4.88268 95.7446
278 2 12.0373 2.40442 94.6641
279 1 12.9479 1.87729 92.0167
280 2 13.657 6.05962 94.1995
281 1 11.648 4.2497 92.7358
282 1 12.3049 3.8861 90.1405
283 1 14.6268 3.63583 93.4595
284 1 15.3528 3.20865 90.9388
285 1 12.8538 6.36165 88.9363
286 1 13.7766 5.2196 102.749
287 1 8.66265 6.39851 95.8425
288 2 15.9421 3.84398 102.426
289 1 15.6608 6.11007 100.85
290 1 4.26662 4.99242 98.8623
291 1 3.50813 5.50955 101.613
292 1 16.4095 5.87109 98.2112
293 1 16.1884 6.23503 93.3712
294 1 16.8647 5.71536 90.8095
295 1 14.0161 5.74114 91.4787
296 2 15.1711 5.01906 88.8038
297 1 5.08538 3.62477 93.6286
298 1 18.2048 4.90444 95.0056
299 1 2.22674 3.65146 92.6852
300 1 4.08696 4.33399 90.7266
301 2 3.542 5.80446 92.6897
302 1 9.1387 5.46497 101.632
303 1 6.16239 5.20392 96.768
304 1 6.4518 5.3215 100.716
305 1 8.22515 6.22597 98.7383
306 2 7.32441 5.0028 94.3121
307 1 6.14164 5.84779 91.9008
308 1 2.06754 3.43233 88.9112
309 2 5.80886 6.15397 89.2524
310 1 9.29973 5.81883 92.7909
311 2 10.7652 6.09828 90.7489
312 1 4.65911 4.55446 87.7922
313 1 3.17685 0.99665 87.6491
314 1 12.5661 0.608556 87.2812
315 2 16.1611 6.32432 84.815
316 1 17.8946 6.4884 82.8005
317 1 5.32563 2.09035 82.922
318 1 5.40735 6.44848 83.533
319 2 0.456308 0.555546 81.1678
320 1 18.6863 6.21312 76.8185
321 1 1.35755 0.289927 74.891
322 1 1.44929 0.181954 78.7377
323 1 13.8689 0.00127061 74.021
324 1 3.51183 1.33663 84.8189
325 2 8.17775 6.55905 82.7647
326 1 10.0065 6.57057 84.7827
327 1 2.53204 1.89736 82.0111
328 1 4.72552 0.753621 80.5587
329 1 2.39959 1.35193 72.5834
330 1 12.7453 6.63654 84.0517
331 2 13.4183 6.57215 81.3384
332 1 10.7426 5.91428 82.0707
333 1 7.3829 0.794588 79.854
334 2 5.40104 2.04511 78.2836
335 1 3.6096 0.641259 76.7266
336 1 4.57805 0.190303 74.0338
337 1 10.4945 6.62159 77.3463
338 1 11.355 6.28626 74.8381
339 1 5.69278 2.07956 86.6626
340 1 15.9851 2.768 79.8127
341 2 7.88695 0.457767 86.6581
342 2 9.49226 4.02745 86.2175
343 1 7.60637 2.42086 84.5966
344 1 11.2733 1.2959 82.9079
345 1 10.6013 1.67719 85.5625
346 1 10.072 3.75636 83.6494
347 1 8.24222 2.03052 82.0473
348 1 8.01887 2.35376 77.6089
349 1 8.74094 2.21845 75.0745
350 1 6.05516 2.08016 75.6633
351 2 6.98244 1.474 72.9749
352 1 14.0986 3.11914 87.0769
353 1 12.7545 3.89127 82.9463
354 1 11.9851 4.38251 85.5705
355 2 11.0733 3.21223 80.9476
356 1 9.99638 4.11832 78.5914
357 1 16.4428 4.65039 86.6671
358 1 17.5047 3.94595 83.9815
359 1 12.1604 0.0140474 77.692
360 1 10.0671 1.25948 79.3196
361 1 12.2146 2.77719 78.6355
362 1 13.3764 6.60875 76.6878
363 1 11.23 0.618554 74.7637
364 2 10.7002 2.12252 76.9198
365 1 16.1761 1.89541 85.5598
366 1 15.1008 5.37253 82.762
367 2 14.7625 4.0029 84.7761
368 1 13.2026 1.46943 80.9553
369 1 13.4766 1.91392 84.6878
370 1 15.2388 2.55829 82.7149
371 2 14.3702 1.31481 78.4244
372 1 13.2692 2.07365 75.9881
373 1 14.5696 4.02717 77.698
374 1 12.6384 5.47776 78.9121
375 1 9.40854 0.307634 72.8868
376 1 11.0018 3.60519 74.7779
377 2 12.8198 2.29327 73.4001
378 1 13.7047 4.59207 74.8155
379 2 11.9912 4.50315 76.7047
380 1 10.9067 2.98019 72.0745
381 1 3.44354 3.04439 79.4847
382 1 16.402 2.15832 76.8572
383 1 2.44743 4.01969 72.9095
384 1 15.4371 2.52526 74.1316
385 2 2.8756 2.34747 74.827
386 1 12.2683 0.263532 71.72
387 1 14.149 5.84078 86.4387
388 1 18.6146 5.84082 85.6069
389 2 3.07643 3.20294 86.3994
390 2 17.1394 4.38542 81.3599
391 1 15.2596 5.52917 80.0897
392 1 7.44667 4.74218 87.5315
393 1 5.05812 4.00005 84.7871
394 2 6.69792 4.23182 82.8317
395 1 4.22176 4.54785 81.8647
396 1 6.10831 3.1756 80.4934
397 1 18.2193 5.88198 79.6561
398 1 6.54572 5.9631 80.9825
399 2 4.1398 4.71461 74.7992
400 1 16.692 4.57108 75.5321
401 1 3.71752 3.27026 76.8497
402 1 4.59986 5.61503 72.3346
403 1 7.6211 5.13804 84.9688
404 2 5.84252 6.2455 86.1171
405 2 17.1092 4.39502 78.0542
406 2 15.606 5.16109 73.2799
407 1 8.72345 4.54458 81.1227
408 1 6.02245 4.73307 76.7955
409 1 6.65602 4.49328 74.2787
410 2 8.92502 4.21882 73.3277
411 1 7.08016 5.58432 71.8881
412 2 7.65857 5.41099 78.777
413 1 8.7169 4.92079 76.0845
414 1 4.77225 2.91462 72.9866
415 2 1.37015 0.284031 70.2126
416 1 5.47873 6.358 67.5286
417 1 9.79172 5.54203 71.3004
418 1 8.29887 6.52662 66.9616
419 1 3.66981 0.172684 69.4286
420 2 6.57442 5.68803 64.9838
421 1 5.37872 6.5636 62.635
422 1 7.98398 0.336194 70.6996
423 1 12.9189 6.48174 68.1189
424 1 7.82681 5.34798 62.7877
425 1 6.66882 1.2132 66.812
426 2 10.272 6.41137 68.8754
427 1 10.0594 6.52255 61.8147
428 1 4.03359 1.27339 63.2794
429 1 6.5816 5.92572 58.8674
430 1 5.18367 0.376005 58.8504
431 2 3.52006 0.303204 60.9289
432 1 6.71867 6.10534 56.2307
433 1 14.5711 5.93357 63.7395
434 1 13.2879 6.44433 57.071
435 1 10.8207 5.16077 57.9929
436 1 13.5448 4.13233 71.9347
437 1 5.6034 1.73766 70.5689
438 1 10.2793 1.746 69.6494
439 1 8.0738 3.12401 71.1418
440 2 14.1936 5.9418 70.583
441 2 7.64033 2.18824 68.9361
442 1 9.19386 2.33613 66.8736
443 2 8.57826 0.0239777 65.4777
444 1 6.86202 1.39463 64.1876
445 1 14.8892 1.58265 71.5835
446 1 15.9044 6.43181 68.8646
447 1 16.0293 4.70404 67.0708
448 2 13.4702 0.050304 66.8845
449 1 12.3881 2.49958 67.6548
450 1 11.0179 0.456042 66.1145
451 1 17.1975 5.81175 64.6929
452 1 9.53497 1.78066 64.0427
453 1 13.3499 1.77854 65.0904
454 2 11.1811 3.07311 65.3336
455 1 10.2261 1.94683 61.0645
456 2 10.8708 0.474082 59.0188
457 1 12.0515 2.60222 59.0579
458 1 8.2194 0.471207 59.7013
459 1 14.4541 5.66818 61.1162
460 1 12.0775 2.45559 62.7951
461 1 9.3575 2.57527 58.0743
462 1 11.4851 1.35212 56.6497
463 1 14.6906 1.05794 68.9119
464 2 12.7378 2.03362 70.2807
465 1 14.1459 3.90672 68.9962
466 2 15.0563 2.42367 66.8618
467 1 1.592 2.48111 68.7353
468 1 13.3514 4.51301 65.9791
469 1 15.6288 3.39979 64.5076
470 2 8.46308 0.161795 62.3354
471 2 7.21192 1.14694 57.225
472 1 12.983 3.83565 56.3692
473 1 4.34951 2.73744 68.1562
474 1 0.372282 0.417131 65.1816
475 1 12.6796 0.422623 60.8329
476 1 13.5423 0.0102895 58.1079
477 2 0.879966 0.501886 57.5036
478 1 14.1912 1.5202 55.9311
479 2 5.0203 2.57707 65.4386
480 1 2.35607 2.12952 66.0684
481 1 2.98708 3.59534 63.8667
482 2 14.4978 1.03742 62.807
483 1 15.4449 0.589477 60.0843
484 2 16.4138 4.89279 62.2254
485 1 14.2653 3.00769 60.8303
486 1 14.9759 2.6481 58.2631
487 1 1.9218 2.34892 61.5334
488 1 2.78177 1.92136 58.885
489 1 15.4856 5.09506 57.2549
490 1 16.1635 4.23743 70.6972
491 1 11.5665 5.17591 63.8325
492 2 3.3899 3.11992 70.7246
493 1 18.354 5.0847 68.9013
494 1 6.65261 3.92662 67.0093
495 1 5.96545 4.42809 69.6854
496 1 3.69447 4.65715 66.3582
497 1 3.46012 4.95415 61.4817
498 1 4.26401 4.52722 58.8668
499 1 16.9659 4.37903 59.4716
500 2 17.7096 4.02427 57.0072
501 1 7.64822 2.43637 61.7778
502 1 5.53185 3.71346 63.1815
503 1 4.7696 2.37761 60.7221
504 1 6.73445 2.99713 58.7621
505 2 6.17614 4.60806 60.9529
506 1 11.7096 4.50976 69.686
507 1 8.83766 4.28601 65.0389
508 1 8.91427 4.39092 68.8463
509 1 10.8251 5.01813 66.7896
510 2 9.87169 4.01059 62.5799
511 1 8.66745 4.53224 60.2033
512 1 4.64025 2.449 57.0004
513 2 8.4411 4.92484 57.5724
514 1 11.8654 4.56374 60.8518
515 2 13.4562 4.82324 58.7968
516 1 7.32978 3.36123 56.0921
517 1 9.63882 6.49588 55.9112
518 1 3.97544 5.96897 55.3438
519 2 3.60585 5.0476 52.8897
520 1 5.27497 5.26428 50.9155
521 1 8.21594 0.741094 51.2753
522 1 8.37139 5.29703 51.5723
523 2 7.15426 5.941 49.3673
524 1 5.99532 4.59028 45.1337
525 1 7.89585 5.04639 42.6842
526 1 7.93292 4.92751 46.9677
527 1 5.02901 5.0475 42.3476
528 1 6.27397 0.118543 53.0911
529 2 10.9783 5.13232 50.9855
530 1 12.9462 5.24934 52.9821
531 1 5.4598 0.6581 50.1146
532 1 11.545 6.25072 48.8605
533 1 8.74573 6.66221 40.4951
534 1 15.5318 5.36504 52.1423
535 2 16.0454 4.82354 49.5953
536 1 13.4263 4.71538 50.3092
537 1 13.9831 6.02639 48.0311
538 2 7.96036 0.66657 46.5538
539 1 10.033 5.509 45.0938
540 1 10.8578 5.08524 42.4919
541 1 13.0106 5.02186 45.759
542 1 13.7564 4.56475 43.1438
543 1 8.43235 0.839111 54.87
544 1 3.69352 1.05857 48.0025
545 2 14.7172 6.03533 54.8295
546 2 12.0846 2.36678 54.4563
547 1 10.2744 1.07051 52.8295
548 1 14.0815 0.0890126 50.8416
549 1 13.2481 0.444667 53.5421
550 1 12.7756 2.45893 51.8134
551 1 10.8776 0.560562 50.2971
552 1 10.4121 0.758638 45.7756
553 1 11.3039 0.36467 43.264
554 1 8.53345 0.34515 43.903
555 2 13.619 6.53095 41.1674
556 1 1.57702 1.78681 55.2757
557 1 15.5109 2.69801 51.1053
558 1 14.8453 3.14911 53.7249
559 2 13.742 2.10005 49.0607
560 1 12.5698 2.54243 46.7147
561 1 3.79178 3.25127 54.8016
562 1 4.86217 2.82607 52.2567
563 1 3.39678 5.01996 45.8194
564 1 16.5692 6.25112 47.4614
565 1 14.6737 0.944522 46.8565
566 1 15.7793 4.91857 44.9558
567 1 17.646 5.59735 43.0638
568 2 13.0682 0.384632 45.1619
569 1 3.69885 0.585446 53.7217
570 1 2.62507 3.97986 50.8575
571 2 2.07531 2.71543 52.8871
572 1 0.9487 0.757326 48.9976
573 1 0.825094 0.53591 52.7485
574 1 2.93718 1.26957 50.8917
575 2 5.68749 6.65581 46.6683
576 1 0.34152 0.374926 44.2184
577 1 1.90551 2.31869 45.8133
578 1 15.0772 3.67124 47.2384
579 1 15.5119 5.08735 41.1626
580 1 13.5842 1.76567 43.0646
581 2 15.542 0.715663 41.3539
582 1 16.3828 3.16686 43.0118
583 2 14.5857 2.78897 44.9934
584 1 14.3387 2.89438 40.8283
585 1 6.35812 2.01362 47.7547
586 1 3.56554 0.419877 45.0732
587 1 4.33589 2.65182 41.3357
588 1 2.5693 0.840162 42.4168
589 2 5.11916 0.635542 43.0392
590 1 13.0488 0.624174 40.6758
591 1 16.7939 4.59189 54.6848
592 1 6.11128 4.82248 53.8119
593 2 5.92057 2.02538 54.6352
594 2 4.52722 2.96293 49.5927
595 1 2.34744 3.7386 48.1634
596 1 10.2195 3.68046 55.8595
597 1 7.91101 2.89064 53.1125
598 2 9.44895 2.88386 50.9752
599 1 7.05511 3.32247 50.1474
600 1 9.03735 1.95885 48.7016
601 1 5.13871 4.71438 48.0842
602 1 9.35523 4.76259 49.1381
603 2 6.65788 2.88851 42.9648
604 1 3.94764 3.03279 43.774
605 1 6.35189 1.72626 44.9993
606 1 6.94042 3.61378 40.3593
607 1 10.481 3.81182 53.0159
608 2 8.57973 4.99396 54.3739
609 2 4.47537 2.83765 46.3756
610 2 17.6172 3.86533 40.7759
611 1 11.4678 3.24219 49.1974
612 1 8.60424 3.11481 44.9102
613 1 9.21127 2.48961 42.4141
614 2 11.7789 2.82545 41.3409
615 1 9.57897 4.09781 40.4707
616 2 10.4021 3.69536 46.8697
617 1 11.2535 3.11235 44.242
618 1 7.30543 0.867508 41.2204
