LAMMPS (29 Aug 2024)
OMP_NUM_THREADS environment is not set. Defaulting to 1 thread. (src/comm.cpp:98)
  using 1 OpenMP thread(s) per MPI task
# Real sanity run: 60 MPa compression ramp toward Al side.
# Compression toward Al is negative z because Al_slab is below the interface.
# No NPT is used. Do not use this as a validated production loading run.

units metal
dimension 3
boundary p p f
atom_style atomic

read_data ../../../02_interface_relax/trial_001/data.interface_nvt_300k_long
Reading data file ...
  triclinic box = (0 0 0) to (15.315254 6.6702724 109.21148) with tilt (4.0025167 0 0)
WARNING: Triclinic box skew is large. LAMMPS will run inefficiently. (src/domain.cpp:221)
  1 by 1 by 1 MPI processor grid
  reading atoms ...
  618 atoms
  reading velocities ...
  618 velocities
  read_data CPU = 0.007 seconds
reset_timestep 0

mass 1 26.9815385
mass 2 55.845

pair_style meam
pair_coeff * * ../../../../potentials/meam/Jelinek_2012/Jelinek_2012_meamf AlS SiS MgS CuS FeS ../../../../potentials/meam/Jelinek_2012/Jelinek_2012_meam.alsimgcufe AlS FeS

neighbor 2.0 bin
neigh_modify delay 0 every 1 check yes

variable interface_z equal 40.16445
variable region_width equal 8.0
variable z_bottom_fixed_hi equal 9.709919949401659
variable z_fe_load_lo equal ${interface_z}
variable z_fe_load_lo equal 40.16445
variable z_fe_load_hi equal ${interface_z}+${region_width}
variable z_fe_load_hi equal 40.16445+${region_width}
variable z_fe_load_hi equal 40.16445+8
variable z_al_monitor_lo equal ${interface_z}-${region_width}
variable z_al_monitor_lo equal 40.16445-${region_width}
variable z_al_monitor_lo equal 40.16445-8
variable z_al_monitor_hi equal ${interface_z}
variable z_al_monitor_hi equal 40.16445

group al_slab id 1:210
210 atoms in group al_slab
group fe4al13_slab id 211:618
408 atoms in group fe4al13_slab

region bottom_fixed_region block INF INF INF INF INF ${z_bottom_fixed_hi} units box
region bottom_fixed_region block INF INF INF INF INF 9.70991994940166 units box
region fe_load_region block INF INF INF INF ${z_fe_load_lo} ${z_fe_load_hi} units box
region fe_load_region block INF INF INF INF 40.16445 ${z_fe_load_hi} units box
region fe_load_region block INF INF INF INF 40.16445 48.16445 units box
region al_monitor_region block INF INF INF INF ${z_al_monitor_lo} ${z_al_monitor_hi} units box
region al_monitor_region block INF INF INF INF 32.16445 ${z_al_monitor_hi} units box
region al_monitor_region block INF INF INF INF 32.16445 40.16445 units box

group bottom_fixed_region_group region bottom_fixed_region
28 atoms in group bottom_fixed_region_group
group fe_load_region_group region fe_load_region
52 atoms in group fe_load_region_group
group al_monitor_region_group region al_monitor_region
42 atoms in group al_monitor_region_group
group fixed_bottom intersect al_slab bottom_fixed_region_group
28 atoms in group fixed_bottom
group fe_load intersect fe4al13_slab fe_load_region_group
52 atoms in group fe_load
group al_monitor intersect al_slab al_monitor_region_group
42 atoms in group al_monitor
group mobile subtract all fixed_bottom
590 atoms in group mobile

velocity mobile create 300.0 97531 mom yes rot no dist gaussian
velocity fixed_bottom set 0.0 0.0 0.0

fix hold_bottom fixed_bottom setforce 0.0 0.0 0.0
compute temp_mobile mobile temp
fix nvt_mobile mobile nvt temp 300.0 300.0 0.1
fix_modify nvt_mobile temp temp_mobile
WARNING: Temperature for fix modify is not for group all (src/fix_nh.cpp:1399)

compute pe_atom all pe/atom
compute stress_atom all stress/atom NULL virial

variable f_atom_final equal -0.0007357076524527927
variable fz_ramp equal ramp(0.0,v_f_atom_final)

dump d1 all custom 100 dump.interface_stress_060mpa_compression_ramp.lammpstrj id type x y z c_pe_atom c_stress_atom[1] c_stress_atom[2] c_stress_atom[3] c_stress_atom[4] c_stress_atom[5] c_stress_atom[6]
dump_modify d1 sort id

thermo 100
thermo_style custom step temp c_temp_mobile pe ke etotal press vol lx ly lz xy xz yz v_fz_ramp

# Ramp from 0 to the final 60 MPa equivalent force over 2000 steps.
fix load_fe_ramp fe_load addforce 0.0 0.0 v_fz_ramp
run 2000

CITE-CITE-CITE-CITE-CITE-CITE-CITE-CITE-CITE-CITE-CITE-CITE-CITE

Your simulation uses code contributions which should be cited:

- Type Label Framework: https://doi.org/10.1021/acs.jpcb.3c08419

@Article{Gissinger24,
 author = {Jacob R. Gissinger, Ilia Nikiforov, Yaser Afshar, Brendon Waters, Moon-ki Choi, Daniel S. Karls, Alexander Stukowski, Wonpil Im, Hendrik Heinz, Axel Kohlmeyer, and Ellad B. Tadmor},
 title = {Type Label Framework for Bonded Force Fields in LAMMPS},
 journal = {J. Phys. Chem. B},
 year =    2024,
 volume =  128,
 number =  13,
 pages =   {3282–-3297}
}

CITE-CITE-CITE-CITE-CITE-CITE-CITE-CITE-CITE-CITE-CITE-CITE-CITE

Neighbor list info ...
  update: every = 1 steps, delay = 0 steps, check = yes
  max neighbors/atom: 2000, page size: 100000
  master list distance cutoff = 7
  ghost atom cutoff = 7
  binsize = 3.5, bins = 6 2 32
  2 neighbor lists, perpetual/occasional/extra = 2 0 0
  (1) pair meam, perpetual
      attributes: full, newton on
      pair build: full/bin/atomonly
      stencil: full/bin/3d
      bin: standard
  (2) pair meam, perpetual, half/full from (1)
      attributes: half, newton on
      pair build: halffull/newton/tri
      stencil: none
      bin: none
Per MPI rank memory allocation (min/avg/max) = 10.32 | 10.32 | 10.32 Mbytes
   Step          Temp      c_temp_mobile      PotEng         KinEng         TotEng         Press          Volume           Lx             Ly             Lz             Xy             Xz             Yz         v_fz_ramp   
         0   286.38574      300           -2123.0231      22.840268     -2100.1828     -4879.2272      11156.707      15.315254      6.6702724      109.21148      4.0025167      0              0              0            
       100   282.56588      295.99856     -2122.164       22.535621     -2099.6283     -4266.1559      11156.707      15.315254      6.6702724      109.21148      4.0025167      0              0             -3.6785383e-05
       200   293.16549      307.10205     -2121.3481      23.380977     -2097.9672     -3029.8524      11156.707      15.315254      6.6702724      109.21148      4.0025167      0              0             -7.3570765e-05
       300   298.46206      312.65041     -2121.0831      23.803397     -2097.2797     -4218.1101      11156.707      15.315254      6.6702724      109.21148      4.0025167      0              0             -0.00011035615
       400   288.9615       302.6982      -2121.8438      23.045693     -2098.7981     -4611.273       11156.707      15.315254      6.6702724      109.21148      4.0025167      0              0             -0.00014714153
       500   286.48557      300.10458     -2122.1552      22.84823      -2099.3069     -5957.998       11156.707      15.315254      6.6702724      109.21148      4.0025167      0              0             -0.00018392691
       600   273.62294      286.63048     -2121.2752      21.82239      -2099.4528     -5611.6719      11156.707      15.315254      6.6702724      109.21148      4.0025167      0              0             -0.0002207123 
       700   279.21131      292.48452     -2121.1576      22.268082     -2098.8895     -5069.6947      11156.707      15.315254      6.6702724      109.21148      4.0025167      0              0             -0.00025749768
       800   279.77811      293.07825     -2120.3173      22.313286     -2098.004      -4893.4361      11156.707      15.315254      6.6702724      109.21148      4.0025167      0              0             -0.00029428306
       900   289.53635      303.30039     -2120.5207      23.09154      -2097.4292     -5399.3459      11156.707      15.315254      6.6702724      109.21148      4.0025167      0              0             -0.00033106844
      1000   289.58877      303.3553      -2121.7196      23.095721     -2098.6238     -4985.4906      11156.707      15.315254      6.6702724      109.21148      4.0025167      0              0             -0.00036785383
      1100   278.68575      291.93397     -2122.4458      22.226167     -2100.2197     -4685.3056      11156.707      15.315254      6.6702724      109.21148      4.0025167      0              0             -0.00040463921
      1200   288.79449      302.52326     -2123.3563      23.032374     -2100.324      -4512.4314      11156.707      15.315254      6.6702724      109.21148      4.0025167      0              0             -0.00044142459
      1300   282.62173      296.05705     -2121.835       22.540075     -2099.2949     -4463.518       11156.707      15.315254      6.6702724      109.21148      4.0025167      0              0             -0.00047820997
      1400   295.63344      309.68732     -2121.6138      23.577804     -2098.036      -4238.4857      11156.707      15.315254      6.6702724      109.21148      4.0025167      0              0             -0.00051499536
      1500   281.94971      295.35309     -2120.5744      22.486479     -2098.0879     -4371.335       11156.707      15.315254      6.6702724      109.21148      4.0025167      0              0             -0.00055178074
      1600   277.36596      290.55144     -2120.6417      22.120909     -2098.5207     -4695.1882      11156.707      15.315254      6.6702724      109.21148      4.0025167      0              0             -0.00058856612
      1700   289.27733      303.02905     -2122.0545      23.070882     -2098.9836     -5168.0483      11156.707      15.315254      6.6702724      109.21148      4.0025167      0              0             -0.0006253515 
      1800   291.0189       304.85342     -2122.6214      23.209779     -2099.4116     -4576.2222      11156.707      15.315254      6.6702724      109.21148      4.0025167      0              0             -0.00066213689
      1900   284.05561      297.55911     -2123.0143      22.654432     -2100.3599     -4916.6486      11156.707      15.315254      6.6702724      109.21148      4.0025167      0              0             -0.00069892227
      2000   264.72877      277.3135      -2122.519       21.113049     -2101.406      -4400.8542      11156.707      15.315254      6.6702724      109.21148      4.0025167      0              0             -0.00073570765
Loop time of 30.1702 on 1 procs for 2000 steps with 618 atoms

Performance: 5.728 ns/day, 4.190 hours/ns, 66.291 timesteps/s, 40.968 katom-step/s
186.3% CPU use with 1 MPI tasks x 1 OpenMP threads

MPI task timing breakdown:
Section |  min time  |  avg time  |  max time  |%varavg| %total
---------------------------------------------------------------
Pair    | 29.957     | 29.957     | 29.957     |   0.0 | 99.29
Neigh   | 0.0074615  | 0.0074615  | 0.0074615  |   0.0 |  0.02
Comm    | 0.050612   | 0.050612   | 0.050612   |   0.0 |  0.17
Output  | 0.04406    | 0.04406    | 0.04406    |   0.0 |  0.15
Modify  | 0.094997   | 0.094997   | 0.094997   |   0.0 |  0.31
Other   |            | 0.01654    |            |       |  0.05

Nlocal:            618 ave         618 max         618 min
Histogram: 1 0 0 0 0 0 0 0 0 0
Nghost:           3329 ave        3329 max        3329 min
Histogram: 1 0 0 0 0 0 0 0 0 0
Neighs:          26399 ave       26399 max       26399 min
Histogram: 1 0 0 0 0 0 0 0 0 0
FullNghs:        52798 ave       52798 max       52798 min
Histogram: 1 0 0 0 0 0 0 0 0 0

Total # of neighbors = 52798
Ave neighs/atom = 85.433657
Neighbor list builds = 2
Dangerous builds = 0
unfix load_fe_ramp

# Hold the final 60 MPa equivalent force through step 10000.
fix load_fe_hold fe_load addforce 0.0 0.0 ${f_atom_final}
fix load_fe_hold fe_load addforce 0.0 0.0 -0.000735707652452793
run 8000
Per MPI rank memory allocation (min/avg/max) = 12.57 | 12.57 | 12.57 Mbytes
   Step          Temp      c_temp_mobile      PotEng         KinEng         TotEng         Press          Volume           Lx             Ly             Lz             Xy             Xz             Yz         v_fz_ramp   
      2000   264.72877      277.3135      -2122.519       21.113049     -2101.406      -4400.8542      11156.707      15.315254      6.6702724      109.21148      4.0025167      0              0              0            
      2100   286.82239      300.45742     -2123.0383      22.875093     -2100.1632     -3922.014       11156.707      15.315254      6.6702724      109.21148      4.0025167      0              0             -9.1963457e-06
      2200   285.07699      298.62904     -2121.5601      22.735891     -2098.8242     -3443.658       11156.707      15.315254      6.6702724      109.21148      4.0025167      0              0             -1.8392691e-05
      2300   282.10257      295.51322     -2121.1067      22.49867      -2098.608      -3348.7725      11156.707      15.315254      6.6702724      109.21148      4.0025167      0              0             -2.7589037e-05
      2400   300.84881      315.15062     -2123.1729      23.993748     -2099.1792     -4675.5061      11156.707      15.315254      6.6702724      109.21148      4.0025167      0              0             -3.6785383e-05
      2500   283.51957      296.99758     -2123.3313      22.61168      -2100.7196     -4741.9499      11156.707      15.315254      6.6702724      109.21148      4.0025167      0              0             -4.5981728e-05
      2600   280.27855      293.60249     -2123.5881      22.353198     -2101.2349     -6345.6916      11156.707      15.315254      6.6702724      109.21148      4.0025167      0              0             -5.5178074e-05
      2700   290.92698      304.75712     -2122.1933      23.202448     -2098.9909     -5339.0831      11156.707      15.315254      6.6702724      109.21148      4.0025167      0              0             -6.437442e-05 
      2800   291.29695      305.14468     -2121.4725      23.231954     -2098.2406     -5359.6875      11156.707      15.315254      6.6702724      109.21148      4.0025167      0              0             -7.3570765e-05
      2900   289.56539      303.3308      -2121.7035      23.093856     -2098.6096     -5288.8675      11156.707      15.315254      6.6702724      109.21148      4.0025167      0              0             -8.2767111e-05
      3000   283.86725      297.36179     -2122.3165      22.63941      -2099.6771     -5107.2214      11156.707      15.315254      6.6702724      109.21148      4.0025167      0              0             -9.1963457e-05
      3100   284.18757      297.69733     -2123.0268      22.664956     -2100.3618     -5321.3109      11156.707      15.315254      6.6702724      109.21148      4.0025167      0              0             -0.0001011598 
      3200   282.25919      295.67729     -2122.4492      22.511161     -2099.938      -4170.9158      11156.707      15.315254      6.6702724      109.21148      4.0025167      0              0             -0.00011035615
      3300   299.79138      314.04292     -2121.9287      23.909415     -2098.0193     -3638.776       11156.707      15.315254      6.6702724      109.21148      4.0025167      0              0             -0.00011955249
      3400   297.32974      311.46426     -2121.3881      23.71309      -2097.675      -3593.4373      11156.707      15.315254      6.6702724      109.21148      4.0025167      0              0             -0.00012874884
      3500   290.90777      304.737       -2121.844       23.200916     -2098.6431     -2970.8228      11156.707      15.315254      6.6702724      109.21148      4.0025167      0              0             -0.00013794518
      3600   269.72498      282.54722     -2121.7254      21.511514     -2100.2139     -4354.4781      11156.707      15.315254      6.6702724      109.21148      4.0025167      0              0             -0.00014714153
      3700   292.01188      305.8936      -2123.4469      23.288972     -2100.158      -3869.1949      11156.707      15.315254      6.6702724      109.21148      4.0025167      0              0             -0.00015633788
      3800   290.48023      304.28914     -2122.963       23.166818     -2099.7961     -2891.2465      11156.707      15.315254      6.6702724      109.21148      4.0025167      0              0             -0.00016553422
      3900   295.26043      309.29658     -2122.5724      23.548056     -2099.0244     -3759.4616      11156.707      15.315254      6.6702724      109.21148      4.0025167      0              0             -0.00017473057
      4000   290.24098      304.03852     -2121.8002      23.147737     -2098.6525     -3966.2655      11156.707      15.315254      6.6702724      109.21148      4.0025167      0              0             -0.00018392691
      4100   291.61471      305.47754     -2122.219       23.257296     -2098.9617     -4234.5867      11156.707      15.315254      6.6702724      109.21148      4.0025167      0              0             -0.00019312326
      4200   285.8197       299.40706     -2123.2487      22.795124     -2100.4536     -3876.5406      11156.707      15.315254      6.6702724      109.21148      4.0025167      0              0             -0.0002023196 
      4300   282.85186      296.29813     -2123.2708      22.558429     -2100.7124     -4015.7621      11156.707      15.315254      6.6702724      109.21148      4.0025167      0              0             -0.00021151595
      4400   293.84199      307.81071     -2122.7691      23.43493      -2099.3341     -4051.0992      11156.707      15.315254      6.6702724      109.21148      4.0025167      0              0             -0.0002207123 
      4500   307.75647      322.38666     -2122.7211      24.544659     -2098.1764     -4029.5853      11156.707      15.315254      6.6702724      109.21148      4.0025167      0              0             -0.00022990864
      4600   284.50985      298.03494     -2121.1462      22.690659     -2098.4555     -3141.8484      11156.707      15.315254      6.6702724      109.21148      4.0025167      0              0             -0.00023910499
      4700   293.64858      307.60811     -2122.2761      23.419505     -2098.8566     -4548.8007      11156.707      15.315254      6.6702724      109.21148      4.0025167      0              0             -0.00024830133
      4800   284.91768      298.46215     -2122.1674      22.723185     -2099.4442     -3618.8471      11156.707      15.315254      6.6702724      109.21148      4.0025167      0              0             -0.00025749768
      4900   277.97057      291.18479     -2122.3808      22.169129     -2100.2117     -4081.3069      11156.707      15.315254      6.6702724      109.21148      4.0025167      0              0             -0.00026669402
      5000   265.68561      278.31583     -2123.0204      21.18936      -2101.831      -4462.4034      11156.707      15.315254      6.6702724      109.21148      4.0025167      0              0             -0.00027589037
      5100   265.74066      278.37349     -2123.4135      21.19375      -2102.2198     -5024.1754      11156.707      15.315254      6.6702724      109.21148      4.0025167      0              0             -0.00028508672
      5200   291.00226      304.83598     -2123.4065      23.208451     -2100.198      -5065.7535      11156.707      15.315254      6.6702724      109.21148      4.0025167      0              0             -0.00029428306
      5300   289.21882      302.96776     -2122.3314      23.066216     -2099.2652     -4776.8493      11156.707      15.315254      6.6702724      109.21148      4.0025167      0              0             -0.00030347941
      5400   288.56201      302.27973     -2121.7569      23.013833     -2098.743      -3641.8262      11156.707      15.315254      6.6702724      109.21148      4.0025167      0              0             -0.00031267575
      5500   287.4183       301.08165     -2121.6627      22.922618     -2098.74       -2406.4047      11156.707      15.315254      6.6702724      109.21148      4.0025167      0              0             -0.0003218721 
      5600   286.83732      300.47305     -2122.6854      22.876283     -2099.8091     -3624.4918      11156.707      15.315254      6.6702724      109.21148      4.0025167      0              0             -0.00033106844
      5700   260.75448      273.15028     -2122.0773      20.796085     -2101.2812     -4140.9219      11156.707      15.315254      6.6702724      109.21148      4.0025167      0              0             -0.00034026479
      5800   269.33272      282.13632     -2122.332       21.48023      -2100.8518     -4472.9648      11156.707      15.315254      6.6702724      109.21148      4.0025167      0              0             -0.00034946113
      5900   284.69364      298.22746     -2122.0239      22.705317     -2099.3185     -4055.9746      11156.707      15.315254      6.6702724      109.21148      4.0025167      0              0             -0.00035865748
      6000   289.47235      303.23334     -2122.0824      23.086436     -2098.996      -3740.2981      11156.707      15.315254      6.6702724      109.21148      4.0025167      0              0             -0.00036785383
      6100   283.65338      297.13776     -2121.3659      22.622353     -2098.7435     -4434.8826      11156.707      15.315254      6.6702724      109.21148      4.0025167      0              0             -0.00037705017
      6200   300.31069      314.58692     -2122.3201      23.950831     -2098.3693     -4214.6003      11156.707      15.315254      6.6702724      109.21148      4.0025167      0              0             -0.00038624652
      6300   284.90458      298.44843     -2121.4111      22.72214      -2098.6889     -4604.8392      11156.707      15.315254      6.6702724      109.21148      4.0025167      0              0             -0.00039544286
      6400   284.90527      298.44915     -2122.6429      22.722195     -2099.9207     -4927.9952      11156.707      15.315254      6.6702724      109.21148      4.0025167      0              0             -0.00040463921
      6500   289.46362      303.2242      -2123.7423      23.085739     -2100.6566     -5134.1229      11156.707      15.315254      6.6702724      109.21148      4.0025167      0              0             -0.00041383555
      6600   271.09768      283.98518     -2121.4727      21.620992     -2099.8517     -4557.495       11156.707      15.315254      6.6702724      109.21148      4.0025167      0              0             -0.0004230319 
      6700   294.74517      308.75682     -2121.5296      23.506962     -2098.0227     -4970.6093      11156.707      15.315254      6.6702724      109.21148      4.0025167      0              0             -0.00043222825
      6800   288.71714      302.44223     -2121.2647      23.026205     -2098.2385     -4833.741       11156.707      15.315254      6.6702724      109.21148      4.0025167      0              0             -0.00044142459
      6900   290.64553      304.46229     -2122.2621      23.180001     -2099.0821     -4584.7797      11156.707      15.315254      6.6702724      109.21148      4.0025167      0              0             -0.00045062094
      7000   292.10586      305.99204     -2122.9661      23.296467     -2099.6696     -4669.7719      11156.707      15.315254      6.6702724      109.21148      4.0025167      0              0             -0.00045981728
      7100   285.33564      298.89998     -2122.5248      22.756518     -2099.7683     -5208.5356      11156.707      15.315254      6.6702724      109.21148      4.0025167      0              0             -0.00046901363
      7200   296.87632      310.98929     -2123.0674      23.676928     -2099.3905     -4608.2411      11156.707      15.315254      6.6702724      109.21148      4.0025167      0              0             -0.00047820997
      7300   294.9737       308.99622     -2122.6883      23.525188     -2099.1632     -5784.9426      11156.707      15.315254      6.6702724      109.21148      4.0025167      0              0             -0.00048740632
      7400   288.43551      302.14722     -2122.1443      23.003745     -2099.1406     -5193.0939      11156.707      15.315254      6.6702724      109.21148      4.0025167      0              0             -0.00049660267
      7500   287.8863       301.5719      -2122.1166      22.959943     -2099.1567     -4286.3442      11156.707      15.315254      6.6702724      109.21148      4.0025167      0              0             -0.00050579901
      7600   272.1257       285.06206     -2121.1007      21.702979     -2099.3977     -4697.8912      11156.707      15.315254      6.6702724      109.21148      4.0025167      0              0             -0.00051499536
      7700   278.6996       291.94848     -2122.2153      22.227271     -2099.988      -4435.5087      11156.707      15.315254      6.6702724      109.21148      4.0025167      0              0             -0.0005241917 
      7800   275.70459      288.81109     -2122.0861      21.988409     -2100.0977     -4336.2376      11156.707      15.315254      6.6702724      109.21148      4.0025167      0              0             -0.00053338805
      7900   305.69609      320.22833     -2123.2665      24.380336     -2098.8861     -4469.4869      11156.707      15.315254      6.6702724      109.21148      4.0025167      0              0             -0.00054258439
      8000   296.26435      310.34823     -2121.4832      23.628122     -2097.8551     -4187.4428      11156.707      15.315254      6.6702724      109.21148      4.0025167      0              0             -0.00055178074
      8100   300.43407      314.71616     -2121.787       23.960671     -2097.8263     -4483.3754      11156.707      15.315254      6.6702724      109.21148      4.0025167      0              0             -0.00056097708
      8200   272.48357      285.43695     -2121.8934      21.731521     -2100.1619     -4768.937       11156.707      15.315254      6.6702724      109.21148      4.0025167      0              0             -0.00057017343
      8300   277.75811      290.96224     -2122.5547      22.152184     -2100.4025     -4793.4631      11156.707      15.315254      6.6702724      109.21148      4.0025167      0              0             -0.00057936978
      8400   285.05742      298.60853     -2122.2084      22.734329     -2099.4741     -5207.5363      11156.707      15.315254      6.6702724      109.21148      4.0025167      0              0             -0.00058856612
      8500   300.29406      314.5695      -2122.1938      23.949506     -2098.2443     -5512.4462      11156.707      15.315254      6.6702724      109.21148      4.0025167      0              0             -0.00059776247
      8600   300.66227      314.95521     -2121.9998      23.978871     -2098.0209     -6367.0776      11156.707      15.315254      6.6702724      109.21148      4.0025167      0              0             -0.00060695881
      8700   279.33566      292.61478     -2121.6083      22.278        -2099.3303     -4945.6609      11156.707      15.315254      6.6702724      109.21148      4.0025167      0              0             -0.00061615516
      8800   277.97079      291.18502     -2123.0394      22.169146     -2100.8703     -5177.9758      11156.707      15.315254      6.6702724      109.21148      4.0025167      0              0             -0.0006253515 
      8900   272.98442      285.96161     -2122.7296      21.771465     -2100.9581     -5571.0249      11156.707      15.315254      6.6702724      109.21148      4.0025167      0              0             -0.00063454785
      9000   273.46701      286.46714     -2122.1443      21.809953     -2100.3344     -5064.2463      11156.707      15.315254      6.6702724      109.21148      4.0025167      0              0             -0.0006437442 
      9100   283.50924      296.98676     -2121.7961      22.610857     -2099.1852     -4835.2568      11156.707      15.315254      6.6702724      109.21148      4.0025167      0              0             -0.00065294054
      9200   296.71805      310.82349     -2121.8667      23.664306     -2098.2024     -4822.7708      11156.707      15.315254      6.6702724      109.21148      4.0025167      0              0             -0.00066213689
      9300   292.98356      306.91147     -2121.4792      23.366467     -2098.1127     -4548.7016      11156.707      15.315254      6.6702724      109.21148      4.0025167      0              0             -0.00067133323
      9400   294.51799      308.51884     -2122.6428      23.488843     -2099.1539     -4980.1821      11156.707      15.315254      6.6702724      109.21148      4.0025167      0              0             -0.00068052958
      9500   276.35974      289.49738     -2122.8163      22.040659     -2100.7756     -4853.2399      11156.707      15.315254      6.6702724      109.21148      4.0025167      0              0             -0.00068972592
      9600   268.41116      281.17094     -2121.8298      21.406732     -2100.423      -3879.1001      11156.707      15.315254      6.6702724      109.21148      4.0025167      0              0             -0.00069892227
      9700   280.18958      293.50928     -2121.5645      22.346102     -2099.2184     -3388.4288      11156.707      15.315254      6.6702724      109.21148      4.0025167      0              0             -0.00070811862
      9800   279.03709      292.30201     -2120.9105      22.254187     -2098.6563     -3934.4249      11156.707      15.315254      6.6702724      109.21148      4.0025167      0              0             -0.00071731496
      9900   284.97301      298.52012     -2121.4614      22.727598     -2098.7338     -5248.1904      11156.707      15.315254      6.6702724      109.21148      4.0025167      0              0             -0.00072651131
     10000   288.38011      302.08918     -2122.1256      22.999326     -2099.1263     -4636.5316      11156.707      15.315254      6.6702724      109.21148      4.0025167      0              0             -0.00073570765
Loop time of 121.35 on 1 procs for 8000 steps with 618 atoms

Performance: 5.696 ns/day, 4.214 hours/ns, 65.925 timesteps/s, 40.742 katom-step/s
187.3% CPU use with 1 MPI tasks x 1 OpenMP threads

MPI task timing breakdown:
Section |  min time  |  avg time  |  max time  |%varavg| %total
---------------------------------------------------------------
Pair    | 120.68     | 120.68     | 120.68     |   0.0 | 99.45
Neigh   | 0.019301   | 0.019301   | 0.019301   |   0.0 |  0.02
Comm    | 0.203      | 0.203      | 0.203      |   0.0 |  0.17
Output  | 0.18927    | 0.18927    | 0.18927    |   0.0 |  0.16
Modify  | 0.19403    | 0.19403    | 0.19403    |   0.0 |  0.16
Other   |            | 0.06713    |            |       |  0.06

Nlocal:            618 ave         618 max         618 min
Histogram: 1 0 0 0 0 0 0 0 0 0
Nghost:           3380 ave        3380 max        3380 min
Histogram: 1 0 0 0 0 0 0 0 0 0
Neighs:          26359 ave       26359 max       26359 min
Histogram: 1 0 0 0 0 0 0 0 0 0
FullNghs:        52718 ave       52718 max       52718 min
Histogram: 1 0 0 0 0 0 0 0 0 0

Total # of neighbors = 52718
Ave neighs/atom = 85.304207
Neighbor list builds = 7
Dangerous builds = 0

write_data data.interface_stress_060mpa_compression_ramp
System init for write_data ...
write_dump all custom dump.interface_stress_060mpa_compression_ramp_final.lammpstrj id type x y z modify sort id
Total wall time: 0:02:31
