LAMMPS (29 Aug 2024)
OMP_NUM_THREADS environment is not set. Defaulting to 1 thread. (src/comm.cpp:98)
  using 1 OpenMP thread(s) per MPI task
units           metal
dimension       3
boundary        p p p
atom_style      atomic

read_data       ../../structures/converted/Al/al_fcc.data
Reading data file ...
  orthogonal box = (0 0 0) to (40.5 40.5 40.5)
  1 by 1 by 1 MPI processor grid
  reading atoms ...
  4000 atoms
  read_data CPU = 0.020 seconds

mass            1 26.9815385

pair_style      eam/alloy
pair_coeff      * * ../../potentials/eam/Al_zhou.eam.alloy Al
Reading eam/alloy potential file ../../potentials/eam/Al_zhou.eam.alloy with DATE: 2007-10-12

neighbor        2.0 bin
neigh_modify    delay 10 check yes

thermo          100
thermo_style    custom step temp pe ke etotal press vol lx ly lz

# 1) Static relaxation with box relaxation to ~0 bar
fix             boxrelax all box/relax iso 0.0 vmax 0.001
min_style       cg
minimize        1.0e-8 1.0e-10 10000 100000

CITE-CITE-CITE-CITE-CITE-CITE-CITE-CITE-CITE-CITE-CITE-CITE-CITE

Your simulation uses code contributions which should be cited:

- Type Label Framework: https://doi.org/10.1021/acs.jpcb.3c08419

@Article{Gissinger24,
 author = {Jacob R. Gissinger, Ilia Nikiforov, Yaser Afshar, Brendon Waters, Moon-ki Choi, Daniel S. Karls, Alexander Stukowski, Wonpil Im, Hendrik Heinz, Axel Kohlmeyer, and Ellad B. Tadmor},
 title = {Type Label Framework for Bonded Force Fields in LAMMPS},
 journal = {J. Phys. Chem. B},
 year =    2024,
 volume =  128,
 number =  13,
 pages =   {3282–-3297}
}

CITE-CITE-CITE-CITE-CITE-CITE-CITE-CITE-CITE-CITE-CITE-CITE-CITE

Switching to 'neigh_modify every 1 delay 0 check yes' setting during minimization
Neighbor list info ...
  update: every = 1 steps, delay = 0 steps, check = yes
  max neighbors/atom: 2000, page size: 100000
  master list distance cutoff = 12.1025
  ghost atom cutoff = 12.1025
  binsize = 6.05125, bins = 7 7 7
  1 neighbor lists, perpetual/occasional/extra = 1 0 0
  (1) pair eam/alloy, perpetual
      attributes: half, newton on
      pair build: half/bin/atomonly/newton
      stencil: half/bin/3d
      bin: standard
WARNING: Energy due to 1 extra global DOFs will be included in minimizer energies
 (src/min.cpp:219)
Per MPI rank memory allocation (min/avg/max) = 8.014 | 8.014 | 8.014 Mbytes
   Step          Temp          PotEng         KinEng         TotEng         Press          Volume           Lx             Ly             Lz      
         0   0             -14308.637      0             -14308.637      23601.197      66430.125      40.5           40.5           40.5         
         9   0             -14319.995      0             -14319.995     -0.010539098    67999.991      40.816549      40.816549      40.816549    
Loop time of 0.506299 on 1 procs for 9 steps with 4000 atoms

181.8% CPU use with 1 MPI tasks x 1 OpenMP threads

Minimization stats:
  Stopping criterion = energy tolerance
  Energy initial, next-to-last, final = 
     -14308.6370791061  -14319.9946396641  -14319.9946397288
  Force two-norm initial, final = 2935.6887 0.0013315023
  Force max component initial, final = 2935.6887 0.0013315023
  Final line search alpha, max atom move = 0.0036938232 4.9183343e-06
  Iterations, force evaluations = 9 11

MPI task timing breakdown:
Section |  min time  |  avg time  |  max time  |%varavg| %total
---------------------------------------------------------------
Pair    | 0.50145    | 0.50145    | 0.50145    |   0.0 | 99.04
Neigh   | 0          | 0          | 0          |   0.0 |  0.00
Comm    | 0.00088088 | 0.00088088 | 0.00088088 |   0.0 |  0.17
Output  | 0          | 0          | 0          |   0.0 |  0.00
Modify  | 0          | 0          | 0          |   0.0 |  0.00
Other   |            | 0.00397    |            |       |  0.78

Nlocal:           4000 ave        4000 max        4000 min
Histogram: 1 0 0 0 0 0 0 0 0 0
Nghost:          10895 ave       10895 max       10895 min
Histogram: 1 0 0 0 0 0 0 0 0 0
Neighs:         856000 ave      856000 max      856000 min
Histogram: 1 0 0 0 0 0 0 0 0 0

Total # of neighbors = 856000
Ave neighs/atom = 214
Neighbor list builds = 0
Dangerous builds = 0
unfix           boxrelax

write_data      data.al_boxrelaxed
System init for write_data ...

# 2) Thermal equilibration at 300 K and 0 bar
velocity        all create 300.0 12345 mom yes rot no

fix             npt_all all npt temp 300.0 300.0 0.1 iso 0.0 0.0 1.0

dump            d1 all custom 100 dump.al_npt.lammpstrj id type x y z
run             5000
Per MPI rank memory allocation (min/avg/max) = 6.889 | 6.889 | 6.889 Mbytes
   Step          Temp          PotEng         KinEng         TotEng         Press          Volume           Lx             Ly             Lz      
         9   300           -14319.995      155.0734      -14164.921      2435.8226      67999.991      40.816549      40.816549      40.816549    
       100   134.60471     -14228.14       69.578696     -14158.562     -7593.1047      69383.335      41.091474      41.091474      41.091474    
       200   166.93012     -14227.923      86.28807      -14141.635      6792.0056      68233.193      40.863155      40.863155      40.863155    
       300   182.87124     -14214.807      94.528214     -14120.278     -4320.4108      69229.433      41.06107       41.06107       41.06107     
       400   201.43035     -14200.669      104.12163     -14096.547      3545.3047      68710.931      40.958302      40.958302      40.958302    
       500   230.09992     -14189.601      118.94125     -14070.659     -2238.2188      69329.913      41.080925      41.080925      41.080925    
       600   250.41472     -14173.674      129.4422      -14044.232      1932.6277      69110.044      41.037452      41.037452      41.037452    
       700   271.62071     -14159.601      140.40382     -14019.197     -1068.8823      69520.084      41.118453      41.118453      41.118453    
       800   283.84192     -14144.092      146.7211      -13997.371      1510.5493      69432.268      41.101132      41.101132      41.101132    
       900   307.34565     -14139.147      158.87044     -13980.277     -1159.0194      69726.203      41.15905       41.15905       41.15905     
      1000   315.42499     -14138.595      163.04675     -13975.548      1073.5111      69550.233      41.124396      41.124396      41.124396    
      1100   309.51805     -14142.627      159.99339     -13982.633     -1716.9288      69765.493      41.166779      41.166779      41.166779    
      1200   292.87262     -14144.136      151.38917     -13992.747      1104.4079      69475.99       41.109757      41.109757      41.109757    
      1300   292.30862     -14150.539      151.09763     -13999.441     -133.12164      69543.5        41.123069      41.123069      41.123069    
      1400   299.03389     -14152.685      154.574       -13998.111     -717.54788      69565.362      41.127377      41.127377      41.127377    
      1500   295.18829     -14143.937      152.58617     -13991.351      708.52395      69517.098      41.117864      41.117864      41.117864    
      1600   307.5578      -14143.149      158.98011     -13984.169     -356.36736      69636.135      41.14132       41.14132       41.14132     
      1700   310.35004     -14141.935      160.42345     -13981.511     -436.09448      69653.862      41.144811      41.144811      41.144811    
      1800   309.10322     -14143.138      159.77896     -13983.359     -231.07682      69633.419      41.140785      41.140785      41.140785    
      1900   302.99526     -14146.056      156.62168     -13989.434     -113.2859       69570.302      41.128351      41.128351      41.128351    
      2000   295.65711     -14149.688      152.82851     -13996.859     -20.029788      69543.388      41.123047      41.123047      41.123047    
      2100   295.00631     -14150.125      152.4921      -13997.633     -32.459395      69541.365      41.122648      41.122648      41.122648    
      2200   303.17441     -14148.532      156.71429     -13991.818     -336.98291      69577.001      41.129671      41.129671      41.129671    
      2300   304.09811     -14142.474      157.19176     -13985.283     -35.993371      69611.88       41.136543      41.136543      41.136543    
      2400   306.61999     -14140.348      158.49535     -13981.852     -201.92431      69649.222      41.143897      41.143897      41.143897    
      2500   305.42221     -14141.305      157.8762      -13983.429     -21.417928      69611.033      41.136376      41.136376      41.136376    
      2600   300.51441     -14145.787      155.3393      -13990.448     -47.026614      69584.617      41.131172      41.131172      41.131172    
      2700   292.82349     -14146.9        151.36378     -13995.536      132.63707      69542.808      41.122932      41.122932      41.122932    
      2800   299.29101     -14150.261      154.70691     -13995.554     -99.157787      69543.377      41.123044      41.123044      41.123044    
      2900   300.83373     -14147.238      155.50436     -13991.734     -45.930038      69563.78       41.127066      41.127066      41.127066    
      3000   304.37102     -14144.148      157.33282     -13986.815     -214.643        69614.736      41.137105      41.137105      41.137105    
      3100   306.99507     -14142.269      158.68922     -13983.579     -48.281778      69615.358      41.137228      41.137228      41.137228    
      3200   299.71103     -14139.847      154.92403     -13984.923     -5.06055        69622.389      41.138612      41.138612      41.138612    
      3300   296.6478      -14142.498      153.34061     -13989.158      243.90363      69580.937      41.130447      41.130447      41.130447    
      3400   296.38705     -14146.191      153.20582     -13992.986     -34.258761      69555.48       41.12543       41.12543       41.12543     
      3500   295.55781     -14148.222      152.77718     -13995.444      211.49729      69518.439      41.118128      41.118128      41.118128    
      3600   295.21707     -14147.02       152.60104     -13994.419     -111.43086      69575.338      41.129343      41.129343      41.129343    
      3700   300.96564     -14143.934      155.57255     -13988.361      53.063269      69581.055      41.13047       41.13047       41.13047     
      3800   299.53288     -14138.787      154.83194     -13983.955      234.80194      69612.891      41.136742      41.136742      41.136742    
      3900   301.86553     -14140.47       156.03771     -13984.432      231.2533       69594.177      41.133055      41.133055      41.133055    
      4000   299.23503     -14144.095      154.67797     -13989.417     -334.69996      69627.916      41.139701      41.139701      41.139701    
      4100   299.59666     -14147.932      154.86491     -13993.067      200.39566      69535.71       41.121533      41.121533      41.121533    
      4200   295.46064     -14147.416      152.72695     -13994.689     -244.45098      69569.707      41.128234      41.128234      41.128234    
      4300   295.3803      -14145.085      152.68542     -13992.4        243.84013      69560.12       41.126344      41.126344      41.126344    
      4400   305.94259     -14144.922      158.14519     -13986.777     -293.5549       69608.931      41.135962      41.135962      41.135962    
      4500   302.91248     -14141.266      156.57889     -13984.687      230.04795      69607.91       41.135761      41.135761      41.135761    
      4600   302.14124     -14141.931      156.18023     -13985.751     -14.511188      69615.371      41.13723       41.13723       41.13723     
      4700   301.20082     -14144.979      155.69411     -13989.285     -146.16966      69601.673      41.134532      41.134532      41.134532    
      4800   301.29963     -14147.889      155.74519     -13992.144     -37.40441       69563.776      41.127065      41.127065      41.127065    
      4900   291.49687     -14144.707      150.67803     -13994.029      251.48597      69551.008      41.124549      41.124549      41.124549    
      5000   293.82238     -14144.058      151.88011     -13992.178      457.33947      69546.687      41.123697      41.123697      41.123697    
      5009   293.99817     -14143.881      151.97098     -13991.91       433.66867      69552.375      41.124818      41.124818      41.124818    
Loop time of 225.452 on 1 procs for 5000 steps with 4000 atoms

Performance: 1.916 ns/day, 12.525 hours/ns, 22.178 timesteps/s, 88.711 katom-step/s
184.5% CPU use with 1 MPI tasks x 1 OpenMP threads

MPI task timing breakdown:
Section |  min time  |  avg time  |  max time  |%varavg| %total
---------------------------------------------------------------
Pair    | 223.75     | 223.75     | 223.75     |   0.0 | 99.25
Neigh   | 0.1813     | 0.1813     | 0.1813     |   0.0 |  0.08
Comm    | 0.35781    | 0.35781    | 0.35781    |   0.0 |  0.16
Output  | 0.24016    | 0.24016    | 0.24016    |   0.0 |  0.11
Modify  | 0.77145    | 0.77145    | 0.77145    |   0.0 |  0.34
Other   |            | 0.1493     |            |       |  0.07

Nlocal:           4000 ave        4000 max        4000 min
Histogram: 1 0 0 0 0 0 0 0 0 0
Nghost:          10985 ave       10985 max       10985 min
Histogram: 1 0 0 0 0 0 0 0 0 0
Neighs:         835753 ave      835753 max      835753 min
Histogram: 1 0 0 0 0 0 0 0 0 0

Total # of neighbors = 835753
Ave neighs/atom = 208.93825
Neighbor list builds = 6
Dangerous builds = 0

unfix           npt_all
undump          d1

write_data      data.al_npt_relaxed
System init for write_data ...

Total wall time: 0:03:46
