ITEM: TIMESTEP
15000
ITEM: NUMBER OF ATOMS
618
ITEM: BOX BOUNDS xy xz yz pp pp ff
0.0000000000000000e+00 1.9317770367296919e+01 4.0025167278329121e+00
0.0000000000000000e+00 6.6702723500479264e+00 0.0000000000000000e+00
0.0000000000000000e+00 1.0921147561319708e+02 0.0000000000000000e+00
ITEM: ATOMS id type x y z
1 1 4.25581 5.98442 5.8149
2 1 5.9286 6.2332 8.4599
3 1 4.14572 6.03523 13.2709
4 1 5.25009 0.232976 5.90325
5 1 3.41498 0.0974302 10.7649
6 1 5.75733 6.54726 15.5898
7 1 4.05993 6.04931 20.1726
8 1 11.9493 6.02887 5.98056
9 1 6.82808 0.633759 8.39398
10 1 5.11808 0.400514 12.8628
11 1 3.35879 0.0174756 17.781
12 1 5.96866 6.4734 22.3145
13 1 4.2593 5.99624 27.0368
14 1 10.0718 1.21106 5.90333
15 1 13.5353 6.3556 8.3362
16 1 8.37568 0.973145 10.7078
17 1 11.8216 6.161 13.1439
18 1 6.74296 0.757221 15.2726
19 1 4.94947 0.319363 20.0611
20 1 3.5082 0.044679 24.6833
21 1 5.66316 6.26773 29.4567
22 1 4.16512 6.03328 34.2323
23 1 12.99 0.198532 5.86702
24 1 12.4507 3.111 5.80008
25 1 11.752 1.64408 8.46214
26 1 11.0943 0.131199 10.7208
27 1 10.6844 2.87924 10.8356
28 1 10.0451 1.09166 13.0391
29 1 13.445 6.35261 15.5253
30 1 8.3272 1.02683 17.759
31 1 11.5382 6.05606 20.1022
32 1 6.67169 0.792313 22.3859
33 1 5.06925 0.220741 27.2025
34 1 3.3332 0.00320319 31.6837
35 1 5.82239 6.25256 36.9191
36 1 15.1203 2.23175 6.09572
37 1 14.315 0.573548 8.42093
38 1 13.9675 3.42431 8.24876
39 1 13.3597 1.96054 10.7494
40 1 12.7284 0.394588 13.0686
41 1 12.2988 3.16115 13.1774
42 1 11.8355 1.48357 15.5491
43 1 11.0143 0.109109 17.7884
44 1 10.7516 2.90421 17.8024
45 1 9.94343 1.38275 20.2056
46 1 13.3047 6.44929 22.4625
47 1 8.36389 0.833995 24.8847
48 1 11.6353 5.8096 27.1152
49 1 6.83973 0.535866 29.3791
50 1 4.94761 0.304495 34.2375
51 1 2.16032 0.0162057 39.9661
52 1 2.55171 1.19254 5.82873
53 1 17.3334 3.93802 6.06267
54 1 16.5914 2.47423 8.55165
55 1 0.608692 0.90578 10.9063
56 1 15.2869 3.883 10.8358
57 1 15.0651 2.08872 13.1581
58 1 14.3539 0.640881 15.4656
59 1 13.9996 3.40048 15.3412
60 1 13.4984 1.96594 17.7118
61 1 12.6898 0.35952 20.1319
62 1 12.2997 3.18211 20.1515
63 1 11.5593 1.44288 22.3974
64 1 11.0912 0.0965687 24.6751
65 1 10.5572 2.79172 24.8656
66 1 10.1471 1.2085 27.098
67 1 13.5841 6.16984 29.2863
68 1 8.3739 0.957499 31.7174
69 1 11.803 6.12907 33.9728
70 1 6.80906 0.623147 36.5279
71 1 4.77621 3.14821 5.85582
72 1 4.07912 1.51248 8.25658
73 1 3.62863 4.27725 8.38492
74 1 3.0489 3.01545 10.7568
75 1 2.39812 1.06153 13.0392
76 1 17.3168 4.15256 13.0452
77 1 16.744 2.55653 15.3823
78 1 0.741474 1.09172 17.9482
79 1 15.7436 3.90096 17.7418
80 1 14.9392 2.39406 20.1131
81 1 14.4147 0.53579 22.2891
82 1 13.8177 3.5191 22.3677
83 1 13.4441 1.87399 24.7356
84 1 12.7484 0.233494 27.0745
85 1 12.2873 3.18615 26.9337
86 1 11.69 1.55625 29.2803
87 1 11.2081 0.0410259 31.5693
88 1 10.6426 2.76061 31.736
89 1 10.0775 1.21794 33.9205
90 1 13.3912 6.40664 36.4677
91 1 8.33921 1.0423 38.9878
92 1 7.43473 2.32881 6.05579
93 1 6.88924 5.14468 5.85083
94 1 6.50496 3.58358 8.58385
95 1 5.62147 1.92543 10.7874
96 1 5.18843 4.75451 10.9512
97 1 4.64211 3.06573 13.12
98 1 4.0431 1.64487 15.4185
99 1 3.53933 4.5913 15.4636
100 1 2.9926 2.90593 17.6047
101 1 2.36886 1.24034 20.1377
102 1 17.289 4.09848 20.1754
103 1 16.4934 2.46831 22.4459
104 1 0.802439 0.848215 24.6336
105 1 15.5267 3.83757 24.7397
106 1 15.2229 2.139 26.9221
107 1 14.5263 0.584155 29.2633
108 1 13.8406 3.31186 29.1663
109 1 13.3771 1.87178 31.611
110 1 12.7008 0.295816 34.0793
111 1 12.3636 3.23239 33.9836
112 1 11.7367 1.67524 36.179
113 1 10.9617 0.210656 39.0204
114 1 11.1844 3.08499 38.7935
115 1 9.85352 4.15227 5.70992
116 1 9.11531 2.46782 8.34791
117 1 8.63117 5.41614 8.43373
118 1 8.00993 3.76566 10.8184
119 1 7.53055 2.32252 13.1677
120 1 6.86712 5.10487 13.0822
121 1 6.30674 3.57135 15.4358
122 1 5.73546 1.91316 17.7572
123 1 5.07326 4.86379 17.9021
124 1 4.48713 3.14114 20.0565
125 1 4.03519 1.75273 22.3968
126 1 3.50935 4.54503 22.423
127 1 2.87375 2.86019 24.5215
128 1 2.55533 1.26599 26.8048
129 1 17.313 3.9499 27.078
130 1 1.46228 2.32403 29.2727
131 1 0.82265 0.911742 31.7143
132 1 15.7424 3.66013 31.7062
133 1 15.0213 2.12507 33.9952
134 1 14.4519 0.693542 36.2559
135 1 14.0672 3.78063 36.3006
136 1 13.3679 2.16218 38.394
137 1 11.3107 4.40087 8.3761
138 1 10.189 5.73546 10.597
139 1 9.87624 4.15882 12.9837
140 1 9.15355 2.59212 15.424
141 1 8.4351 5.29835 15.3292
142 1 7.82755 3.86889 17.7161
143 1 7.26228 2.30294 19.9187
144 1 6.78908 5.04491 20.1389
145 1 6.16239 3.58334 22.4504
146 1 5.68107 1.71387 24.8581
147 1 5.18702 4.70628 24.7324
148 1 4.63618 3.04267 27.2081
149 1 4.15975 1.37562 29.4571
150 1 3.6031 4.20777 29.3487
151 1 3.08287 2.77107 31.7125
152 1 2.39531 1.32401 34.3696
153 1 17.2577 4.05135 34.0341
154 1 16.6161 2.62524 36.4739
155 1 15.7802 1.43693 38.7382
156 1 15.9216 4.11872 38.7563
157 1 14.6689 5.10513 5.79812
158 1 12.8734 4.74336 10.8751
159 1 11.283 4.43901 15.3329
160 1 9.90242 5.76007 17.7331
161 1 9.39411 4.05552 20.1818
162 1 8.91723 2.53781 22.6145
163 1 8.4901 5.27583 22.5256
164 1 7.72923 3.83962 24.7164
165 1 7.32766 2.19889 27.0904
166 1 6.82263 5.03457 27.075
167 1 6.31311 3.39145 29.6032
168 1 5.6479 1.85729 31.8383
169 1 5.22272 4.77735 31.9073
170 1 4.64066 3.07026 34.2157
171 1 4.17929 1.4574 36.3867
172 1 3.55298 4.18354 36.657
173 1 3.05558 2.38084 38.908
174 1 16.1928 5.35847 8.47642
175 1 14.5822 5.04203 13.1856
176 1 12.8743 4.74542 17.6066
177 1 11.1826 4.43835 22.4145
178 1 10.1124 5.67396 24.8764
179 1 9.47798 4.05436 27.1297
180 1 9.1438 2.3538 29.5483
181 1 8.43101 5.29711 29.5079
182 1 7.94707 3.92759 31.7991
183 1 7.19882 2.24855 34.1012
184 1 6.67069 5.01221 34.02
185 1 6.40038 3.48215 36.6879
186 1 5.82645 2.0598 38.8632
187 1 4.61473 4.41001 39.1507
188 1 17.7203 5.89166 10.8894
189 1 16.1936 5.44315 15.4632
190 1 14.482 5.19542 20.0027
191 1 12.8394 4.70922 24.6508
192 1 11.1727 4.37793 29.3506
193 1 10.1867 5.77207 31.7106
194 1 9.63313 4.19748 33.9026
195 1 9.02296 2.46739 36.1679
196 1 8.33458 5.32178 36.3543
197 1 8.59075 3.69514 38.347
198 1 17.8417 5.85476 17.9164
199 1 15.9185 5.20888 22.3703
200 1 14.5312 4.92985 26.9595
201 1 12.9042 4.78572 31.4956
202 1 11.2133 4.51232 36.2411
203 1 10.4928 5.87688 38.7005
204 1 17.7711 5.74796 24.6984
205 1 16.2342 5.22471 29.3413
206 1 14.5912 5.01037 33.8528
207 1 13.2003 5.06101 38.9376
208 1 17.8828 5.66649 31.7585
209 1 16.196 5.4841 36.2039
210 1 17.7584 6.01317 38.6783
211 2 14.3936 1.50977 102.046
212 1 14.9789 1.26432 99.4426
213 1 3.61606 0.55519 103.308
214 1 2.46829 1.2167 98.8212
215 1 1.53519 1.65058 101.652
216 2 0.622997 0.607622 96.875
217 1 14.9228 1.37427 94.4549
218 1 6.00093 2.10315 102.834
219 1 6.72726 1.25442 100.202
220 1 1.83887 0.0434328 94.6971
221 1 4.6129 2.74875 98.8669
222 2 4.21099 1.29745 101.008
223 1 4.10814 1.47122 93.6404
224 1 2.07488 2.8557 95.1725
225 1 0.526483 0.875185 90.7531
226 1 3.13076 2.02754 90.8495
227 2 1.56832 1.77678 92.8515
228 1 0.571913 0.806297 88.0317
229 1 8.32024 0.501194 95.6577
230 1 7.16121 1.56213 88.9886
231 1 4.88565 0.157177 90.0987
232 1 11.6611 5.15068 103.391
233 1 3.52017 3.36785 102.498
234 1 8.23453 3.19841 101.905
235 1 6.15921 4.79201 103.304
236 2 8.1997 0.693161 102.231
237 2 5.80174 3.63113 100.983
238 1 7.36255 3.7747 98.7648
239 2 6.74181 1.6334 97.6423
240 1 4.91274 2.89671 96.0853
241 1 13.1062 2.83141 103.44
242 1 10.4095 1.65365 101.655
243 1 14.16 6.00341 98.8029
244 2 11.3351 1.41724 99.1298
245 1 10.0818 3.8376 99.7337
246 1 9.05534 1.83656 98.0553
247 1 11.0102 0.654121 96.7456
248 1 7.71343 3.19653 95.8042
249 1 11.4152 3.15752 97.123
250 2 9.3001 4.53783 97.1255
251 1 8.29522 3.55671 92.8938
252 2 8.86303 1.96956 90.8448
253 1 9.98713 4.16971 90.8838
254 1 6.27611 1.9614 91.6923
255 1 8.40693 0.635933 92.9719
256 1 10.4528 4.11141 94.879
257 1 7.24481 4.15205 89.9785
258 1 9.51561 3.05624 88.4973
259 1 12.6599 2.60912 100.702
260 2 10.8593 3.64652 102.299
261 1 12.4054 5.33739 100.742
262 2 13.1513 3.80138 98.5457
263 1 15.0023 3.91644 100.398
264 1 11.3838 5.86082 97.9083
265 1 13.4947 4.66454 96.1915
266 2 6.53053 1.67374 94.3212
267 2 4.91713 2.67359 89.1543
268 1 10.969 5.48816 88.5199
269 1 2.56703 4.07681 99.9333
270 1 13.5796 1.81403 97.0366
271 1 10.8277 1.94319 92.751
272 1 11.3968 1.71769 90.0429
273 2 14.227 2.12357 89.3789
274 1 12.0975 3.25405 87.8696
275 2 3.07813 4.10773 97.3618
276 1 15.9071 3.33968 97.9907
277 1 16.2436 5.10536 95.7536
278 2 12.6635 2.45502 94.7173
279 1 13.5315 2.10347 91.905
280 2 14.2994 6.29451 94.2058
281 1 12.3151 4.48469 92.7978
282 1 12.9071 4.262 90.2384
283 1 15.1861 3.97464 93.534
284 1 15.9394 3.61551 91.0323
285 1 9.34665 0.0925234 89.1448
286 1 14.3091 5.69347 102.731
287 1 5.5385 0.00205617 95.9202
288 2 16.781 4.46521 102.31
289 1 16.361 6.56661 100.764
290 1 4.97625 5.39267 98.884
291 1 4.27662 5.99694 101.456
292 1 17.0046 6.04625 98.241
293 1 16.7121 6.54712 93.4273
294 1 17.3557 6.18031 90.8434
295 1 14.7264 6.0192 91.5302
296 2 15.4898 5.24825 88.8907
297 1 5.72034 4.07215 93.6521
298 1 3.53721 5.36822 95.1591
299 1 2.80755 4.07237 92.7753
300 1 4.57015 4.77016 90.63
301 2 4.03837 6.26361 92.7047
302 1 9.73528 5.98959 101.805
303 1 7.07043 5.75878 96.8968
304 1 7.04858 5.82676 100.841
305 1 8.99842 6.43852 98.7902
306 2 7.90993 5.45464 94.4654
307 1 6.82029 6.12881 92.036
308 1 2.52938 3.82738 88.9254
309 2 6.41075 6.43274 89.4824
310 1 9.8739 6.03415 92.9048
311 2 11.3243 6.40228 90.7993
312 1 5.38416 4.73446 87.8168
313 1 3.33632 1.40897 87.8484
314 1 13.1009 0.746337 87.4892
315 2 16.5328 6.56114 84.9296
316 1 18.1054 6.59779 82.8411
317 1 5.76677 2.20327 82.9732
318 1 1.86838 0.0402747 83.6288
319 2 0.792017 0.764763 81.1931
320 1 3.8874 6.36001 77.061
321 1 1.78313 0.465324 75.0747
322 1 2.08795 0.616351 78.7543
323 1 14.1641 0.324131 74.0681
324 1 3.78572 1.51273 84.8865
325 2 4.55797 0.0297712 82.8883
326 1 6.50658 0.137706 84.6443
327 1 3.00047 2.20174 81.9275
328 1 5.34611 0.84411 80.6246
329 1 2.55606 1.72108 72.2905
330 1 9.15582 0.173629 84.0657
331 2 9.9255 0.233659 81.3356
332 1 11.2012 6.32549 82.2072
333 1 7.9367 1.17158 79.7825
334 2 5.75626 2.1839 78.3364
335 1 4.06586 0.90543 76.603
336 1 4.6841 0.403857 74.0633
337 1 6.86223 0.19199 77.4571
338 1 7.65798 0.0134583 74.801
339 1 5.8053 2.13486 86.7003
340 1 16.3015 2.99455 79.8637
341 2 8.29355 0.816392 86.781
342 2 10.0907 4.43961 86.3506
343 1 8.07233 2.63732 84.8165
344 1 11.5819 1.66412 83.0923
345 1 11.0573 1.9803 85.6562
346 1 10.4162 4.05799 83.7067
347 1 8.78139 2.288 82.2072
348 1 8.3704 2.9796 77.6269
349 1 9.03104 2.41098 75.0054
350 1 6.44596 2.28619 75.6269
351 2 7.25004 1.92409 72.9998
352 1 14.699 3.47529 86.9965
353 1 13.1827 4.04511 82.7578
354 1 12.523 4.5617 85.4913
355 2 11.3475 3.5528 80.9896
356 1 10.5045 4.27459 78.5283
357 1 16.9175 4.8074 86.7118
358 1 17.7888 4.17014 84.1252
359 1 12.5365 0.366435 77.6003
360 1 10.4227 1.59342 79.1846
361 1 12.67 2.86295 78.6447
362 1 9.62327 0.271004 76.8215
363 1 11.5893 0.999871 74.6881
364 2 10.9788 2.39048 76.8553
365 1 1.33936 2.14398 85.7174
366 1 15.4122 5.68257 82.6781
367 2 15.2406 4.28671 84.7252
368 1 13.5437 1.80596 80.7734
369 1 13.9544 2.0562 84.7943
370 1 15.7913 2.78339 82.678
371 2 14.7584 1.62884 78.4318
372 1 13.5283 2.43869 76.1156
373 1 14.9774 4.37636 77.7128
374 1 12.977 5.55508 79.1337
375 1 9.65512 0.510629 72.8956
376 1 11.3486 3.80507 74.7765
377 2 13.1573 2.66191 73.3482
378 1 13.9659 4.9965 74.7003
379 2 12.4679 4.74087 76.8056
380 1 11.3556 3.76946 72.0004
381 1 4.0116 3.38408 79.6055
382 1 1.51239 2.49365 76.973
383 1 2.71324 4.33067 73.0048
384 1 15.7538 3.01342 74.0316
385 2 2.98751 2.61059 74.7184
386 1 12.3219 1.03487 71.8489
387 1 14.5696 6.11763 86.6499
388 1 3.78601 6.17562 85.6751
389 2 3.64041 3.47441 86.441
390 2 17.3925 4.51341 81.4889
391 1 15.7286 5.9462 80.1024
392 1 8.25558 5.49901 87.6868
393 1 5.53547 4.23913 84.9472
394 2 7.08999 4.3716 82.8063
395 1 4.59398 4.71333 82.0161
396 1 6.7269 3.41826 80.5528
397 1 18.6839 6.05592 79.7362
398 1 6.93736 6.18109 80.9525
399 2 4.42871 5.0279 75.041
400 1 16.9491 4.89724 75.6301
401 1 4.12795 3.53383 76.8766
402 1 4.97216 5.95607 72.6764
403 1 8.18663 5.37698 84.9604
404 2 6.27557 6.50758 86.3727
405 2 17.5664 4.58068 78.2201
406 2 15.9531 5.6888 73.1291
407 1 9.31847 4.77914 81.0758
408 1 6.5211 5.07577 76.8446
409 1 6.99487 4.61736 74.2355
410 2 9.41671 4.71987 73.3242
411 1 7.44528 5.91573 71.8593
412 2 8.42343 5.5866 78.7828
413 1 9.1965 5.1258 76.0749
414 1 5.05769 3.05228 73.1211
415 2 1.5037 0.413679 70.3976
416 1 2.16931 0.50833 67.7459
417 1 10.0642 6.30827 71.4155
418 1 4.96122 0.693595 67.0351
419 1 4.09073 0.991077 69.6987
420 2 3.30514 0.175571 65.0423
421 1 1.98822 0.39083 62.735
422 1 8.46557 1.06024 70.6971
423 1 9.44402 0.412628 68.1285
424 1 8.27837 5.76575 62.8459
425 1 7.23731 1.97668 66.8191
426 2 6.79056 0.591696 68.9641
427 1 6.63094 0.523761 61.9536
428 1 4.48231 1.68956 63.2057
429 1 6.73813 6.51717 59.0547
430 1 5.4868 0.991621 58.8427
431 2 3.85931 0.928394 60.8277
432 1 6.78306 6.32899 56.2694
433 1 14.838 6.04636 63.7748
434 1 9.5784 0.30946 57.1809
435 1 11.3185 5.74527 58.313
436 1 14.2949 4.44173 71.7921
437 1 6.1242 2.49456 70.6953
438 1 10.7209 2.5227 69.6166
439 1 8.66935 3.6664 71.0508
440 2 14.5787 6.54244 70.4523
441 2 8.12742 2.89912 68.7812
442 1 9.7388 3.07298 66.8801
443 2 9.04958 0.792126 65.5299
444 1 7.35153 1.94274 64.15
445 1 15.1321 1.60463 71.7245
446 1 12.456 0.502772 68.9725
447 1 16.9272 5.23627 67.1153
448 2 14.1909 0.680019 66.8657
449 1 12.6902 2.97814 67.636
450 1 11.5148 0.947122 66.07
451 1 17.6851 6.36528 64.4759
452 1 10.2611 2.41953 64.0411
453 1 13.8637 2.34112 64.9851
454 2 11.8661 3.59988 65.2104
455 1 10.6452 2.54115 61.0632
456 2 11.3354 1.02255 59.127
457 1 12.6296 3.22594 59.2249
458 1 8.79332 1.03132 59.7679
459 1 14.9951 6.36737 61.152
460 1 12.884 3.28761 62.8118
461 1 9.68104 3.1761 58.3356
462 1 11.7116 1.99009 56.7947
463 1 15.1619 1.72025 68.9346
464 2 13.2787 2.74521 70.2486
465 1 14.9317 4.44864 68.9865
466 2 15.5587 2.9943 66.9659
467 1 2.3304 3.04071 69.0255
468 1 13.9457 5.03228 66.1988
469 1 16.2256 3.85781 64.7925
470 2 9.03604 0.687051 62.4315
471 2 7.40705 1.68129 57.5126
472 1 13.3895 4.34555 56.4125
473 1 4.92933 3.24029 68.2465
474 1 1.01388 1.13695 65.1454
475 1 13.2099 1.18776 61.1154
476 1 13.7426 0.701202 58.3478
477 2 0.792021 0.606163 57.5668
478 1 14.2019 1.87364 56.0733
479 2 5.355 2.76494 65.4947
480 1 2.87156 2.69777 66.4054
481 1 3.42054 3.92554 64.065
482 2 15.2465 1.87615 62.895
483 1 15.8492 1.11531 60.1477
484 2 16.6349 5.05152 62.4979
485 1 14.8646 3.68586 60.8387
486 1 15.373 3.14307 58.2946
487 1 2.4067 2.95066 61.6109
488 1 3.07156 2.64664 58.9777
489 1 15.879 5.68226 57.4363
490 1 16.9711 5.12783 70.7752
491 1 11.9772 5.79228 63.9844
492 2 4.11941 3.99416 70.835
493 1 3.77163 5.73018 68.8124
494 1 7.26608 4.7606 66.7738
495 1 6.61554 4.95019 69.3755
496 1 4.63009 5.31866 66.1419
497 1 3.72827 5.5753 61.8007
498 1 4.49684 5.10215 59.2309
499 1 17.1444 4.97819 59.7784
500 2 2.81335 4.42731 57.1648
501 1 8.13843 3.10774 61.8727
502 1 5.92203 4.28382 63.6574
503 1 5.261 3.05109 61.0283
504 1 7.26033 3.75303 59.1403
505 2 6.51828 5.23247 61.1813
506 1 12.2579 5.03636 69.73
507 1 9.39544 5.1181 65.0691
508 1 9.40231 5.12809 68.8116
509 1 11.3825 5.66838 66.8557
510 2 10.4021 4.48267 62.6206
511 1 9.26785 5.41066 60.2495
512 1 5.22878 3.37286 57.1476
513 2 8.78541 5.51905 57.6524
514 1 12.2766 5.22877 61.0314
515 2 13.872 5.29476 58.9357
516 1 7.92221 3.65438 56.0874
517 1 5.62644 0.545938 55.9783
518 1 4.00255 6.35639 55.3973
519 2 3.64807 5.29114 53.0196
520 1 5.15444 5.40636 50.8727
521 1 8.27706 0.855267 51.1625
522 1 8.18976 5.4431 51.8416
523 2 7.0942 6.16826 49.4593
524 1 6.05368 4.8439 45.0705
525 1 8.12841 5.38427 42.877
526 1 8.08996 5.42971 47.0365
527 1 5.28205 5.5875 42.2843
528 1 6.24019 0.318797 53.1416
529 2 10.9083 5.59044 51.1325
530 1 12.9211 5.6713 53.1096
531 1 5.42338 0.897886 50.3029
532 1 11.5102 6.24695 48.6653
533 1 4.92368 0.278915 40.6771
534 1 15.6856 5.62291 52.3663
535 2 16.1332 5.18887 49.5663
536 1 13.6531 5.21711 50.4517
537 1 14.1381 6.48794 48.1529
538 2 8.19215 1.13543 46.65
539 1 10.1703 5.8366 45.06
540 1 10.8752 5.49614 42.4501
541 1 13.0434 5.37493 45.9073
542 1 13.7821 4.79092 43.308
543 1 8.1962 0.892816 54.9415
544 1 3.53517 1.5414 47.9418
545 2 14.8523 6.47836 55.0025
546 2 12.2441 2.7966 54.3971
547 1 10.4135 1.51767 52.9918
548 1 14.1598 0.413524 51.1996
549 1 13.2514 0.729715 53.6329
550 1 12.7759 2.91774 51.7447
551 1 11.2091 0.865622 50.3786
552 1 10.6824 1.15377 45.7835
553 1 11.4271 0.589109 43.2309
554 1 8.61155 0.614908 43.8695
555 2 9.37021 0.0784815 41.2778
556 1 1.51186 2.13163 55.621
557 1 15.6166 2.88025 51.2693
558 1 14.8359 3.38787 53.8244
559 2 13.7422 2.28054 49.2308
560 1 12.5482 2.70179 46.7519
561 1 3.76433 3.55803 54.9741
562 1 4.82022 2.94129 52.3304
563 1 3.46793 5.42862 45.8396
564 1 16.7141 6.64875 47.4261
565 1 14.8327 1.47411 46.9089
566 1 15.944 5.29726 45.1094
567 1 17.9182 5.82385 43.1978
568 2 13.2018 0.810941 45.1069
569 1 3.45674 0.947155 53.9355
570 1 2.65771 4.31208 51.0086
571 2 2.18116 3.05338 53.1264
572 1 0.942215 1.11723 49.107
573 1 0.935796 0.827851 53.1042
574 1 2.73434 1.44122 51.0721
575 2 1.79989 0.186033 46.7558
576 1 0.518375 0.832778 44.2524
577 1 1.95138 2.77067 45.893
578 1 15.1942 4.11351 47.4245
579 1 15.6575 5.48036 41.329
580 1 13.7128 2.10853 43.0196
581 2 15.5683 1.02554 41.4039
582 1 16.4132 3.42977 43.1472
583 2 14.531 3.18254 45.2216
584 1 14.509 3.18094 40.7316
585 1 6.34848 2.24773 47.8221
586 1 3.62489 0.69146 45.0337
587 1 4.64291 2.96508 41.3757
588 1 2.71005 1.34102 42.4695
589 2 5.32295 0.983205 43.1066
590 1 13.1253 0.886497 40.765
591 1 16.9275 4.94257 54.8885
592 1 6.0726 4.95839 53.8846
593 2 6.13707 2.454 54.725
594 2 4.45708 3.04851 49.7192
595 1 2.53065 4.14591 48.3533
596 1 10.69 4.62179 55.7734
597 1 7.92068 2.90673 53.1627
598 2 9.55518 3.07342 51.0576
599 1 7.08603 3.35593 50.2505
600 1 9.06919 2.12259 48.8687
601 1 5.13099 5.01718 48.1659
602 1 9.29058 4.93763 49.2967
603 2 6.6754 3.26339 43.1468
604 1 4.04569 3.2788 43.9489
605 1 6.34856 1.86477 45.2105
606 1 7.06153 3.8992 40.6009
607 1 10.4314 4.08914 53.1494
608 2 8.70228 5.39529 54.4876
609 2 4.48734 3.16401 46.3764
610 2 17.8307 4.24645 40.8127
611 1 11.622 3.43046 49.2566
612 1 8.5812 3.37505 45.055
613 1 9.35416 2.92288 42.5208
614 2 11.9217 3.21212 41.5049
615 1 9.71717 4.34906 40.5235
616 2 10.4252 3.97446 46.901
617 1 11.2493 3.52334 44.291
618 1 7.34389 1.34221 41.5916
