Al78 Fe24
1.0
  14.7569279826422211    0.0000000000000000   -4.7350903386430723
  -0.0000000000000005    8.0814000000000004    0.0000000000000005
   0.0000000000000000    0.0000000000000000   12.4879999999999995
Al Fe
78 24
direct
   0.0670000000000000    0.0000000000000000    0.1738000000000000 Al
   0.9330000000000001    0.0000000000000000    0.8262000000000000 Al
   0.5669999999999999    0.5000000000000000    0.1738000000000000 Al
   0.4330000000000000    0.5000000000000000    0.8262000000000000 Al
   0.3213000000000000    0.0000000000000000    0.2812000000000000 Al
   0.6787000000000001    0.0000000000000000    0.7188000000000000 Al
   0.8212999999999999    0.5000000000000000    0.2812000000000000 Al
   0.1787000000000000    0.5000000000000000    0.7188000000000000 Al
   0.2381000000000000    0.0000000000000000    0.5339000000000000 Al
   0.7619000000000000    0.0000000000000000    0.4661000000000000 Al
   0.7381000000000000    0.5000000000000000    0.5339000000000000 Al
   0.2619000000000000    0.5000000000000000    0.4661000000000000 Al
   0.0734000000000000    0.0000000000000000    0.5800999999999999 Al
   0.9266000000000000    0.0000000000000000    0.4199000000000001 Al
   0.5734000000000000    0.5000000000000000    0.5800999999999999 Al
   0.4266000000000000    0.5000000000000000    0.4199000000000001 Al
   0.2415000000000000    0.0000000000000000    0.9614000000000000 Al
   0.7585000000000000    0.0000000000000000    0.0386000000000000 Al
   0.7415000000000000    0.5000000000000000    0.9614000000000000 Al
   0.2585000000000000    0.5000000000000000    0.0386000000000000 Al
   0.4786000000000000    0.0000000000000000    0.8297000000000000 Al
   0.5214000000000000    0.0000000000000000    0.1703000000000000 Al
   0.9786000000000000    0.5000000000000000    0.8297000000000000 Al
   0.0214000000000000    0.5000000000000000    0.1703000000000000 Al
   0.5000000000000000    0.0000000000000000    0.5000000000000000 Al
   0.0000000000000000    0.5000000000000000    0.5000000000000000 Al
   0.3060000000000000    0.0000000000000000    0.7729000000000000 Al
   0.6940000000000000    0.0000000000000000    0.2271000000000000 Al
   0.8060000000000000    0.5000000000000000    0.7729000000000000 Al
   0.1940000000000000    0.5000000000000000    0.2271000000000000 Al
   0.0862000000000000    0.0000000000000000    0.7887999999999999 Al
   0.9137999999999999    0.0000000000000000    0.2112000000000001 Al
   0.5862000000000001    0.5000000000000000    0.7887999999999999 Al
   0.4138000000000000    0.5000000000000000    0.2112000000000001 Al
   0.1859000000000000    0.2172000000000000    0.1112000000000000 Al
   0.8141000000000000    0.2172000000000000    0.8888000000000000 Al
   0.6859000000000000    0.7172000000000001    0.1112000000000000 Al
   0.3141000000000000    0.7172000000000001    0.8888000000000000 Al
   0.8141000000000000    0.7827999999999999    0.8888000000000000 Al
   0.1859000000000000    0.7827999999999999    0.1112000000000000 Al
   0.3141000000000000    0.2828000000000000    0.8888000000000000 Al
   0.6859000000000000    0.2828000000000000    0.1112000000000000 Al
   0.3673000000000000    0.2116000000000000    0.1101000000000000 Al
   0.6327000000000000    0.2116000000000000    0.8899000000000000 Al
   0.8673000000000000    0.7116000000000000    0.1101000000000000 Al
   0.1327000000000000    0.7116000000000000    0.8899000000000000 Al
   0.6327000000000000    0.7884000000000000    0.8899000000000000 Al
   0.3673000000000000    0.7884000000000000    0.1101000000000000 Al
   0.1327000000000000    0.2884000000000000    0.8899000000000000 Al
   0.8673000000000000    0.2884000000000000    0.1101000000000000 Al
   0.1772000000000000    0.2211000000000000    0.3343000000000000 Al
   0.8228000000000000    0.2211000000000000    0.6657000000000000 Al
   0.6772000000000000    0.7211000000000000    0.3343000000000000 Al
   0.3228000000000000    0.7211000000000000    0.6657000000000000 Al
   0.8228000000000000    0.7789000000000000    0.6657000000000000 Al
   0.1772000000000000    0.7789000000000000    0.3343000000000000 Al
   0.3228000000000000    0.2789000000000000    0.6657000000000000 Al
   0.6772000000000000    0.2789000000000000    0.3343000000000000 Al
   0.4920000000000000    0.2328000000000000    0.3296000000000000 Al
   0.5080000000000000    0.2328000000000000    0.6704000000000000 Al
   0.9920000000000000    0.7328000000000000    0.3296000000000000 Al
   0.0080000000000000    0.7328000000000000    0.6704000000000000 Al
   0.5080000000000000    0.7672000000000000    0.6704000000000000 Al
   0.4920000000000000    0.7672000000000000    0.3296000000000000 Al
   0.0080000000000000    0.2672000000000000    0.6704000000000000 Al
   0.9920000000000000    0.2672000000000000    0.3296000000000000 Al
   0.3636000000000000    0.2198000000000000    0.4781000000000000 Al
   0.6364000000000001    0.2198000000000000    0.5219000000000000 Al
   0.8635999999999999    0.7198000000000000    0.4781000000000000 Al
   0.1364000000000000    0.7198000000000000    0.5219000000000000 Al
   0.6364000000000001    0.7802000000000000    0.5219000000000000 Al
   0.3636000000000000    0.7802000000000000    0.4781000000000000 Al
   0.1364000000000000    0.2802000000000000    0.5219000000000000 Al
   0.8635999999999999    0.2802000000000000    0.4781000000000000 Al
   0.0000000000000000    0.2495000000000000    0.0000000000000000 Al
   0.5000000000000000    0.7495000000000001    0.0000000000000000 Al
   0.0000000000000000    0.7504999999999999    0.0000000000000000 Al
   0.5000000000000000    0.2505000000000000    0.0000000000000000 Al
   0.0855000000000000    0.0000000000000000    0.3823000000000000 Fe
   0.9145000000000000    0.0000000000000000    0.6177000000000000 Fe
   0.5855000000000000    0.5000000000000000    0.3823000000000000 Fe
   0.4145000000000000    0.5000000000000000    0.6177000000000000 Fe
   0.4019000000000000    0.0000000000000000    0.6228000000000000 Fe
   0.5981000000000001    0.0000000000000000    0.3772000000000000 Fe
   0.9018999999999999    0.5000000000000000    0.6228000000000000 Fe
   0.0981000000000000    0.5000000000000000    0.3772000000000000 Fe
   0.0908000000000000    0.0000000000000000    0.9885000000000000 Fe
   0.9092000000000000    0.0000000000000000    0.0115000000000000 Fe
   0.5908000000000000    0.5000000000000000    0.9885000000000000 Fe
   0.4092000000000000    0.5000000000000000    0.0115000000000000 Fe
   0.4028000000000000    0.0000000000000000    0.9863000000000000 Fe
   0.5972000000000000    0.0000000000000000    0.0137000000000000 Fe
   0.9028000000000000    0.5000000000000000    0.9863000000000000 Fe
   0.0972000000000000    0.5000000000000000    0.0137000000000000 Fe
   0.3201100000000000    0.2933000000000000    0.2779300000000000 Fe
   0.6798900000000000    0.2933000000000000    0.7220700000000000 Fe
   0.8201100000000000    0.7933000000000000    0.2779300000000000 Fe
   0.1798900000000000    0.7933000000000000    0.7220700000000000 Fe
   0.6798900000000000    0.7067000000000000    0.7220700000000000 Fe
   0.3201100000000000    0.7067000000000000    0.2779300000000000 Fe
   0.1798900000000000    0.2067000000000000    0.7220700000000000 Fe
   0.8201100000000000    0.2067000000000000    0.2779300000000000 Fe
