ITEM: TIMESTEP
5000
ITEM: NUMBER OF ATOMS
618
ITEM: BOX BOUNDS xy xz yz pp pp ff
0.0000000000000000e+00 1.9317770367296919e+01 4.0025167278329121e+00
0.0000000000000000e+00 6.6702723500479264e+00 0.0000000000000000e+00
0.0000000000000000e+00 1.0921147561319708e+02 0.0000000000000000e+00
ITEM: ATOMS id type x y z
1 1 4.25581 5.98442 5.8149
2 1 5.9286 6.2332 8.4599
3 1 4.09528 6.10498 13.0091
4 1 5.25009 0.232976 5.90325
5 1 7.53241 6.63944 10.7304
6 1 5.63891 6.35678 15.337
7 1 4.09535 5.90967 20.0512
8 1 11.9493 6.02887 5.98056
9 1 6.82808 0.633759 8.39398
10 1 5.05026 0.200691 13.1027
11 1 3.23199 0.0130786 17.7047
12 1 5.75039 6.31242 22.4206
13 1 4.09681 5.89758 27.0042
14 1 10.0718 1.21106 5.90333
15 1 13.5353 6.3556 8.3362
16 1 8.33965 0.890888 10.7626
17 1 11.8595 5.95886 13.0626
18 1 6.67715 0.490578 15.2415
19 1 4.88877 0.238333 20.0146
20 1 7.29108 6.60049 24.7149
21 1 5.64476 6.32665 29.3306
22 1 4.02218 6.15947 34.1639
23 1 12.99 0.198532 5.86702
24 1 12.4507 3.111 5.80008
25 1 11.752 1.64408 8.46214
26 1 10.9305 0.0586329 10.7041
27 1 10.767 2.82467 10.9049
28 1 10.0437 1.38438 13.1584
29 1 13.4691 6.34896 15.4487
30 1 8.34622 0.734268 17.8264
31 1 11.5132 5.89408 20.0482
32 1 6.4089 0.387787 22.3329
33 1 5.1182 0.473619 26.999
34 1 3.16123 0.132005 31.8286
35 1 5.52861 6.4927 36.777
36 1 15.1203 2.23175 6.09572
37 1 14.315 0.573548 8.42093
38 1 13.9675 3.42431 8.24876
39 1 13.2418 1.84484 10.6636
40 1 12.6607 0.193418 13.009
41 1 12.4214 3.009 13.1135
42 1 11.6184 1.54585 15.4905
43 1 15.0352 6.56355 17.6786
44 1 10.4162 2.7192 17.8618
45 1 9.90494 1.12932 20.1558
46 1 13.3505 6.11945 22.4546
47 1 8.15989 0.683228 24.6934
48 1 11.5526 5.9162 27.2337
49 1 6.5876 0.700236 29.4888
50 1 4.91725 0.263458 34.053
51 1 5.97873 6.37669 40.0845
52 1 2.55171 1.19254 5.82873
53 1 17.3334 3.93802 6.06267
54 1 16.5914 2.47423 8.55165
55 1 0.676435 0.916525 10.8416
56 1 15.5245 3.79123 10.7358
57 1 14.9683 2.25674 12.9526
58 1 14.3156 0.480993 15.3585
59 1 13.9665 3.41794 15.4653
60 1 13.3167 1.81169 17.7851
61 1 12.564 0.311717 20.035
62 1 12.0673 3.08831 20.1056
63 1 11.536 1.5116 22.3913
64 1 15.0345 6.57066 24.6142
65 1 10.5331 2.66586 24.9001
66 1 9.94689 1.10962 27.1341
67 1 13.2419 6.34733 29.333
68 1 8.13892 1.02557 31.9133
69 1 11.526 6.08111 34.0318
70 1 6.52758 0.732751 36.3653
71 1 4.77621 3.14821 5.85582
72 1 4.07912 1.51248 8.25658
73 1 3.62863 4.27725 8.38492
74 1 3.04382 2.85975 10.5506
75 1 2.38114 1.15584 12.9835
76 1 17.3018 4.0565 12.9906
77 1 16.5371 2.58556 15.3805
78 1 0.587099 0.871752 17.7634
79 1 15.6082 3.87019 17.7848
80 1 14.867 2.07453 20.1527
81 1 14.3124 0.507284 22.5491
82 1 13.7777 3.31234 22.377
83 1 13.1113 1.75042 24.782
84 1 12.7476 0.226044 26.9697
85 1 12.0562 3.15096 27.2622
86 1 11.5984 1.39267 29.3547
87 1 14.8201 6.6082 31.6356
88 1 10.3029 2.77108 31.7816
89 1 9.85604 1.04575 33.9599
90 1 13.2415 6.18764 36.3361
91 1 8.14526 0.704864 38.7685
92 1 7.43473 2.32881 6.05579
93 1 6.88924 5.14468 5.85083
94 1 6.50496 3.58358 8.58385
95 1 5.63406 1.98445 10.7099
96 1 5.35082 4.78033 10.8212
97 1 4.51064 2.99788 13.1465
98 1 3.85892 1.51302 15.4361
99 1 3.55335 4.43404 15.29
100 1 2.90738 2.7461 17.7985
101 1 2.31862 1.26407 20.1409
102 1 17.2534 4.22894 19.9954
103 1 16.5997 2.39794 22.4074
104 1 0.626806 0.881546 24.8953
105 1 15.3942 3.71566 24.631
106 1 14.8172 2.17733 27.0266
107 1 14.3245 0.51915 29.2811
108 1 13.8955 3.46701 29.2757
109 1 13.0945 1.79428 31.6604
110 1 12.5414 0.327561 33.8884
111 1 11.9034 3.31787 34.083
112 1 11.4589 1.61647 36.2088
113 1 10.7026 0.113638 38.8526
114 1 10.7475 2.92898 38.7914
115 1 9.85352 4.15227 5.70992
116 1 9.11531 2.46782 8.34791
117 1 8.63117 5.41614 8.43373
118 1 7.92466 3.68256 10.7646
119 1 7.25776 2.17801 13.0788
120 1 6.77345 4.94352 13.0416
121 1 6.13085 3.39888 15.3809
122 1 5.51176 1.83538 17.7259
123 1 5.34966 4.67671 17.5843
124 1 4.64592 3.13926 20.0557
125 1 3.81655 1.6233 22.34
126 1 3.44609 4.4287 22.5098
127 1 2.99775 2.75948 24.7996
128 1 2.17764 1.24793 27.0349
129 1 17.0648 4.12976 27.0276
130 1 16.5162 2.48802 29.4021
131 1 15.7593 0.835423 31.7466
132 1 15.4087 3.73989 31.7599
133 1 14.8391 2.20923 33.8779
134 1 14.154 0.431527 36.386
135 1 13.793 3.28479 36.2151
136 1 13.1311 2.03621 38.3141
137 1 11.3107 4.40087 8.3761
138 1 10.3067 5.67197 10.7947
139 1 9.55277 4.06738 13.1487
140 1 8.81105 2.47461 15.463
141 1 8.23213 5.18857 15.5179
142 1 7.90415 3.5668 17.7959
143 1 7.18715 2.0638 20.2573
144 1 6.71486 5.03359 20.1605
145 1 6.17062 3.43993 22.2873
146 1 5.54014 1.7744 24.6015
147 1 5.06636 4.64053 24.5485
148 1 4.536 3.20761 26.9547
149 1 3.91852 1.50593 29.3523
150 1 3.39887 4.4199 29.3924
151 1 2.84962 2.89054 31.6539
152 1 2.17251 1.24745 34.097
153 1 17.1083 4.16658 34.0516
154 1 16.588 2.52835 36.688
155 1 15.3476 0.860473 38.9216
156 1 15.5783 3.80013 38.7231
157 1 14.6689 5.10513 5.79812
158 1 12.8829 4.65098 10.8218
159 1 11.0609 4.35909 15.4272
160 1 9.92438 5.59548 17.7315
161 1 9.25692 4.09215 20.2052
162 1 8.7335 2.20693 22.6542
163 1 8.33927 5.24838 22.4342
164 1 7.74696 3.67692 24.7826
165 1 7.3283 2.17527 27.1308
166 1 6.90663 5.07493 27.032
167 1 5.98777 3.50225 29.2999
168 1 5.43844 1.95345 31.8591
169 1 5.03746 4.85178 31.6921
170 1 4.44309 3.16762 34.2188
171 1 3.878 1.3744 36.4132
172 1 3.30935 4.34218 36.422
173 1 2.79744 2.20881 39.1097
174 1 16.1928 5.35847 8.47642
175 1 14.5199 5.02834 13.1551
176 1 12.7441 4.61061 17.7039
177 1 11.1641 4.3155 22.527
178 1 10.013 5.69375 24.7565
179 1 9.49444 4.06966 26.9586
180 1 9.03022 2.58278 29.4312
181 1 8.33433 5.41104 29.4344
182 1 7.48089 3.85107 31.7114
183 1 7.07248 2.28441 34.0026
184 1 6.67695 5.02953 34.16
185 1 5.91573 3.57776 36.5117
186 1 5.52183 1.99783 38.6776
187 1 4.22132 4.42574 39.0817
188 1 17.7095 5.76382 10.619
189 1 15.9998 5.32497 15.4961
190 1 14.4263 4.98132 20.0335
191 1 12.7381 4.50221 24.8185
192 1 11.0903 4.47263 29.5521
193 1 9.79519 5.70333 31.6842
194 1 9.40012 4.08142 33.9804
195 1 8.64416 2.32511 36.1521
196 1 8.16765 5.44679 36.3879
197 1 7.94476 3.68172 38.305
198 1 17.8534 5.64496 17.745
199 1 16.0745 5.16396 22.1983
200 1 14.5353 5.12484 27.0625
201 1 12.6498 4.71332 31.7587
202 1 10.9218 4.54041 36.232
203 1 10.0181 5.67367 38.515
204 1 17.6751 5.61407 24.7499
205 1 16.0766 5.31298 29.4135
206 1 14.3021 4.85748 34.0109
207 1 12.8824 4.70309 38.9561
208 1 17.6738 5.73056 31.6978
209 1 16.0006 5.28771 36.2558
210 1 17.2713 5.74593 38.7153
211 2 14.4101 1.46347 102.185
212 1 14.8773 0.959267 99.4687
213 1 3.56176 0.414467 103.365
214 1 2.28392 1.10549 98.8469
215 1 1.57843 1.67422 101.551
216 2 0.460367 0.445777 96.832
217 1 14.7358 1.39656 94.6002
218 1 5.92338 1.76516 102.821
219 1 6.7216 1.20359 100.154
220 1 1.74907 0.0767055 94.7419
221 1 4.50632 2.52933 98.8136
222 2 4.12051 1.16184 100.951
223 1 4.0729 1.4818 93.8865
224 1 1.92104 2.75171 95.3164
225 1 15.6998 0.886745 90.782
226 1 3.19887 2.07278 90.9525
227 2 1.40396 1.95149 92.858
228 1 0.708232 1.04424 88.0349
229 1 8.15894 0.179369 95.6338
230 1 7.21507 1.52966 88.9753
231 1 4.78899 0.0714406 90.044
232 1 11.7552 4.98691 103.495
233 1 3.68614 3.18417 102.439
234 1 8.16705 3.11323 102.205
235 1 5.82053 4.54268 103.312
236 2 8.02237 0.515578 102.274
237 2 5.65185 3.53692 100.911
238 1 7.12711 3.8462 98.8871
239 2 6.56625 1.67302 97.55
240 1 4.79096 3.08675 96.1167
241 1 12.9434 2.62694 103.533
242 1 10.1649 1.53692 101.597
243 1 13.8689 5.94036 98.9995
244 2 11.1348 1.41422 99.2271
245 1 10.0471 3.56843 99.9201
246 1 8.90145 1.9355 97.9702
247 1 10.822 0.447035 96.7613
248 1 7.79306 3.27198 95.8249
249 1 11.2557 3.20384 96.9623
250 2 9.11311 4.52304 97.2761
251 1 8.21052 3.4876 93.0263
252 2 8.91761 2.15355 90.8382
253 1 10.1382 4.30506 91.076
254 1 6.11277 2.06725 91.5651
255 1 8.54624 0.652322 92.9534
256 1 10.3291 4.18076 94.749
257 1 7.37635 4.16454 90.1139
258 1 9.40768 3.06855 88.4935
259 1 12.648 2.37864 100.789
260 2 10.7169 3.45158 102.446
261 1 12.2457 5.22606 100.778
262 2 13.006 3.66355 98.7197
263 1 14.9067 3.66865 100.383
264 1 11.2526 5.7104 98.084
265 1 13.569 4.46364 96.4934
266 2 6.46882 1.77354 94.2903
267 2 5.07854 2.89954 89.2757
268 1 10.8082 5.37532 88.4762
269 1 17.5772 3.94948 99.8623
270 1 13.4627 1.70812 97.0958
271 1 10.8449 2.05679 92.8212
272 1 11.4625 1.67833 90.0111
273 2 14.1368 2.06405 89.3112
274 1 12.0886 3.10507 87.8826
275 2 2.83128 3.98731 97.3791
276 1 15.777 3.09804 97.7567
277 1 16.1666 5.13634 95.8274
278 2 12.5914 2.6444 94.6388
279 1 13.5981 2.16876 92.0225
280 2 14.2728 6.41019 94.383
281 1 12.381 4.75637 92.827
282 1 12.8711 4.27368 90.2721
283 1 15.1775 4.03514 93.7049
284 1 15.9137 3.47108 90.9879
285 1 9.41689 0.0319218 89.069
286 1 14.4565 5.51574 102.664
287 1 5.47736 0.103717 95.9321
288 2 16.7662 4.24406 102.418
289 1 16.2897 6.25408 100.85
290 1 4.66446 5.27152 98.8765
291 1 4.06609 5.92622 101.51
292 1 16.9646 6.02906 98.3021
293 1 16.6539 6.5339 93.5627
294 1 17.3212 6.08947 90.8945
295 1 14.7474 6.0278 91.5695
296 2 15.7075 5.50445 88.9806
297 1 5.68653 4.12238 93.5756
298 1 3.50464 5.22551 95.0355
299 1 2.74305 4.00324 92.5515
300 1 4.73773 4.91235 90.7473
301 2 4.03486 6.2361 92.8619
302 1 9.74812 5.70862 101.907
303 1 6.82062 5.80459 96.8705
304 1 6.9292 5.64729 100.986
305 1 8.73856 6.40378 98.8207
306 2 7.88145 5.48067 94.5045
307 1 6.74176 6.22877 92.0735
308 1 2.71609 3.8911 88.9884
309 2 6.38108 6.59309 89.4873
310 1 9.78439 6.24577 92.9694
311 2 11.3696 6.47212 90.9475
312 1 5.40793 4.96237 87.8852
313 1 3.55062 1.44936 87.8683
314 1 13.4771 0.898188 87.1422
315 2 16.8288 6.60312 84.9055
316 1 14.2865 0.0922752 82.8382
317 1 5.94919 2.44442 83.0791
318 1 2.13167 0.229065 83.5953
319 2 0.733386 0.592499 81.1145
320 1 3.58559 5.95984 77.1057
321 1 5.51021 6.61428 75.1157
322 1 5.66483 6.4483 78.8521
323 1 17.9957 6.45003 74.0876
324 1 4.1386 1.68803 84.9984
325 2 4.69239 0.321015 82.9274
326 1 6.66602 0.413208 84.8947
327 1 3.33745 2.42145 82.0317
328 1 5.26837 1.14233 80.5254
329 1 2.29478 1.26876 72.4988
330 1 9.30409 0.143386 84.1649
331 2 13.6389 6.37553 81.4228
332 1 11.1149 6.57498 82.2886
333 1 7.76251 1.12971 79.8394
334 2 5.89519 2.44914 78.3521
335 1 3.77919 0.464035 76.9488
336 1 4.3741 0.0472762 74.4413
337 1 10.3797 6.28921 77.6794
338 1 11.4145 6.10402 75.1472
339 1 6.18825 2.38481 86.8367
340 1 1.55885 2.44102 79.8357
341 2 8.44343 0.916456 86.8539
342 2 9.97772 4.10566 86.3756
343 1 8.23546 2.79654 84.8828
344 1 11.9285 1.65214 83.032
345 1 11.1114 1.92751 85.6608
346 1 10.5076 3.98863 83.7396
347 1 9.03862 2.29873 82.1515
348 1 8.31784 2.24236 77.5214
349 1 8.81852 1.90576 74.939
350 1 6.15541 1.87429 75.7419
351 2 6.84472 1.08873 73.1633
352 1 14.8259 3.44762 87.1363
353 1 13.2448 4.31408 82.9767
354 1 12.5168 4.70643 85.7293
355 2 11.3652 3.4981 81.0713
356 1 10.1133 3.85424 78.7407
357 1 16.9997 4.85191 86.7272
358 1 2.7068 4.2327 84.0763
359 1 16.3797 6.52853 77.6652
360 1 10.271 0.971949 79.1911
361 1 12.3863 2.50099 78.8212
362 1 13.5913 6.41715 76.8236
363 1 11.4004 0.471069 74.8313
364 2 10.7622 1.96535 76.8265
365 1 1.56987 2.18339 85.6019
366 1 15.6023 5.64064 82.7666
367 2 15.2898 4.33174 84.8504
368 1 14.0319 2.46599 80.8635
369 1 14.0211 2.19665 84.6665
370 1 16.0189 2.71961 82.7943
371 2 14.6368 1.40267 78.5425
372 1 13.6788 1.99888 76.1519
373 1 14.7439 3.75958 77.9947
374 1 12.6922 5.17916 79.3016
375 1 13.1775 6.39694 73.0908
376 1 11.1073 3.38043 74.9857
377 2 13.1589 2.22556 73.5307
378 1 13.774 4.38218 74.8681
379 2 12.1473 4.27239 77.0492
380 1 11.46 3.61387 72.2459
381 1 4.11892 3.65206 79.6331
382 1 1.4333 1.93943 77.1556
383 1 2.57115 3.82213 73.1594
384 1 15.6 2.35133 74.1
385 2 2.84288 2.17864 74.983
386 1 11.795 0.753833 71.9632
387 1 14.6887 6.24141 86.7333
388 1 4.04346 6.38968 85.517
389 2 3.84278 3.67473 86.6222
390 2 17.4733 4.4962 81.5213
391 1 15.3943 5.14626 80.1245
392 1 8.10542 5.48497 87.5273
393 1 5.91629 4.45051 85.0767
394 2 7.41117 4.40902 82.8404
395 1 4.81415 4.85057 82.0703
396 1 6.92061 3.57582 80.5376
397 1 18.0098 6.33507 80.1447
398 1 6.992 6.45326 81.043
399 2 4.21819 4.53944 74.9494
400 1 16.6798 4.56323 75.6986
401 1 3.95373 3.08681 77.1667
402 1 4.77928 5.25855 72.6291
403 1 8.50471 5.4827 84.851
404 2 2.51938 0.0949891 86.1696
405 2 17.3338 4.30814 78.3517
406 2 15.7333 5.17401 73.3331
407 1 9.1785 4.95046 81.3855
408 1 6.17207 4.52839 76.7587
409 1 7.02271 4.07163 74.248
410 2 9.57265 4.78617 73.5325
411 1 7.30495 5.62844 71.9392
412 2 8.05436 5.28519 78.7795
413 1 8.88698 4.57549 76.1074
414 1 4.83389 2.53273 73.2428
415 2 5.21197 6.47241 70.4043
416 1 5.89686 6.57224 67.7943
417 1 10.0152 5.98963 71.3959
418 1 4.57893 0.0726945 67.0871
419 1 3.86503 0.509784 69.7012
420 2 6.81045 6.11584 65.1183
421 1 5.5388 6.26803 62.8059
422 1 8.27476 0.790557 70.9248
423 1 9.18517 0.117228 68.2406
424 1 7.82232 5.15373 62.9636
425 1 6.95709 1.3173 66.7257
426 2 6.53947 0.10581 68.9723
427 1 10.1743 6.58839 61.7956
428 1 3.99561 1.1867 63.2184
429 1 6.46194 5.85023 58.9348
430 1 5.15444 0.512129 58.8366
431 2 3.52195 0.14034 61.0209
432 1 6.89082 6.007 56.3356
433 1 14.8138 6.18735 63.7346
434 1 13.294 6.3135 57.1136
435 1 10.8812 5.06092 58.174
436 1 14.3335 3.92546 71.8607
437 1 6.08689 2.14284 70.7176
438 1 10.5307 2.07752 69.7613
439 1 8.64722 3.40945 71.4035
440 2 14.2463 6.08549 70.568
441 2 8.03477 2.36096 68.9173
442 1 9.45838 2.53003 66.7966
443 2 8.80144 0.221818 65.4726
444 1 6.70236 0.992827 64.1406
445 1 14.7569 0.829336 71.7421
446 1 12.3096 0.0565792 69.0562
447 1 16.5474 4.7379 67.2066
448 2 13.95 0.154643 66.9905
449 1 12.5654 2.51134 67.6418
450 1 11.431 0.529968 66.1929
451 1 17.5605 5.9448 64.6327
452 1 9.49738 1.99239 64.0411
453 1 13.6525 1.86391 65.0284
454 2 11.5938 3.20812 65.4296
455 1 10.3903 1.7591 61.0875
456 2 10.9981 0.264759 59.0744
457 1 12.2247 2.52292 59.1741
458 1 8.30613 0.376576 59.8134
459 1 14.4594 5.58494 61.147
460 1 12.2995 2.42168 62.9232
461 1 9.39361 2.22599 58.2283
462 1 11.5526 1.31549 56.8172
463 1 15.0404 1.23452 69.1396
464 2 13.0456 2.37137 70.3522
465 1 14.6956 3.89737 69.0083
466 2 15.244 2.49075 67.0679
467 1 2.04114 2.66815 69.0431
468 1 13.8016 4.71347 66.0666
469 1 15.9211 3.47215 64.7982
470 2 8.6995 0.203629 62.3123
471 2 7.1839 1.08441 57.2654
472 1 13.0181 3.7182 56.6106
473 1 4.71961 2.70122 68.2347
474 1 0.764411 0.730157 65.2524
475 1 12.9403 0.146177 60.8742
476 1 17.5763 6.39719 58.3069
477 2 0.667256 0.0482983 57.4506
478 1 14.0909 1.37807 56.0288
479 2 4.96895 2.23328 65.4655
480 1 2.63001 2.2509 66.4975
481 1 2.98683 3.48707 64.0301
482 2 14.7432 1.10283 62.8765
483 1 15.5732 0.493051 60.184
484 2 16.4077 4.74238 62.5262
485 1 14.2825 2.87997 60.9255
486 1 14.9817 2.49465 58.2456
487 1 1.80427 2.24692 61.7669
488 1 2.68359 1.82137 59.1887
489 1 15.5728 4.95624 57.4023
490 1 16.7155 4.92109 70.9679
491 1 11.8896 5.03387 63.864
492 2 3.79387 3.34773 70.9255
493 1 3.55658 5.1608 68.711
494 1 7.16414 4.01719 66.8512
495 1 6.45354 4.51798 69.5082
496 1 4.40263 4.87356 65.9681
497 1 3.58341 4.7125 61.7068
498 1 4.14922 4.41201 59.0591
499 1 16.8056 4.16125 59.7757
500 2 2.51717 3.9216 57.1064
501 1 7.62614 2.46999 61.8247
502 1 5.58002 3.51703 63.4572
503 1 4.90046 2.3321 60.8563
504 1 6.76645 3.06206 58.8464
505 2 6.12765 4.45921 61.0003
506 1 12.2577 4.73307 69.7688
507 1 9.41935 4.85895 65.1108
508 1 9.26662 4.60297 68.8591
509 1 11.2413 5.22672 66.8882
510 2 9.99577 3.89408 62.6203
511 1 8.7894 4.5426 60.3339
512 1 4.66294 2.23175 56.9807
513 2 8.49123 4.77837 57.6607
514 1 11.8216 4.52221 60.8935
515 2 13.6036 4.61129 58.9211
516 1 7.51718 3.09166 55.9516
517 1 9.77857 6.25044 55.8612
518 1 4.1932 5.96516 55.1758
519 2 3.46439 4.98301 52.8361
520 1 5.0595 5.2915 50.7234
521 1 8.43279 0.677262 51.0697
522 1 8.2323 5.373 51.6997
523 2 6.89333 5.92151 49.4212
524 1 5.91441 4.47816 45.1307
525 1 7.70564 5.13542 42.7948
526 1 7.65811 4.93456 47.1091
527 1 4.87329 5.13559 42.4015
528 1 6.19016 0.138798 53.0088
529 2 10.8219 5.36802 51.1146
530 1 12.8024 5.41348 53.0513
531 1 5.3041 0.792484 50.4242
532 1 11.3007 6.3956 48.7356
533 1 4.50406 0.166475 40.6854
534 1 15.5042 5.38655 52.3119
535 2 15.7598 4.92234 49.5387
536 1 13.375 4.91766 50.4164
537 1 13.8899 6.36391 48.128
538 2 8.00919 0.96201 46.5347
539 1 9.73114 5.60908 45.1207
540 1 10.6292 5.31783 42.5382
541 1 12.8923 4.98009 45.7849
542 1 13.5829 4.60217 43.2577
543 1 8.23807 0.690251 54.844
544 1 3.39511 1.10907 48.0189
545 2 14.6147 5.98812 54.9678
546 2 12.1068 2.52055 54.551
547 1 10.3855 1.27316 52.9762
548 1 13.964 0.241263 51.0059
549 1 13.3563 0.528786 53.586
550 1 12.7285 2.83933 51.8123
551 1 11.2112 0.791738 50.234
552 1 10.5028 0.868251 45.6598
553 1 11.1138 0.384745 43.189
554 1 8.41025 0.374481 43.8615
555 2 13.1883 6.40165 41.1808
556 1 1.47648 1.91241 55.4998
557 1 15.3097 2.83119 51.164
558 1 14.7748 3.19411 53.9061
559 2 13.5393 1.86044 49.0893
560 1 12.5019 2.36851 46.9042
561 1 3.77153 3.33643 54.7808
562 1 4.85459 2.85613 52.2195
563 1 3.22927 5.104 45.7061
564 1 16.4363 6.08742 47.35
565 1 14.6804 1.08517 46.8377
566 1 15.6224 4.92694 44.9728
567 1 17.4672 5.52479 43.0032
568 2 12.9932 0.446939 45.055
569 1 3.58412 0.699161 53.8054
570 1 17.6275 4.08205 50.7613
571 2 1.98283 2.78969 53.0804
572 1 0.765073 1.02931 49.0274
573 1 0.749622 0.577399 52.8953
574 1 2.66937 1.34701 50.9753
575 2 5.41859 6.57466 46.7093
576 1 15.4497 0.44018 44.0157
577 1 1.65984 2.35462 45.9031
578 1 14.8827 3.73091 47.4215
579 1 15.4363 5.25147 41.0623
580 1 13.3658 1.83162 42.9701
581 2 15.3067 0.684909 41.3537
582 1 16.08 3.0398 43.0752
583 2 14.4795 2.81041 45.1427
584 1 14.0997 2.95672 40.7712
585 1 6.10382 2.14574 47.8568
586 1 3.44477 0.379866 45.335
587 1 4.16798 2.63731 41.3888
588 1 2.30391 0.865362 42.6223
589 2 5.0415 0.664956 43.2108
590 1 12.7781 0.813664 40.6341
591 1 16.8377 4.91016 54.9038
592 1 6.16516 4.61284 53.8227
593 2 5.75659 1.90297 54.5655
594 2 4.21357 3.04888 49.6384
595 1 2.22086 3.68544 48.169
596 1 10.1265 3.50622 55.959
597 1 7.81846 2.72583 52.9799
598 2 9.52292 2.98683 51.0356
599 1 6.86613 3.28985 50.4287
600 1 8.97349 2.09542 48.7665
601 1 4.91696 4.68969 47.9998
602 1 9.11741 4.76994 49.27
603 2 6.39823 2.96655 43.1893
604 1 3.67933 2.92191 43.9094
605 1 6.07111 1.65968 45.1671
606 1 6.6031 3.72662 40.6985
607 1 10.481 3.95779 53.1642
608 2 8.46173 4.93456 54.4257
609 2 4.09151 2.78163 46.4295
610 2 17.4307 3.90628 40.737
611 1 11.3708 3.33077 49.1374
612 1 8.45879 3.02862 44.9844
613 1 8.96243 2.60779 42.2705
614 2 11.4411 2.98184 41.4147
615 1 9.33943 4.22926 40.5649
616 2 10.1705 3.696 46.9311
617 1 11.1608 3.18343 44.3833
618 1 6.96377 1.05485 41.4192
