LAMMPS (29 Aug 2024)
OMP_NUM_THREADS environment is not set. Defaulting to 1 thread. (src/comm.cpp:98)
  using 1 OpenMP thread(s) per MPI task
# Real sanity run: 0 MPa control with fixed bottom support.
# No loading force is applied in this control run.
# No NPT is used.

units metal
dimension 3
boundary p p f
atom_style atomic

read_data ../../../02_interface_relax/trial_001/data.interface_nvt_300k_long
Reading data file ...
  triclinic box = (0 0 0) to (15.315254 6.6702724 109.21148) with tilt (4.0025167 0 0)
WARNING: Triclinic box skew is large. LAMMPS will run inefficiently. (src/domain.cpp:221)
  1 by 1 by 1 MPI processor grid
  reading atoms ...
  618 atoms
  reading velocities ...
  618 velocities
  read_data CPU = 0.008 seconds
reset_timestep 0

mass 1 26.9815385
mass 2 55.845

pair_style meam
pair_coeff * * ../../../../potentials/meam/Jelinek_2012/Jelinek_2012_meamf AlS SiS MgS CuS FeS ../../../../potentials/meam/Jelinek_2012/Jelinek_2012_meam.alsimgcufe AlS FeS

neighbor 2.0 bin
neigh_modify delay 0 every 1 check yes

variable interface_z equal 40.16445
variable region_width equal 8.0
variable z_bottom_fixed_hi equal 9.709919949401659
variable z_fe_load_lo equal ${interface_z}
variable z_fe_load_lo equal 40.16445
variable z_fe_load_hi equal ${interface_z}+${region_width}
variable z_fe_load_hi equal 40.16445+${region_width}
variable z_fe_load_hi equal 40.16445+8
variable z_al_monitor_lo equal ${interface_z}-${region_width}
variable z_al_monitor_lo equal 40.16445-${region_width}
variable z_al_monitor_lo equal 40.16445-8
variable z_al_monitor_hi equal ${interface_z}
variable z_al_monitor_hi equal 40.16445

group al_slab id 1:210
210 atoms in group al_slab
group fe4al13_slab id 211:618
408 atoms in group fe4al13_slab

region bottom_fixed_region block INF INF INF INF INF ${z_bottom_fixed_hi} units box
region bottom_fixed_region block INF INF INF INF INF 9.70991994940166 units box
region fe_load_region block INF INF INF INF ${z_fe_load_lo} ${z_fe_load_hi} units box
region fe_load_region block INF INF INF INF 40.16445 ${z_fe_load_hi} units box
region fe_load_region block INF INF INF INF 40.16445 48.16445 units box
region al_monitor_region block INF INF INF INF ${z_al_monitor_lo} ${z_al_monitor_hi} units box
region al_monitor_region block INF INF INF INF 32.16445 ${z_al_monitor_hi} units box
region al_monitor_region block INF INF INF INF 32.16445 40.16445 units box

group bottom_fixed_region_group region bottom_fixed_region
28 atoms in group bottom_fixed_region_group
group fe_load_region_group region fe_load_region
52 atoms in group fe_load_region_group
group al_monitor_region_group region al_monitor_region
42 atoms in group al_monitor_region_group
group fixed_bottom intersect al_slab bottom_fixed_region_group
28 atoms in group fixed_bottom
group fe_load intersect fe4al13_slab fe_load_region_group
52 atoms in group fe_load
group al_monitor intersect al_slab al_monitor_region_group
42 atoms in group al_monitor
group mobile subtract all fixed_bottom
590 atoms in group mobile

velocity mobile create 300.0 24680 mom yes rot no dist gaussian
velocity fixed_bottom set 0.0 0.0 0.0

fix hold_bottom fixed_bottom setforce 0.0 0.0 0.0
compute temp_mobile mobile temp
fix nvt_mobile mobile nvt temp 300.0 300.0 0.1
fix_modify nvt_mobile temp temp_mobile
WARNING: Temperature for fix modify is not for group all (src/fix_nh.cpp:1399)

compute pe_atom all pe/atom
compute stress_atom all stress/atom NULL virial

dump d1 all custom 100 dump.interface_stress_000mpa_control.lammpstrj id type x y z c_pe_atom c_stress_atom[1] c_stress_atom[2] c_stress_atom[3] c_stress_atom[4] c_stress_atom[5] c_stress_atom[6]
dump_modify d1 sort id

thermo 100
thermo_style custom step temp c_temp_mobile pe ke etotal press vol lx ly lz xy xz yz

run 5000

CITE-CITE-CITE-CITE-CITE-CITE-CITE-CITE-CITE-CITE-CITE-CITE-CITE

Your simulation uses code contributions which should be cited:

- Type Label Framework: https://doi.org/10.1021/acs.jpcb.3c08419

@Article{Gissinger24,
 author = {Jacob R. Gissinger, Ilia Nikiforov, Yaser Afshar, Brendon Waters, Moon-ki Choi, Daniel S. Karls, Alexander Stukowski, Wonpil Im, Hendrik Heinz, Axel Kohlmeyer, and Ellad B. Tadmor},
 title = {Type Label Framework for Bonded Force Fields in LAMMPS},
 journal = {J. Phys. Chem. B},
 year =    2024,
 volume =  128,
 number =  13,
 pages =   {3282–-3297}
}

CITE-CITE-CITE-CITE-CITE-CITE-CITE-CITE-CITE-CITE-CITE-CITE-CITE

Neighbor list info ...
  update: every = 1 steps, delay = 0 steps, check = yes
  max neighbors/atom: 2000, page size: 100000
  master list distance cutoff = 7
  ghost atom cutoff = 7
  binsize = 3.5, bins = 6 2 32
  2 neighbor lists, perpetual/occasional/extra = 2 0 0
  (1) pair meam, perpetual
      attributes: full, newton on
      pair build: full/bin/atomonly
      stencil: full/bin/3d
      bin: standard
  (2) pair meam, perpetual, half/full from (1)
      attributes: half, newton on
      pair build: halffull/newton/tri
      stencil: none
      bin: none
Per MPI rank memory allocation (min/avg/max) = 10.32 | 10.32 | 10.32 Mbytes
   Step          Temp      c_temp_mobile      PotEng         KinEng         TotEng         Press          Volume           Lx             Ly             Lz             Xy             Xz             Yz      
         0   286.38574      300           -2123.0231      22.840268     -2100.1828     -4879.2272      11156.707      15.315254      6.6702724      109.21148      4.0025167      0              0            
       100   287.56028      301.23038     -2122.7071      22.933942     -2099.7732     -4215.5508      11156.707      15.315254      6.6702724      109.21148      4.0025167      0              0            
       200   302.35727      316.73079     -2122.0797      24.114053     -2097.9657     -3456.0445      11156.707      15.315254      6.6702724      109.21148      4.0025167      0              0            
       300   302.29918      316.66994     -2121.8548      24.109421     -2097.7454     -3660.2176      11156.707      15.315254      6.6702724      109.21148      4.0025167      0              0            
       400   293.40167      307.34946     -2121.8326      23.399813     -2098.4328     -4450.4701      11156.707      15.315254      6.6702724      109.21148      4.0025167      0              0            
       500   277.60802      290.80501     -2121.4168      22.140214     -2099.2765     -4455.5853      11156.707      15.315254      6.6702724      109.21148      4.0025167      0              0            
       600   279.72482      293.02244     -2121.9868      22.309036     -2099.6778     -5331.3696      11156.707      15.315254      6.6702724      109.21148      4.0025167      0              0            
       700   262.72462      275.21408     -2120.5881      20.953211     -2099.6349     -5161.8591      11156.707      15.315254      6.6702724      109.21148      4.0025167      0              0            
       800   291.48057      305.33704     -2121.5694      23.246599     -2098.3228     -5348.3618      11156.707      15.315254      6.6702724      109.21148      4.0025167      0              0            
       900   294.42882      308.42543     -2120.7847      23.481732     -2097.303      -5073.0734      11156.707      15.315254      6.6702724      109.21148      4.0025167      0              0            
      1000   300.56614      314.85451     -2122.1886      23.971204     -2098.2174     -4245.4409      11156.707      15.315254      6.6702724      109.21148      4.0025167      0              0            
      1100   279.30859      292.58642     -2122.1153      22.275841     -2099.8394     -5265.9138      11156.707      15.315254      6.6702724      109.21148      4.0025167      0              0            
      1200   284.55992      298.08738     -2122.7021      22.694652     -2100.0075     -5833.7909      11156.707      15.315254      6.6702724      109.21148      4.0025167      0              0            
      1300   298.48887      312.6785      -2123.2939      23.805535     -2099.4884     -5709.1067      11156.707      15.315254      6.6702724      109.21148      4.0025167      0              0            
      1400   293.85676      307.82618     -2122.5975      23.436108     -2099.1614     -4340.9543      11156.707      15.315254      6.6702724      109.21148      4.0025167      0              0            
      1500   294.20393      308.18985     -2121.6399      23.463796     -2098.1761     -4386.4222      11156.707      15.315254      6.6702724      109.21148      4.0025167      0              0            
      1600   304.77951      319.26818     -2121.2898      24.307235     -2096.9825     -3290.541       11156.707      15.315254      6.6702724      109.21148      4.0025167      0              0            
      1700   284.31609      297.83196     -2120.4906      22.675206     -2097.8154     -4640.6964      11156.707      15.315254      6.6702724      109.21148      4.0025167      0              0            
      1800   274.11018      287.14089     -2121.497       21.861249     -2099.6357     -4594.8523      11156.707      15.315254      6.6702724      109.21148      4.0025167      0              0            
      1900   275.49297      288.58941     -2121.8621      21.971531     -2099.8905     -5028.24        11156.707      15.315254      6.6702724      109.21148      4.0025167      0              0            
      2000   285.13772      298.69265     -2122.469       22.740734     -2099.7282     -4195.7936      11156.707      15.315254      6.6702724      109.21148      4.0025167      0              0            
      2100   294.84726      308.86377     -2122.5838      23.515104     -2099.0687     -4172.6979      11156.707      15.315254      6.6702724      109.21148      4.0025167      0              0            
      2200   302.74757      317.13964     -2121.6762      24.145181     -2097.531      -3958.3395      11156.707      15.315254      6.6702724      109.21148      4.0025167      0              0            
      2300   285.31238      298.87562     -2120.3254      22.754663     -2097.5708     -3201.773       11156.707      15.315254      6.6702724      109.21148      4.0025167      0              0            
      2400   299.20434      313.42798     -2123.3312      23.862596     -2099.4686     -4798.9479      11156.707      15.315254      6.6702724      109.21148      4.0025167      0              0            
      2500   280.8921       294.24521     -2122.7538      22.402131     -2100.3516     -3965.046       11156.707      15.315254      6.6702724      109.21148      4.0025167      0              0            
      2600   303.07711      317.48485     -2124.0005      24.171463     -2099.829      -5559.6199      11156.707      15.315254      6.6702724      109.21148      4.0025167      0              0            
      2700   296.37677      310.46599     -2122.9197      23.637088     -2099.2826     -4521.8129      11156.707      15.315254      6.6702724      109.21148      4.0025167      0              0            
      2800   292.06263      305.94676     -2121.9174      23.293019     -2098.6244     -3687.1433      11156.707      15.315254      6.6702724      109.21148      4.0025167      0              0            
      2900   302.74419      317.1361      -2121.7275      24.144911     -2097.5825     -4557.2951      11156.707      15.315254      6.6702724      109.21148      4.0025167      0              0            
      3000   283.44573      296.92023     -2120.7914      22.605792     -2098.1856     -4744.308       11156.707      15.315254      6.6702724      109.21148      4.0025167      0              0            
      3100   286.47107      300.08938     -2122.8396      22.847073     -2099.9925     -4445.2521      11156.707      15.315254      6.6702724      109.21148      4.0025167      0              0            
      3200   275.49245      288.58887     -2122.3796      21.97149      -2100.4081     -5525.3873      11156.707      15.315254      6.6702724      109.21148      4.0025167      0              0            
      3300   276.7853       289.94318     -2121.8866      22.074599     -2099.812      -4340.4759      11156.707      15.315254      6.6702724      109.21148      4.0025167      0              0            
      3400   291.95365      305.8326      -2121.9261      23.284328     -2098.6418     -4442.6241      11156.707      15.315254      6.6702724      109.21148      4.0025167      0              0            
      3500   304.39228      318.86254     -2121.4358      24.276352     -2097.1594     -3369.0161      11156.707      15.315254      6.6702724      109.21148      4.0025167      0              0            
      3600   308.45432      323.11769     -2119.714       24.600315     -2095.1136     -2929.4678      11156.707      15.315254      6.6702724      109.21148      4.0025167      0              0            
      3700   313.30914      328.20329     -2121.0097      24.987503     -2096.0222     -3914.8869      11156.707      15.315254      6.6702724      109.21148      4.0025167      0              0            
      3800   295.35433      309.39494     -2121.4713      23.555544     -2097.9158     -5278.4352      11156.707      15.315254      6.6702724      109.21148      4.0025167      0              0            
      3900   288.67174      302.39468     -2122.354       23.022585     -2099.3314     -4825.8819      11156.707      15.315254      6.6702724      109.21148      4.0025167      0              0            
      4000   276.18803      289.31752     -2122.5426      22.026965     -2100.5157     -4154.5587      11156.707      15.315254      6.6702724      109.21148      4.0025167      0              0            
      4100   273.65694      286.6661      -2122.3759      21.825102     -2100.5508     -4541.675       11156.707      15.315254      6.6702724      109.21148      4.0025167      0              0            
      4200   278.6858       291.93403     -2121.5584      22.226171     -2099.3322     -4454.9097      11156.707      15.315254      6.6702724      109.21148      4.0025167      0              0            
      4300   299.61227      313.8553      -2121.9128      23.89513      -2098.0177     -4736.1595      11156.707      15.315254      6.6702724      109.21148      4.0025167      0              0            
      4400   290.93725      304.76788     -2121.6464      23.203267     -2098.4432     -3618.3881      11156.707      15.315254      6.6702724      109.21148      4.0025167      0              0            
      4500   290.14341      303.93631     -2122.2019      23.139956     -2099.062      -4157.9295      11156.707      15.315254      6.6702724      109.21148      4.0025167      0              0            
      4600   278.90836      292.16716     -2121.7651      22.24392      -2099.5212     -3923.5596      11156.707      15.315254      6.6702724      109.21148      4.0025167      0              0            
      4700   275.84176      288.95478     -2121.7837      21.999348     -2099.7843     -3582.2098      11156.707      15.315254      6.6702724      109.21148      4.0025167      0              0            
      4800   286.57117      300.19425     -2122.4735      22.855057     -2099.6184     -3918.3708      11156.707      15.315254      6.6702724      109.21148      4.0025167      0              0            
      4900   301.68304      316.02451     -2122.4581      24.060281     -2098.3978     -5142.666       11156.707      15.315254      6.6702724      109.21148      4.0025167      0              0            
      5000   289.96437      303.74875     -2120.7032      23.125676     -2097.5775     -5118.7734      11156.707      15.315254      6.6702724      109.21148      4.0025167      0              0            
Loop time of 75.1892 on 1 procs for 5000 steps with 618 atoms

Performance: 5.746 ns/day, 4.177 hours/ns, 66.499 timesteps/s, 41.096 katom-step/s
177.4% CPU use with 1 MPI tasks x 1 OpenMP threads

MPI task timing breakdown:
Section |  min time  |  avg time  |  max time  |%varavg| %total
---------------------------------------------------------------
Pair    | 74.748     | 74.748     | 74.748     |   0.0 | 99.41
Neigh   | 0.011207   | 0.011207   | 0.011207   |   0.0 |  0.01
Comm    | 0.14273    | 0.14273    | 0.14273    |   0.0 |  0.19
Output  | 0.13003    | 0.13003    | 0.13003    |   0.0 |  0.17
Modify  | 0.10453    | 0.10453    | 0.10453    |   0.0 |  0.14
Other   |            | 0.053      |            |       |  0.07

Nlocal:            618 ave         618 max         618 min
Histogram: 1 0 0 0 0 0 0 0 0 0
Nghost:           3368 ave        3368 max        3368 min
Histogram: 1 0 0 0 0 0 0 0 0 0
Neighs:          26375 ave       26375 max       26375 min
Histogram: 1 0 0 0 0 0 0 0 0 0
FullNghs:        52750 ave       52750 max       52750 min
Histogram: 1 0 0 0 0 0 0 0 0 0

Total # of neighbors = 52750
Ave neighs/atom = 85.355987
Neighbor list builds = 4
Dangerous builds = 0

write_data data.interface_stress_000mpa_control
System init for write_data ...
write_dump all custom dump.interface_stress_000mpa_control_final.lammpstrj id type x y z modify sort id
Total wall time: 0:01:15
