ITEM: TIMESTEP
510
ITEM: NUMBER OF ATOMS
618
ITEM: BOX BOUNDS xy xz yz pp pp ff
0.0000000000000000e+00 1.9317770367296919e+01 4.0025167278329121e+00
0.0000000000000000e+00 6.6702723500479264e+00 0.0000000000000000e+00
0.0000000000000000e+00 1.0921147561319708e+02 0.0000000000000000e+00
ITEM: ATOMS id type x y z
1 1 4.1859 6.28302 6.32783
2 1 1.83216 -0.0623711 8.78199
3 1 4.20047 6.27449 13.4237
4 1 5.13097 0.565647 6.32783
5 1 3.48685 0.250304 11.1118
6 1 1.86032 -0.0937663 15.7331
7 1 4.2508 6.21481 20.3519
8 1 11.8435 6.28303 6.32784
9 1 6.77975 0.890518 8.78198
10 1 5.14551 0.557108 13.4236
11 1 3.52634 0.203866 18.0423
12 1 1.92036 -0.165378 22.6619
13 1 4.32466 6.1253 27.2849
14 1 10.0785 1.51855 6.32784
15 1 9.48979 -0.0623725 8.78198
16 1 8.43443 1.20322 11.1118
17 1 11.8581 6.2745 13.4237
18 1 6.80791 0.859182 15.733
19 1 5.19569 0.497476 20.3518
20 1 3.59342 0.122281 24.9725
21 1 5.99527 6.4107 29.6013
22 1 4.41135 6.02441 34.2739
23 1 12.7886 0.565648 6.32783
24 1 12.3161 3.42433 6.32783
25 1 11.7273 1.84342 8.78199
26 1 11.1445 0.250315 11.1118
27 1 10.672 3.10901 11.1118
28 1 10.0931 1.51002 13.4237
29 1 9.51799 -0.0937288 15.733
30 1 8.47397 1.15679 18.0422
31 1 11.9084 6.21492 20.3517
32 1 6.8676 0.787745 22.6616
33 1 5.26644 0.409524 27.2826
34 1 3.65931 0.0297281 31.9111
35 1 6.05713 6.31395 36.6518
36 1 15.0261 2.47144 6.32783
37 1 14.4374 0.890524 8.78199
38 1 13.9648 3.74921 8.78199
39 1 13.382 2.15611 11.1118
40 1 12.8032 0.557117 13.4237
41 1 12.3306 3.41581 13.4237
42 1 11.7555 1.81206 15.7331
43 1 11.1841 0.20388 18.0422
44 1 10.7115 3.06258 18.0422
45 1 10.1434 1.45042 20.3518
46 1 9.57796 -0.16524 22.6613
47 1 8.54124 1.07558 24.9709
48 1 11.981 6.12656 27.2796
49 1 6.94042 0.697151 29.5886
50 1 5.31918 0.335684 34.1998
51 1 3.5405 -0.0562581 39.0055
52 1 2.42091 1.51854 6.32783
53 1 17.2636 4.37724 6.32784
54 1 16.6749 2.79631 8.78199
55 1 16.0921 1.2032 11.1118
56 1 15.6195 4.06191 11.1118
57 1 15.0407 2.4629 13.4237
58 1 14.4656 0.859151 15.7331
59 1 13.993 3.71785 15.7331
60 1 13.4216 2.10965 18.0423
61 1 12.8536 0.497455 20.3518
62 1 12.381 3.35611 20.3517
63 1 11.8156 1.74055 22.6614
64 1 11.2524 0.122095 24.9709
65 1 10.7788 2.98115 24.9709
66 1 10.2171 1.3613 27.2792
67 1 13.6614 6.41136 29.5867
68 1 8.6232 0.982755 31.8863
69 1 12.0854 6.05095 34.181
70 1 7.01928 0.63873 36.4851
71 1 4.65844 3.42434 6.32784
72 1 4.06968 1.84342 8.78198
73 1 3.59716 4.7021 8.78198
74 1 3.01433 3.10901 11.1118
75 1 2.43545 1.51 13.4237
76 1 17.2782 4.36868 13.4237
77 1 16.7031 2.76495 15.7331
78 1 16.1316 1.15674 18.0423
79 1 15.6592 4.01545 18.0423
80 1 15.0911 2.4032 20.3519
81 1 14.5257 0.787544 22.6618
82 1 14.0532 3.64622 22.6616
83 1 13.4899 2.02757 24.9713
84 1 12.9284 0.407334 27.2825
85 1 12.4554 3.2665 27.28
86 1 11.8962 1.64411 29.5877
87 1 11.3399 0.0226533 31.9013
88 1 10.8669 2.88362 31.8822
89 1 10.3125 1.24941 34.1877
90 1 13.7669 6.35051 36.5798
91 1 8.81088 0.758984 39.1615
92 1 7.36849 2.47144 6.32784
93 1 6.89596 5.33013 6.32783
94 1 6.30721 3.74921 8.78198
95 1 5.72437 2.15612 11.1118
96 1 5.25184 5.01479 11.1118
97 1 4.67297 3.4158 13.4237
98 1 4.09785 1.81207 15.7331
99 1 3.62534 4.67071 15.733
100 1 3.05383 3.06255 18.0423
101 1 2.48575 1.45031 20.3519
102 1 17.3286 4.30897 20.3519
103 1 16.7633 2.69328 22.662
104 1 16.1998 1.07474 24.9721
105 1 15.7276 3.93354 24.972
106 1 15.1658 2.31313 27.2832
107 1 14.607 0.691621 29.5974
108 1 14.1347 3.55095 29.5919
109 1 13.5784 1.92758 31.9015
110 1 13.0224 0.305484 34.2119
111 1 12.5534 3.17135 34.1898
112 1 12.0066 1.50295 36.4717
113 1 11.4463 -0.0646704 38.8957
114 1 11.0196 2.66039 38.6198
115 1 9.60601 4.37723 6.32783
116 1 9.01726 2.79631 8.78199
117 1 8.54474 5.655 8.782
118 1 7.9619 4.0619 11.1118
119 1 7.38303 2.46289 13.4237
120 1 6.91049 5.32161 13.4237
121 1 6.33535 3.71784 15.733
122 1 5.76387 2.10966 18.0422
123 1 5.29137 4.96838 18.0423
124 1 4.72318 3.35611 20.3519
125 1 4.15772 1.74043 22.6618
126 1 3.68542 4.59908 22.6619
127 1 3.12171 2.98079 24.9727
128 1 2.55857 1.3606 27.2853
129 1 17.4034 4.21932 27.2845
130 1 16.8446 2.59745 29.5979
131 1 0.97034 0.976611 31.9228
132 1 15.8209 3.833 31.9057
133 1 15.2883 2.21863 34.2202
134 1 14.7158 0.59932 36.538
135 1 14.2653 3.44406 36.492
136 1 13.716 1.92821 38.6953
137 1 11.2548 4.70211 8.78199
138 1 10.1994 5.96769 11.1118
139 1 9.62055 4.36871 13.4237
140 1 9.04545 2.76495 15.733
141 1 8.57288 5.62363 15.733
142 1 8.0014 4.01549 18.0422
143 1 7.43328 2.40328 20.3517
144 1 6.9607 5.26198 20.3519
145 1 6.39502 3.64643 22.6617
146 1 5.83066 2.02837 24.9721
147 1 5.35867 4.88683 24.9725
148 1 4.79481 3.26756 27.2846
149 1 4.22981 1.64957 29.5999
150 1 3.7629 4.50576 29.6016
151 1 3.20338 2.88811 31.9281
152 1 2.62782 1.27011 34.2752
153 1 17.5138 4.11557 34.2531
154 1 16.9691 2.54899 36.6749
155 1 0.977353 0.952966 39.1335
156 1 16.041 3.81583 39.0372
157 1 14.5536 5.33013 6.32784
158 1 12.9095 5.0148 11.1118
159 1 11.283 4.67074 15.733
160 1 10.2389 5.92128 18.0422
161 1 9.67076 4.30906 20.3517
162 1 9.1053 2.69359 22.6615
163 1 8.63254 5.55222 22.6618
164 1 8.06823 3.93427 24.9716
165 1 7.50378 2.31545 27.2816
166 1 7.0304 5.1733 27.2842
167 1 6.46483 3.55527 29.5967
168 1 5.90039 1.94053 31.9065
169 1 5.42878 4.79553 31.9248
170 1 4.86872 3.19094 34.2649
171 1 4.29514 1.55368 36.5938
172 1 3.88791 4.451 36.7003
173 1 3.33533 2.7978 39.0863
174 1 16.2024 5.655 8.78198
175 1 14.5682 5.3216 13.4236
176 1 12.9491 4.96837 18.0422
177 1 11.3428 4.59927 22.6615
178 1 10.3058 5.84003 24.9714
179 1 9.74199 4.22055 27.2811
180 1 9.17908 2.60064 29.5871
181 1 8.70273 5.46055 29.5912
182 1 8.13058 3.84071 31.899
183 1 7.56968 2.21443 34.194
184 1 7.07947 5.0856 34.2386
185 1 6.51337 3.43655 36.5874
186 1 6.07761 1.8073 38.9391
187 1 5.45838 4.77222 39.176
188 1 17.8571 5.96769 11.1118
189 1 16.2306 5.62362 15.7331
190 1 14.6186 5.26193 20.3518
191 1 13.017 4.8868 24.9708
192 1 11.4207 4.50778 29.5855
193 1 10.3805 5.75478 31.8879
194 1 9.82551 4.14172 34.1514
195 1 9.26624 2.48597 36.386
196 1 8.73236 5.38753 36.4799
197 1 8.36873 3.56698 38.6188
198 1 17.8966 5.92124 18.0423
199 1 16.2909 5.55194 22.6616
200 1 14.6935 5.17191 27.2809
201 1 13.1073 4.7939 31.8916
202 1 11.5664 4.46937 36.4228
203 1 10.5693 5.74254 38.5638
204 1 17.9648 5.83953 24.9723
205 1 16.3722 5.45678 29.5963
206 1 14.7932 5.07315 34.2198
207 1 13.1846 4.68494 38.9639
208 1 18.0545 5.74205 31.9209
209 1 16.4998 5.3215 36.5426
210 1 18.0862 5.65741 39.1052
211 2 14.5027 1.42481 101.819
212 1 15.1543 1.08822 99.126
213 1 3.75006 0.43112 102.837
214 1 2.54672 1.19122 98.5563
215 1 1.70514 1.58293 101.176
216 2 0.849397 0.636119 96.4975
217 1 14.9806 1.2091 94.2101
218 1 6.24068 1.74899 102.385
219 1 7.14126 1.28563 99.7779
220 1 5.90877 6.47525 94.3534
221 1 4.86373 2.60711 98.4414
222 2 4.50859 1.21899 100.538
223 1 4.23352 1.23217 93.3212
224 1 2.16947 2.47122 94.7156
225 1 0.588245 0.584094 90.4797
226 1 3.24638 1.75734 90.4169
227 2 1.67904 1.58451 92.4374
228 1 0.594974 0.49449 87.8106
229 1 8.50326 0.347383 95.2645
230 1 7.31372 1.15117 88.7223
231 1 9.02769 6.43647 89.692
232 1 12.2895 5.02202 103.092
233 1 3.83649 3.22054 102.054
234 1 8.45522 3.25361 101.398
235 1 6.27626 4.58222 102.822
236 2 8.40687 0.664288 102.082
237 2 5.93899 3.5919 100.512
238 1 7.48531 3.78808 98.397
239 2 6.76066 1.52042 97.1242
240 1 4.86326 2.56437 95.7239
241 1 12.6462 2.17529 102.99
242 1 10.247 1.28489 100.356
243 1 14.588 5.98505 98.4167
244 2 11.8168 1.47032 98.2736
245 1 10.4927 3.82577 99.2657
246 1 9.24934 1.81535 97.5728
247 1 11.3166 0.542885 95.8559
248 1 7.74058 3.18845 95.5021
249 1 11.5479 3.19649 96.5928
250 2 9.42455 4.45382 96.8632
251 1 8.39 3.24745 92.6627
252 2 8.98631 1.79999 90.649
253 1 10.3343 3.94037 90.6652
254 1 6.31471 1.77778 91.3041
255 1 8.59988 0.381075 92.5909
256 1 10.4486 4.02883 94.3966
257 1 7.44474 3.84727 89.7727
258 1 9.53928 2.64134 88.3608
259 1 12.8498 2.45296 100.335
260 2 10.9879 3.36729 101.802
261 1 12.7243 5.38617 100.422
262 2 13.2212 3.84829 98.4163
263 1 15.1461 3.90338 100.358
264 1 11.6634 5.88365 97.6802
265 1 13.7733 4.66056 96.1738
266 2 6.71071 1.53377 93.9087
267 2 5.19004 2.42622 88.9546
268 1 11.0823 5.1554 88.0601
269 1 2.62763 3.94353 99.504
270 1 13.8937 1.87858 96.6972
271 1 10.9981 1.835 92.6603
272 1 11.6137 1.4473 90.0004
273 2 14.0249 1.42917 89.1304
274 1 12.0605 2.69518 87.5953
275 2 3.0054 3.48131 96.981
276 1 15.8704 3.44415 97.7892
277 1 16.3261 4.73447 95.4429
278 2 12.8726 2.73775 94.4128
279 1 13.661 1.93062 91.7741
280 2 14.2533 5.80707 93.9
281 1 12.5064 4.39 92.3657
282 1 13.2083 3.93762 89.7333
283 1 15.3947 3.6798 93.0825
284 1 16.0733 3.34986 90.4415
285 1 13.6474 6.53839 88.8521
286 1 14.9134 6.03673 102.327
287 1 9.72073 6.54603 95.5169
288 2 17.1087 4.59333 102.04
289 1 16.7306 6.44137 100.163
290 1 5.04005 5.37919 98.4739
291 1 4.29814 5.80185 101.146
292 1 17.4618 5.97726 97.5701
293 1 16.8554 6.29818 93.3012
294 1 17.5925 5.89105 90.6867
295 1 14.8856 5.73047 91.2718
296 2 15.9196 5.34892 88.6293
297 1 5.77023 3.83684 93.3743
298 1 3.62227 5.02089 94.917
299 1 2.93095 3.77597 92.3828
300 1 4.88759 4.41951 90.5207
301 2 4.24677 5.90486 92.5653
302 1 9.88482 5.68423 101.444
303 1 7.14412 5.88914 96.5856
304 1 7.15262 5.77769 100.405
305 1 9.10584 6.42849 98.4645
306 2 8.05471 5.26683 94.1317
307 1 6.94055 5.92585 91.7769
308 1 2.92755 3.94532 88.6805
309 2 6.52265 6.16204 89.1832
310 1 9.95286 5.94274 92.5437
311 2 11.593 6.09575 90.4737
312 1 5.51264 4.50092 87.5934
313 1 3.48562 1.17728 87.5963
314 1 13.2076 0.44898 86.8376
315 2 16.7296 6.24424 84.5562
316 1 18.2999 6.42356 82.5382
317 1 6.07299 1.92339 82.7937
318 1 6.05929 6.43426 83.4195
319 2 0.931888 0.429115 81.077
320 1 3.88068 5.93285 76.8908
321 1 5.82212 6.6347 74.9122
322 1 5.96298 6.66386 78.6336
323 1 18.2494 6.54888 74.0126
324 1 4.13075 1.23135 84.7708
325 2 8.73631 6.4509 82.7576
326 1 10.7425 6.48218 84.7582
327 1 3.18302 1.83828 81.8908
328 1 5.28368 0.62725 80.4785
329 1 2.56528 1.18494 72.3392
330 1 13.4039 6.58515 83.91
331 2 13.7706 6.10052 81.2654
332 1 11.3538 6.07366 82.1034
333 1 7.81319 0.706488 79.7236
334 2 5.75531 1.81369 78.1865
335 1 4.00372 0.391636 76.6235
336 1 8.69971 6.6334 73.9986
337 1 10.9272 6.40029 77.3133
338 1 11.5664 6.05442 74.6719
339 1 6.20753 1.96947 86.5109
340 1 1.2378 2.52417 79.7261
341 2 8.60724 0.676878 86.5586
342 2 10.0019 3.79744 86.055
343 1 8.24781 2.36395 84.5034
344 1 11.8055 1.34458 82.5566
345 1 11.1351 1.68098 85.2092
346 1 10.6224 3.71688 83.4104
347 1 8.94508 1.92227 81.8767
348 1 8.36442 2.31253 77.5872
349 1 9.09255 1.9263 74.9483
350 1 6.37893 1.75475 75.533
351 2 7.43974 1.4461 72.8783
352 1 14.6928 2.98844 87.1052
353 1 13.3392 3.88256 82.82
354 1 12.6038 4.26997 85.45
355 2 11.6852 3.40109 80.7578
356 1 10.4667 3.93637 78.4624
357 1 16.9561 4.45955 86.4737
358 1 2.67596 3.91241 83.8958
359 1 16.5803 6.52626 77.6237
360 1 10.4528 1.04081 79.2692
361 1 12.7105 2.49992 78.6011
362 1 13.7478 6.48177 76.6603
363 1 11.6891 0.445378 74.7844
364 2 11.0463 1.93933 76.8512
365 1 1.51214 1.82171 85.4966
366 1 15.6487 5.23963 82.607
367 2 15.2961 3.8921 84.7113
368 1 13.9776 1.93657 80.8057
369 1 13.9806 1.76762 84.5275
370 1 15.9375 2.40453 82.6561
371 2 14.8649 1.27304 78.3625
372 1 13.7434 1.9498 76.0205
373 1 15.0477 3.91239 77.5458
374 1 12.9843 5.15089 78.9571
375 1 13.7329 6.65163 72.9281
376 1 11.4022 3.2784 74.7311
377 2 13.3358 2.20685 73.4282
378 1 14.0553 4.46361 74.6576
379 2 12.4958 4.28171 76.6714
380 1 11.4318 3.25164 72.0604
381 1 4.02516 3.00198 79.503
382 1 1.46149 1.95378 76.7974
383 1 2.80131 3.85415 72.9652
384 1 15.8328 2.46573 73.9425
385 2 3.08113 2.12058 74.7339
386 1 12.3008 0.572222 71.8507
387 1 14.7127 5.86665 86.3477
388 1 3.97505 5.88228 85.424
389 2 3.80226 3.25268 86.2382
390 2 2.26717 4.16345 81.3057
391 1 15.6781 5.20187 79.937
392 1 8.28898 5.01361 87.3807
393 1 5.70424 3.92341 84.6689
394 2 7.32826 4.08319 82.6096
395 1 4.76451 4.42676 81.8205
396 1 6.81396 3.14189 80.2167
397 1 3.2489 5.8497 79.7138
398 1 7.05039 5.81196 80.8441
399 2 4.4821 4.48952 74.8743
400 1 17.1266 4.46681 75.5419
401 1 4.11848 3.06235 76.8319
402 1 5.03654 5.33929 72.5976
403 1 8.35541 5.03202 84.7103
404 2 6.46845 6.1853 86.0088
405 2 17.5346 4.20351 78.131
406 2 16.0021 5.1429 73.1996
407 1 9.36572 4.51778 80.9734
408 1 6.48592 4.52198 76.8602
409 1 7.10502 4.11201 74.2191
410 2 9.52299 4.14391 73.3886
411 1 7.56826 5.42262 71.8446
412 2 8.31711 5.31703 78.6864
413 1 9.15362 4.62843 76.0352
414 1 5.11749 2.55843 73.096
415 2 5.50837 6.53024 70.3084
416 1 6.12939 6.47756 67.6543
417 1 10.2081 5.76092 71.3942
418 1 8.84207 6.64997 67.0685
419 1 4.11427 0.362605 69.7089
420 2 7.18748 6.17261 64.9978
421 1 5.9627 6.71764 62.6999
422 1 8.46195 0.548477 70.7234
423 1 13.4944 6.67245 68.1417
424 1 8.20828 5.27911 62.8431
425 1 7.14928 1.33182 66.8513
426 2 10.7984 6.66108 68.9731
427 1 10.5432 6.69376 61.7873
428 1 4.48112 1.25751 63.1967
429 1 6.89265 6.06599 58.9691
430 1 5.54374 0.580927 58.8977
431 2 3.9876 0.395406 60.9107
432 1 6.92138 6.05405 56.2965
433 1 14.8351 5.77019 63.7441
434 1 13.6043 6.64648 57.2054
435 1 11.3226 5.25481 58.1807
436 1 14.3183 3.89391 71.8343
437 1 6.21702 1.98635 70.5814
438 1 10.7977 1.96257 69.6677
439 1 8.73642 3.19804 71.0776
440 2 14.6179 5.99121 70.4844
441 2 8.2453 2.33334 68.7915
442 1 9.80246 2.51753 66.7782
443 2 9.08213 0.263095 65.5483
444 1 7.17833 1.31308 64.18
445 1 15.0894 1.04377 71.6245
446 1 16.5293 6.67547 68.9198
447 1 16.8841 4.68893 67.0324
448 2 14.1428 0.175346 66.8552
449 1 12.8746 2.51961 67.6628
450 1 11.5794 0.520629 66.0627
451 1 17.6281 5.91228 64.4606
452 1 10.0644 1.95109 63.9536
453 1 13.8617 1.91098 65.0851
454 2 11.7477 3.19958 65.3198
455 1 10.6884 2.04525 61.1312
456 2 11.2858 0.606819 59.1136
457 1 12.6258 2.75296 59.1488
458 1 8.61559 0.582076 59.7823
459 1 14.9301 5.84619 61.0717
460 1 12.7757 2.77459 62.8756
461 1 9.73505 2.66775 58.2536
462 1 11.8378 1.45963 56.837
463 1 15.184 1.11367 68.9529
464 2 13.2844 2.25148 70.2529
465 1 14.9454 3.98374 69.0119
466 2 15.5444 2.54341 66.9945
467 1 2.23488 2.57416 68.9788
468 1 13.9955 4.60392 66.1329
469 1 16.0971 3.39518 64.7176
470 2 9.02774 0.311043 62.3726
471 2 7.48748 1.26552 57.4391
472 1 13.3655 3.97833 56.5723
473 1 4.90181 2.68019 68.1539
474 1 0.862619 0.613719 65.2169
475 1 13.2927 0.637035 61.0953
476 1 13.909 0.228481 58.4549
477 2 1.01133 0.265095 57.6232
478 1 14.3683 1.54287 56.081
479 2 5.26869 2.20074 65.5081
480 1 2.85118 2.16567 66.338
481 1 3.31315 3.48141 63.9644
482 2 15.1237 1.41976 62.9258
483 1 0.644072 0.74259 60.271
484 2 16.5672 4.58969 62.4286
485 1 14.8126 3.17481 60.862
486 1 15.5006 2.75267 58.2358
487 1 2.41968 2.51122 61.552
488 1 3.05644 2.17091 58.9131
489 1 15.9209 5.34831 57.3342
490 1 17.0307 4.71395 70.7556
491 1 12.0451 5.30225 63.9717
492 2 4.0659 3.36189 70.8068
493 1 3.75481 5.11279 68.744
494 1 7.31454 4.10784 66.7927
495 1 6.67712 4.44991 69.4331
496 1 4.446 4.6887 66.1194
497 1 3.85934 5.0943 61.8276
498 1 4.58273 4.71295 59.1853
499 1 17.1864 4.54013 59.772
500 2 2.92653 4.23521 57.1132
501 1 8.07257 2.63716 61.864
502 1 5.95198 3.82192 63.5136
503 1 5.23928 2.59649 60.9024
504 1 7.17724 3.2347 59.0233
505 2 6.54048 4.72353 61.0918
506 1 12.3299 4.57608 69.7453
507 1 9.4764 4.70576 65.0479
508 1 9.49707 4.53397 68.7828
509 1 11.4379 5.17007 66.9051
510 2 10.3613 4.05069 62.604
511 1 9.23593 4.73517 60.261
512 1 5.21259 2.76671 57.165
513 2 8.8246 4.99903 57.6673
514 1 12.2723 4.73661 61.039
515 2 13.8868 4.90907 58.9723
516 1 7.77743 3.37272 56.0932
517 1 5.80557 0.0164835 56.0725
518 1 4.22386 5.99368 55.3071
519 2 3.73083 5.12608 53.0123
520 1 5.27415 5.31469 50.986
521 1 8.36528 0.818306 51.2943
522 1 8.34988 5.32649 51.8935
523 2 7.21374 5.97954 49.525
524 1 6.11868 4.83587 45.2242
525 1 8.17668 5.47316 43.2975
526 1 8.16474 5.46445 47.0753
527 1 5.3563 5.5086 42.2526
528 1 6.42394 0.113826 53.2534
529 2 11.0231 5.34864 51.2447
530 1 13.0319 5.36921 53.2348
531 1 5.47834 0.736043 50.3542
532 1 11.5712 6.21691 48.9727
533 1 5.25876 -0.0457656 40.9345
534 1 15.7016 5.47191 52.4006
535 2 16.058 4.9731 49.777
536 1 13.6369 4.9641 50.5968
537 1 14.1202 6.27602 48.2358
538 2 8.05575 0.754967 46.7069
539 1 10.2346 5.96027 45.2051
540 1 11.0807 5.48622 42.7209
541 1 13.1968 5.2708 45.8871
542 1 13.9526 4.88841 43.3499
543 1 8.51849 0.848168 54.9971
544 1 3.57647 1.36923 48.1382
545 2 14.8706 6.16008 55.0488
546 2 12.3068 2.65233 54.5464
547 1 10.5532 1.23927 52.9896
548 1 14.1127 0.236608 51.002
549 1 13.4806 0.572741 53.6624
550 1 12.9271 2.60243 51.9032
551 1 11.2554 0.812563 50.3761
552 1 10.6659 1.17812 46.0854
553 1 11.4086 0.694313 43.4441
554 1 8.69165 0.639899 44.1618
555 2 9.5704 0.144798 41.495
556 1 1.69106 1.88615 55.6257
557 1 15.6448 2.7694 51.3134
558 1 14.9158 3.15727 53.9507
559 2 14.0049 2.30362 49.2615
560 1 12.7543 2.7929 47.0011
561 1 3.94965 3.34459 54.9564
562 1 4.97646 2.80108 52.3639
563 1 18.8577 5.36658 46.0283
564 1 12.7777 -0.0978705 47.817
565 1 15.0156 1.34169 47.0723
566 1 16.0137 5.35772 45.2856
567 1 17.8652 5.84987 43.2709
568 2 13.3402 0.793633 45.3882
569 1 3.81482 0.705917 53.9831
570 1 17.9544 4.11542 51.0763
571 2 2.28454 2.78222 53.2063
572 1 1.00995 0.846716 49.2602
573 1 0.978051 0.655916 53.0106
574 1 2.92448 1.28656 51.1341
575 2 1.82901 0.149028 46.7667
576 1 15.9891 0.755698 44.2798
577 1 17.335 2.73797 45.9938
578 1 15.2651 3.99381 47.5103
579 1 15.7943 5.41155 41.3274
580 1 13.6799 2.17481 43.3188
581 2 15.6613 1.20857 41.7178
582 1 16.3893 3.36519 43.275
583 2 14.8148 3.11078 45.2625
584 1 14.3863 3.19705 40.9982
585 1 6.3501 1.94889 47.9613
586 1 3.71964 0.838592 45.1836
587 1 5.0507 2.83515 41.2781
588 1 2.89598 1.17227 42.0315
589 2 5.3456 1.03744 43.2158
590 1 13.1427 0.932453 41.0389
591 1 17.0223 4.78139 54.8176
592 1 6.27947 4.76325 53.8998
593 2 6.09939 2.11919 54.7203
594 2 4.55981 3.04255 49.7462
595 1 17.9544 4.03699 48.3945
596 1 10.5698 3.83052 55.8663
597 1 8.0104 2.81193 53.1649
598 2 9.6157 2.98128 51.1091
599 1 7.05591 3.32262 50.2946
600 1 9.1289 2.04272 48.7463
601 1 5.49365 4.74855 48.1286
602 1 9.33492 4.72215 49.3233
603 2 6.75857 3.38189 43.2561
604 1 3.96243 3.36468 43.7409
605 1 6.35994 1.99098 45.276
606 1 7.55125 4.26354 40.965
607 1 10.6617 3.91155 53.1976
608 2 8.76545 5.05103 54.4919
609 2 4.47946 3.0867 46.508
610 2 17.8828 3.86345 41.2306
611 1 11.6525 3.42645 49.4842
612 1 8.74455 3.41116 45.2927
613 1 9.5418 2.96714 42.7455
614 2 12.0369 3.13666 41.9265
615 1 10.4131 4.118 40.5741
616 2 10.5661 4.19032 47.2158
617 1 11.4506 3.50476 44.6647
618 1 7.48793 1.43847 41.682
