ITEM: TIMESTEP
0
ITEM: NUMBER OF ATOMS
618
ITEM: BOX BOUNDS xy xz yz pp pp ff
0.0000000000000000e+00 1.9317770367296919e+01 4.0025167278329121e+00
0.0000000000000000e+00 6.6702723500479264e+00 0.0000000000000000e+00
0.0000000000000000e+00 1.0921147561319708e+02 0.0000000000000000e+00
ITEM: ATOMS id type x y z
1 1 4.1859 6.28302 6.32783
2 1 5.83468 6.6079 8.78199
3 1 4.20047 6.27449 13.4237
4 1 5.13097 0.565647 6.32783
5 1 3.48685 0.250304 11.1118
6 1 5.86284 6.57651 15.7331
7 1 4.2508 6.21481 20.3519
8 1 11.8435 6.28303 6.32784
9 1 6.77975 0.890518 8.78198
10 1 5.14551 0.557108 13.4236
11 1 3.52634 0.203866 18.0423
12 1 5.92287 6.50489 22.6619
13 1 4.32466 6.1253 27.2849
14 1 10.0785 1.51855 6.32784
15 1 13.4923 6.6079 8.78198
16 1 8.43443 1.20322 11.1118
17 1 11.8581 6.2745 13.4237
18 1 6.80791 0.859182 15.733
19 1 5.19569 0.497476 20.3518
20 1 3.59342 0.122281 24.9725
21 1 5.99527 6.4107 29.6013
22 1 4.41135 6.02441 34.2739
23 1 12.7886 0.565648 6.32783
24 1 12.3161 3.42433 6.32783
25 1 11.7273 1.84342 8.78199
26 1 11.1445 0.250315 11.1118
27 1 10.672 3.10901 11.1118
28 1 10.0931 1.51002 13.4237
29 1 13.5205 6.57654 15.733
30 1 8.47397 1.15679 18.0422
31 1 11.9084 6.21492 20.3517
32 1 6.8676 0.787745 22.6616
33 1 5.26644 0.409524 27.2826
34 1 3.65931 0.0297281 31.9111
35 1 6.05713 6.31395 36.6518
36 1 15.0261 2.47144 6.32783
37 1 14.4374 0.890524 8.78199
38 1 13.9648 3.74921 8.78199
39 1 13.382 2.15611 11.1118
40 1 12.8032 0.557117 13.4237
41 1 12.3306 3.41581 13.4237
42 1 11.7555 1.81206 15.7331
43 1 11.1841 0.20388 18.0422
44 1 10.7115 3.06258 18.0422
45 1 10.1434 1.45042 20.3518
46 1 13.5805 6.50503 22.6613
47 1 8.54124 1.07558 24.9709
48 1 11.981 6.12656 27.2796
49 1 6.94042 0.697151 29.5886
50 1 5.31918 0.335684 34.1998
51 1 7.54301 6.61401 39.0055
52 1 2.42091 1.51854 6.32783
53 1 17.2636 4.37724 6.32784
54 1 16.6749 2.79631 8.78199
55 1 0.776804 1.2032 11.1118
56 1 15.6195 4.06191 11.1118
57 1 15.0407 2.4629 13.4237
58 1 14.4656 0.859151 15.7331
59 1 13.993 3.71785 15.7331
60 1 13.4216 2.10965 18.0423
61 1 12.8536 0.497455 20.3518
62 1 12.381 3.35611 20.3517
63 1 11.8156 1.74055 22.6614
64 1 11.2524 0.122095 24.9709
65 1 10.7788 2.98115 24.9709
66 1 10.2171 1.3613 27.2792
67 1 13.6614 6.41136 29.5867
68 1 8.6232 0.982755 31.8863
69 1 12.0854 6.05095 34.181
70 1 7.01928 0.63873 36.4851
71 1 4.65844 3.42434 6.32784
72 1 4.06968 1.84342 8.78198
73 1 3.59716 4.7021 8.78198
74 1 3.01433 3.10901 11.1118
75 1 2.43545 1.51 13.4237
76 1 17.2782 4.36868 13.4237
77 1 16.7031 2.76495 15.7331
78 1 0.816373 1.15674 18.0423
79 1 15.6592 4.01545 18.0423
80 1 15.0911 2.4032 20.3519
81 1 14.5257 0.787544 22.6618
82 1 14.0532 3.64622 22.6616
83 1 13.4899 2.02757 24.9713
84 1 12.9284 0.407334 27.2825
85 1 12.4554 3.2665 27.28
86 1 11.8962 1.64411 29.5877
87 1 11.3399 0.0226533 31.9013
88 1 10.8669 2.88362 31.8822
89 1 10.3125 1.24941 34.1877
90 1 13.7669 6.35051 36.5798
91 1 8.81088 0.758984 39.1615
92 1 7.36849 2.47144 6.32784
93 1 6.89596 5.33013 6.32783
94 1 6.30721 3.74921 8.78198
95 1 5.72437 2.15612 11.1118
96 1 5.25184 5.01479 11.1118
97 1 4.67297 3.4158 13.4237
98 1 4.09785 1.81207 15.7331
99 1 3.62534 4.67071 15.733
100 1 3.05383 3.06255 18.0423
101 1 2.48575 1.45031 20.3519
102 1 17.3286 4.30897 20.3519
103 1 16.7633 2.69328 22.662
104 1 0.884506 1.07474 24.9721
105 1 15.7276 3.93354 24.972
106 1 15.1658 2.31313 27.2832
107 1 14.607 0.691621 29.5974
108 1 14.1347 3.55095 29.5919
109 1 13.5784 1.92758 31.9015
110 1 13.0224 0.305484 34.2119
111 1 12.5534 3.17135 34.1898
112 1 12.0066 1.50295 36.4717
113 1 15.4488 6.6056 38.8957
114 1 11.0196 2.66039 38.6198
115 1 9.60601 4.37723 6.32783
116 1 9.01726 2.79631 8.78199
117 1 8.54474 5.655 8.782
118 1 7.9619 4.0619 11.1118
119 1 7.38303 2.46289 13.4237
120 1 6.91049 5.32161 13.4237
121 1 6.33535 3.71784 15.733
122 1 5.76387 2.10966 18.0422
123 1 5.29137 4.96838 18.0423
124 1 4.72318 3.35611 20.3519
125 1 4.15772 1.74043 22.6618
126 1 3.68542 4.59908 22.6619
127 1 3.12171 2.98079 24.9727
128 1 2.55857 1.3606 27.2853
129 1 17.4034 4.21932 27.2845
130 1 16.8446 2.59745 29.5979
131 1 0.97034 0.976611 31.9228
132 1 15.8209 3.833 31.9057
133 1 15.2883 2.21863 34.2202
134 1 14.7158 0.59932 36.538
135 1 14.2653 3.44406 36.492
136 1 13.716 1.92821 38.6953
137 1 11.2548 4.70211 8.78199
138 1 10.1994 5.96769 11.1118
139 1 9.62055 4.36871 13.4237
140 1 9.04545 2.76495 15.733
141 1 8.57288 5.62363 15.733
142 1 8.0014 4.01549 18.0422
143 1 7.43328 2.40328 20.3517
144 1 6.9607 5.26198 20.3519
145 1 6.39502 3.64643 22.6617
146 1 5.83066 2.02837 24.9721
147 1 5.35867 4.88683 24.9725
148 1 4.79481 3.26756 27.2846
149 1 4.22981 1.64957 29.5999
150 1 3.7629 4.50576 29.6016
151 1 3.20338 2.88811 31.9281
152 1 2.62782 1.27011 34.2752
153 1 17.5138 4.11557 34.2531
154 1 1.65382 2.54899 36.6749
155 1 0.977353 0.952966 39.1335
156 1 16.041 3.81583 39.0372
157 1 14.5536 5.33013 6.32784
158 1 12.9095 5.0148 11.1118
159 1 11.283 4.67074 15.733
160 1 10.2389 5.92128 18.0422
161 1 9.67076 4.30906 20.3517
162 1 9.1053 2.69359 22.6615
163 1 8.63254 5.55222 22.6618
164 1 8.06823 3.93427 24.9716
165 1 7.50378 2.31545 27.2816
166 1 7.0304 5.1733 27.2842
167 1 6.46483 3.55527 29.5967
168 1 5.90039 1.94053 31.9065
169 1 5.42878 4.79553 31.9248
170 1 4.86872 3.19094 34.2649
171 1 4.29514 1.55368 36.5938
172 1 3.88791 4.451 36.7003
173 1 3.33533 2.7978 39.0863
174 1 16.2024 5.655 8.78198
175 1 14.5682 5.3216 13.4236
176 1 12.9491 4.96837 18.0422
177 1 11.3428 4.59927 22.6615
178 1 10.3058 5.84003 24.9714
179 1 9.74199 4.22055 27.2811
180 1 9.17908 2.60064 29.5871
181 1 8.70273 5.46055 29.5912
182 1 8.13058 3.84071 31.899
183 1 7.56968 2.21443 34.194
184 1 7.07947 5.0856 34.2386
185 1 6.51337 3.43655 36.5874
186 1 6.07761 1.8073 38.9391
187 1 5.45838 4.77222 39.176
188 1 17.8571 5.96769 11.1118
189 1 16.2306 5.62362 15.7331
190 1 14.6186 5.26193 20.3518
191 1 13.017 4.8868 24.9708
192 1 11.4207 4.50778 29.5855
193 1 10.3805 5.75478 31.8879
194 1 9.82551 4.14172 34.1514
195 1 9.26624 2.48597 36.386
196 1 8.73236 5.38753 36.4799
197 1 8.36873 3.56698 38.6188
198 1 17.8966 5.92124 18.0423
199 1 16.2909 5.55194 22.6616
200 1 14.6935 5.17191 27.2809
201 1 13.1073 4.7939 31.8916
202 1 11.5664 4.46937 36.4228
203 1 10.5693 5.74254 38.5638
204 1 17.9648 5.83953 24.9723
205 1 16.3722 5.45678 29.5963
206 1 14.7932 5.07315 34.2198
207 1 13.1846 4.68494 38.9639
208 1 18.0545 5.74205 31.9209
209 1 16.4998 5.3215 36.5426
210 1 18.0862 5.65741 39.1052
211 2 14.5027 1.42481 101.819
212 1 15.1543 1.08822 99.126
213 1 3.75006 0.43112 102.837
214 1 2.54672 1.19122 98.5563
215 1 1.70514 1.58293 101.176
216 2 0.849397 0.636119 96.4975
217 1 14.9806 1.2091 94.2101
218 1 6.24068 1.74899 102.385
219 1 7.14126 1.28563 99.7779
220 1 5.90877 6.47525 94.3534
221 1 4.86373 2.60711 98.4414
222 2 4.50859 1.21899 100.538
223 1 4.23352 1.23217 93.3212
224 1 2.16947 2.47122 94.7156
225 1 0.588245 0.584094 90.4797
226 1 3.24638 1.75734 90.4169
227 2 1.67904 1.58451 92.4374
228 1 0.594974 0.49449 87.8106
229 1 8.50326 0.347383 95.2645
230 1 7.31372 1.15117 88.7223
231 1 9.02769 6.43647 89.692
232 1 12.2895 5.02202 103.092
233 1 3.83649 3.22054 102.054
234 1 8.45522 3.25361 101.398
235 1 6.27626 4.58222 102.822
236 2 8.40687 0.664288 102.082
237 2 5.93899 3.5919 100.512
238 1 7.48531 3.78808 98.397
239 2 6.76066 1.52042 97.1242
240 1 4.86326 2.56437 95.7239
241 1 12.6462 2.17529 102.99
242 1 10.247 1.28489 100.356
243 1 14.588 5.98505 98.4167
244 2 11.8168 1.47032 98.2736
245 1 10.4927 3.82577 99.2657
246 1 9.24934 1.81535 97.5728
247 1 11.3166 0.542885 95.8559
248 1 7.74058 3.18845 95.5021
249 1 11.5479 3.19649 96.5928
250 2 9.42455 4.45382 96.8632
251 1 8.39 3.24745 92.6627
252 2 8.98631 1.79999 90.649
253 1 10.3343 3.94037 90.6652
254 1 6.31471 1.77778 91.3041
255 1 8.59988 0.381075 92.5909
256 1 10.4486 4.02883 94.3966
257 1 7.44474 3.84727 89.7727
258 1 9.53928 2.64134 88.3608
259 1 12.8498 2.45296 100.335
260 2 10.9879 3.36729 101.802
261 1 12.7243 5.38617 100.422
262 2 13.2212 3.84829 98.4163
263 1 15.1461 3.90338 100.358
264 1 11.6634 5.88365 97.6802
265 1 13.7733 4.66056 96.1738
266 2 6.71071 1.53377 93.9087
267 2 5.19004 2.42622 88.9546
268 1 11.0823 5.1554 88.0601
269 1 2.62763 3.94353 99.504
270 1 13.8937 1.87858 96.6972
271 1 10.9981 1.835 92.6603
272 1 11.6137 1.4473 90.0004
273 2 14.0249 1.42917 89.1304
274 1 12.0605 2.69518 87.5953
275 2 3.0054 3.48131 96.981
276 1 15.8704 3.44415 97.7892
277 1 16.3261 4.73447 95.4429
278 2 12.8726 2.73775 94.4128
279 1 13.661 1.93062 91.7741
280 2 14.2533 5.80707 93.9
281 1 12.5064 4.39 92.3657
282 1 13.2083 3.93762 89.7333
283 1 15.3947 3.6798 93.0825
284 1 16.0733 3.34986 90.4415
285 1 13.6474 6.53839 88.8521
286 1 14.9134 6.03673 102.327
287 1 9.72073 6.54603 95.5169
288 2 17.1087 4.59333 102.04
289 1 16.7306 6.44137 100.163
290 1 5.04005 5.37919 98.4739
291 1 4.29814 5.80185 101.146
292 1 17.4618 5.97726 97.5701
293 1 16.8554 6.29818 93.3012
294 1 17.5925 5.89105 90.6867
295 1 14.8856 5.73047 91.2718
296 2 15.9196 5.34892 88.6293
297 1 5.77023 3.83684 93.3743
298 1 3.62227 5.02089 94.917
299 1 2.93095 3.77597 92.3828
300 1 4.88759 4.41951 90.5207
301 2 4.24677 5.90486 92.5653
302 1 9.88482 5.68423 101.444
303 1 7.14412 5.88914 96.5856
304 1 7.15262 5.77769 100.405
305 1 9.10584 6.42849 98.4645
306 2 8.05471 5.26683 94.1317
307 1 6.94055 5.92585 91.7769
308 1 2.92755 3.94532 88.6805
309 2 6.52265 6.16204 89.1832
310 1 9.95286 5.94274 92.5437
311 2 11.593 6.09575 90.4737
312 1 5.51264 4.50092 87.5934
313 1 3.48562 1.17728 87.5963
314 1 13.2076 0.44898 86.8376
315 2 16.7296 6.24424 84.5562
316 1 18.2999 6.42356 82.5382
317 1 6.07299 1.92339 82.7937
318 1 6.05929 6.43426 83.4195
319 2 0.931888 0.429115 81.077
320 1 3.88068 5.93285 76.8908
321 1 5.82212 6.6347 74.9122
322 1 5.96298 6.66386 78.6336
323 1 18.2494 6.54888 74.0126
324 1 4.13075 1.23135 84.7708
325 2 8.73631 6.4509 82.7576
326 1 10.7425 6.48218 84.7582
327 1 3.18302 1.83828 81.8908
328 1 5.28368 0.62725 80.4785
329 1 2.56528 1.18494 72.3392
330 1 13.4039 6.58515 83.91
331 2 13.7706 6.10052 81.2654
332 1 11.3538 6.07366 82.1034
333 1 7.81319 0.706488 79.7236
334 2 5.75531 1.81369 78.1865
335 1 4.00372 0.391636 76.6235
336 1 8.69971 6.6334 73.9986
337 1 10.9272 6.40029 77.3133
338 1 11.5664 6.05442 74.6719
339 1 6.20753 1.96947 86.5109
340 1 16.5531 2.52417 79.7261
341 2 8.60724 0.676878 86.5586
342 2 10.0019 3.79744 86.055
343 1 8.24781 2.36395 84.5034
344 1 11.8055 1.34458 82.5566
345 1 11.1351 1.68098 85.2092
346 1 10.6224 3.71688 83.4104
347 1 8.94508 1.92227 81.8767
348 1 8.36442 2.31253 77.5872
349 1 9.09255 1.9263 74.9483
350 1 6.37893 1.75475 75.533
351 2 7.43974 1.4461 72.8783
352 1 14.6928 2.98844 87.1052
353 1 13.3392 3.88256 82.82
354 1 12.6038 4.26997 85.45
355 2 11.6852 3.40109 80.7578
356 1 10.4667 3.93637 78.4624
357 1 16.9561 4.45955 86.4737
358 1 2.67596 3.91241 83.8958
359 1 16.5803 6.52626 77.6237
360 1 10.4528 1.04081 79.2692
361 1 12.7105 2.49992 78.6011
362 1 13.7478 6.48177 76.6603
363 1 11.6891 0.445378 74.7844
364 2 11.0463 1.93933 76.8512
365 1 1.51214 1.82171 85.4966
366 1 15.6487 5.23963 82.607
367 2 15.2961 3.8921 84.7113
368 1 13.9776 1.93657 80.8057
369 1 13.9806 1.76762 84.5275
370 1 15.9375 2.40453 82.6561
371 2 14.8649 1.27304 78.3625
372 1 13.7434 1.9498 76.0205
373 1 15.0477 3.91239 77.5458
374 1 12.9843 5.15089 78.9571
375 1 13.7329 6.65163 72.9281
376 1 11.4022 3.2784 74.7311
377 2 13.3358 2.20685 73.4282
378 1 14.0553 4.46361 74.6576
379 2 12.4958 4.28171 76.6714
380 1 11.4318 3.25164 72.0604
381 1 4.02516 3.00198 79.503
382 1 1.46149 1.95378 76.7974
383 1 2.80131 3.85415 72.9652
384 1 15.8328 2.46573 73.9425
385 2 3.08113 2.12058 74.7339
386 1 12.3008 0.572222 71.8507
387 1 14.7127 5.86665 86.3477
388 1 3.97505 5.88228 85.424
389 2 3.80226 3.25268 86.2382
390 2 17.5824 4.16345 81.3057
391 1 15.6781 5.20187 79.937
392 1 8.28898 5.01361 87.3807
393 1 5.70424 3.92341 84.6689
394 2 7.32826 4.08319 82.6096
395 1 4.76451 4.42676 81.8205
396 1 6.81396 3.14189 80.2167
397 1 18.5642 5.8497 79.7138
398 1 7.05039 5.81196 80.8441
399 2 4.4821 4.48952 74.8743
400 1 17.1266 4.46681 75.5419
401 1 4.11848 3.06235 76.8319
402 1 5.03654 5.33929 72.5976
403 1 8.35541 5.03202 84.7103
404 2 6.46845 6.1853 86.0088
405 2 17.5346 4.20351 78.131
406 2 16.0021 5.1429 73.1996
407 1 9.36572 4.51778 80.9734
408 1 6.48592 4.52198 76.8602
409 1 7.10502 4.11201 74.2191
410 2 9.52299 4.14391 73.3886
411 1 7.56826 5.42262 71.8446
412 2 8.31711 5.31703 78.6864
413 1 9.15362 4.62843 76.0352
414 1 5.11749 2.55843 73.096
415 2 5.50837 6.53024 70.3084
416 1 6.12939 6.47756 67.6543
417 1 10.2081 5.76092 71.3942
418 1 8.84207 6.64997 67.0685
419 1 4.11427 0.362605 69.7089
420 2 7.18748 6.17261 64.9978
421 1 1.96018 0.0473719 62.6999
422 1 8.46195 0.548477 70.7234
423 1 9.49187 0.00217792 68.1417
424 1 8.20828 5.27911 62.8431
425 1 7.14928 1.33182 66.8513
426 2 10.7984 6.66108 68.9731
427 1 6.54067 0.0234828 61.7873
428 1 4.48112 1.25751 63.1967
429 1 6.89265 6.06599 58.9691
430 1 5.54374 0.580927 58.8977
431 2 3.9876 0.395406 60.9107
432 1 6.92138 6.05405 56.2965
433 1 14.8351 5.77019 63.7441
434 1 13.6043 6.64648 57.2054
435 1 11.3226 5.25481 58.1807
436 1 14.3183 3.89391 71.8343
437 1 6.21702 1.98635 70.5814
438 1 10.7977 1.96257 69.6677
439 1 8.73642 3.19804 71.0776
440 2 14.6179 5.99121 70.4844
441 2 8.2453 2.33334 68.7915
442 1 9.80246 2.51753 66.7782
443 2 9.08213 0.263095 65.5483
444 1 7.17833 1.31308 64.18
445 1 15.0894 1.04377 71.6245
446 1 12.5268 0.00519359 68.9198
447 1 16.8841 4.68893 67.0324
448 2 14.1428 0.175346 66.8552
449 1 12.8746 2.51961 67.6628
450 1 11.5794 0.520629 66.0627
451 1 17.6281 5.91228 64.4606
452 1 10.0644 1.95109 63.9536
453 1 13.8617 1.91098 65.0851
454 2 11.7477 3.19958 65.3198
455 1 10.6884 2.04525 61.1312
456 2 11.2858 0.606819 59.1136
457 1 12.6258 2.75296 59.1488
458 1 8.61559 0.582076 59.7823
459 1 14.9301 5.84619 61.0717
460 1 12.7757 2.77459 62.8756
461 1 9.73505 2.66775 58.2536
462 1 11.8378 1.45963 56.837
463 1 15.184 1.11367 68.9529
464 2 13.2844 2.25148 70.2529
465 1 14.9454 3.98374 69.0119
466 2 15.5444 2.54341 66.9945
467 1 2.23488 2.57416 68.9788
468 1 13.9955 4.60392 66.1329
469 1 16.0971 3.39518 64.7176
470 2 9.02774 0.311043 62.3726
471 2 7.48748 1.26552 57.4391
472 1 13.3655 3.97833 56.5723
473 1 4.90181 2.68019 68.1539
474 1 0.862619 0.613719 65.2169
475 1 13.2927 0.637035 61.0953
476 1 13.909 0.228481 58.4549
477 2 1.01133 0.265095 57.6232
478 1 14.3683 1.54287 56.081
479 2 5.26869 2.20074 65.5081
480 1 2.85118 2.16567 66.338
481 1 3.31315 3.48141 63.9644
482 2 15.1237 1.41976 62.9258
483 1 0.644072 0.74259 60.271
484 2 16.5672 4.58969 62.4286
485 1 14.8126 3.17481 60.862
486 1 15.5006 2.75267 58.2358
487 1 2.41968 2.51122 61.552
488 1 3.05644 2.17091 58.9131
489 1 15.9209 5.34831 57.3342
490 1 17.0307 4.71395 70.7556
491 1 12.0451 5.30225 63.9717
492 2 4.0659 3.36189 70.8068
493 1 3.75481 5.11279 68.744
494 1 7.31454 4.10784 66.7927
495 1 6.67712 4.44991 69.4331
496 1 4.446 4.6887 66.1194
497 1 3.85934 5.0943 61.8276
498 1 4.58273 4.71295 59.1853
499 1 17.1864 4.54013 59.772
500 2 2.92653 4.23521 57.1132
501 1 8.07257 2.63716 61.864
502 1 5.95198 3.82192 63.5136
503 1 5.23928 2.59649 60.9024
504 1 7.17724 3.2347 59.0233
505 2 6.54048 4.72353 61.0918
506 1 12.3299 4.57608 69.7453
507 1 9.4764 4.70576 65.0479
508 1 9.49707 4.53397 68.7828
509 1 11.4379 5.17007 66.9051
510 2 10.3613 4.05069 62.604
511 1 9.23593 4.73517 60.261
512 1 5.21259 2.76671 57.165
513 2 8.8246 4.99903 57.6673
514 1 12.2723 4.73661 61.039
515 2 13.8868 4.90907 58.9723
516 1 7.77743 3.37272 56.0932
517 1 5.80557 0.0164835 56.0725
518 1 4.22386 5.99368 55.3071
519 2 3.73083 5.12608 53.0123
520 1 5.27415 5.31469 50.986
521 1 8.36528 0.818306 51.2943
522 1 8.34988 5.32649 51.8935
523 2 7.21374 5.97954 49.525
524 1 6.11868 4.83587 45.2242
525 1 8.17668 5.47316 43.2975
526 1 8.16474 5.46445 47.0753
527 1 5.3563 5.5086 42.2526
528 1 6.42394 0.113826 53.2534
529 2 11.0231 5.34864 51.2447
530 1 13.0319 5.36921 53.2348
531 1 5.47834 0.736043 50.3542
532 1 11.5712 6.21691 48.9727
533 1 9.26128 6.62451 40.9345
534 1 15.7016 5.47191 52.4006
535 2 16.058 4.9731 49.777
536 1 13.6369 4.9641 50.5968
537 1 14.1202 6.27602 48.2358
538 2 8.05575 0.754967 46.7069
539 1 10.2346 5.96027 45.2051
540 1 11.0807 5.48622 42.7209
541 1 13.1968 5.2708 45.8871
542 1 13.9526 4.88841 43.3499
543 1 8.51849 0.848168 54.9971
544 1 3.57647 1.36923 48.1382
545 2 14.8706 6.16008 55.0488
546 2 12.3068 2.65233 54.5464
547 1 10.5532 1.23927 52.9896
548 1 14.1127 0.236608 51.002
549 1 13.4806 0.572741 53.6624
550 1 12.9271 2.60243 51.9032
551 1 11.2554 0.812563 50.3761
552 1 10.6659 1.17812 46.0854
553 1 11.4086 0.694313 43.4441
554 1 8.69165 0.639899 44.1618
555 2 9.5704 0.144798 41.495
556 1 1.69106 1.88615 55.6257
557 1 15.6448 2.7694 51.3134
558 1 14.9158 3.15727 53.9507
559 2 14.0049 2.30362 49.2615
560 1 12.7543 2.7929 47.0011
561 1 3.94965 3.34459 54.9564
562 1 4.97646 2.80108 52.3639
563 1 3.54242 5.36658 46.0283
564 1 16.7803 6.5724 47.817
565 1 15.0156 1.34169 47.0723
566 1 16.0137 5.35772 45.2856
567 1 17.8652 5.84987 43.2709
568 2 13.3402 0.793633 45.3882
569 1 3.81482 0.705917 53.9831
570 1 2.63912 4.11542 51.0763
571 2 2.28454 2.78222 53.2063
572 1 1.00995 0.846716 49.2602
573 1 0.978051 0.655916 53.0106
574 1 2.92448 1.28656 51.1341
575 2 1.82901 0.149028 46.7667
576 1 0.673862 0.755698 44.2798
577 1 2.01978 2.73797 45.9938
578 1 15.2651 3.99381 47.5103
579 1 15.7943 5.41155 41.3274
580 1 13.6799 2.17481 43.3188
581 2 15.6613 1.20857 41.7178
582 1 16.3893 3.36519 43.275
583 2 14.8148 3.11078 45.2625
584 1 14.3863 3.19705 40.9982
585 1 6.3501 1.94889 47.9613
586 1 3.71964 0.838592 45.1836
587 1 5.0507 2.83515 41.2781
588 1 2.89598 1.17227 42.0315
589 2 5.3456 1.03744 43.2158
590 1 13.1427 0.932453 41.0389
591 1 17.0223 4.78139 54.8176
592 1 6.27947 4.76325 53.8998
593 2 6.09939 2.11919 54.7203
594 2 4.55981 3.04255 49.7462
595 1 2.6391 4.03699 48.3945
596 1 10.5698 3.83052 55.8663
597 1 8.0104 2.81193 53.1649
598 2 9.6157 2.98128 51.1091
599 1 7.05591 3.32262 50.2946
600 1 9.1289 2.04272 48.7463
601 1 5.49365 4.74855 48.1286
602 1 9.33492 4.72215 49.3233
603 2 6.75857 3.38189 43.2561
604 1 3.96243 3.36468 43.7409
605 1 6.35994 1.99098 45.276
606 1 7.55125 4.26354 40.965
607 1 10.6617 3.91155 53.1976
608 2 8.76545 5.05103 54.4919
609 2 4.47946 3.0867 46.508
610 2 2.56755 3.86345 41.2306
611 1 11.6525 3.42645 49.4842
612 1 8.74455 3.41116 45.2927
613 1 9.5418 2.96714 42.7455
614 2 12.0369 3.13666 41.9265
615 1 10.4131 4.118 40.5741
616 2 10.5661 4.19032 47.2158
617 1 11.4506 3.50476 44.6647
618 1 7.48793 1.43847 41.682
ITEM: TIMESTEP
100
ITEM: NUMBER OF ATOMS
618
ITEM: BOX BOUNDS xy xz yz pp pp ff
0.0000000000000000e+00 1.9317770367296919e+01 4.0025167278329121e+00
0.0000000000000000e+00 6.6702723500479264e+00 0.0000000000000000e+00
0.0000000000000000e+00 1.0921147561319708e+02 0.0000000000000000e+00
ITEM: ATOMS id type x y z
1 1 4.17317 6.36225 6.3632
2 1 5.87935 6.65099 8.78211
3 1 4.12625 6.3421 13.4394
4 1 5.21465 0.614314 6.2713
5 1 3.54273 0.263806 11.1243
6 1 5.76849 6.62514 15.7324
7 1 4.25435 6.19665 20.292
8 1 11.9572 6.42398 6.29287
9 1 6.93003 1.05474 8.72573
10 1 5.14472 0.645375 13.3807
11 1 3.47715 0.150554 18.0717
12 1 6.02517 6.54805 22.5906
13 1 4.38588 6.10984 27.3027
14 1 10.1839 1.66238 6.26861
15 1 13.6574 6.70941 8.66973
16 1 8.55071 1.37555 10.9962
17 1 11.8819 6.38054 13.3384
18 1 6.71504 0.808866 15.6538
19 1 5.23556 0.517915 20.3934
20 1 3.76218 0.151831 24.9423
21 1 6.03265 6.29642 29.552
22 1 4.45013 5.98702 34.3192
23 1 12.7973 0.629384 6.38862
24 1 12.4076 3.4704 6.33449
25 1 11.8526 2.00637 8.69649
26 1 11.2257 0.396758 11.0616
27 1 10.7592 3.29931 10.9525
28 1 10.057 1.60966 13.2671
29 1 13.3849 6.43578 15.641
30 1 8.35695 1.06759 17.9447
31 1 11.8481 6.16165 20.3501
32 1 6.98132 0.789757 22.6411
33 1 5.3192 0.390547 27.2804
34 1 3.6309 0.0131181 31.8851
35 1 6.02346 6.29401 36.6435
36 1 15.0662 2.44481 6.41857
37 1 14.5092 0.966157 8.78424
38 1 14.1846 3.82523 8.76058
39 1 13.4178 2.26034 11.0434
40 1 12.728 0.672464 13.3374
41 1 12.3196 3.48487 13.2949
42 1 11.6751 1.79207 15.6721
43 1 10.9997 0.058005 17.8953
44 1 10.5963 2.94231 17.8645
45 1 10.0987 1.42323 20.3511
46 1 13.5485 6.48966 22.7843
47 1 8.67968 1.09051 25.0631
48 1 12.0062 5.9972 27.3049
49 1 6.97418 0.608981 29.696
50 1 5.36118 0.335475 34.3161
51 1 7.42878 6.5748 38.9642
52 1 2.4874 1.52179 6.36764
53 1 17.2921 4.29055 6.3725
54 1 16.7718 2.80519 8.84131
55 1 0.847233 1.27138 11.1467
56 1 15.765 4.11196 11.1692
57 1 15.0466 2.52925 13.416
58 1 14.3096 0.820053 15.7176
59 1 13.8666 3.65798 15.618
60 1 13.2403 2.09627 17.9276
61 1 12.8485 0.431459 20.2609
62 1 12.3485 3.29065 20.3162
63 1 11.8576 1.77832 22.6548
64 1 11.3186 0.0231047 24.9906
65 1 10.7946 2.91532 25.0335
66 1 10.238 1.19903 27.3795
67 1 13.678 6.27195 29.7026
68 1 8.6939 0.968971 31.987
69 1 12.0589 6.01501 34.3035
70 1 6.94658 0.750099 36.4862
71 1 4.62971 3.61778 6.32497
72 1 4.20656 1.82169 8.841
73 1 3.60554 4.76506 8.83854
74 1 3.08543 3.11073 11.1888
75 1 2.43019 1.47375 13.503
76 1 17.2688 4.39871 13.4185
77 1 16.5617 2.76357 15.801
78 1 0.73172 1.15108 18.0624
79 1 15.5742 3.92984 18.0081
80 1 15.1061 2.30381 20.3586
81 1 14.6186 0.838642 22.6629
82 1 14.0329 3.62047 22.5781
83 1 13.5144 2.06168 24.968
84 1 13.0005 0.309816 27.3118
85 1 12.5501 3.05323 27.3375
86 1 11.9751 1.49177 29.6966
87 1 11.2776 -0.0183494 31.9509
88 1 10.8629 2.79032 32.1067
89 1 10.2648 1.20439 34.2727
90 1 13.6998 6.36822 36.6105
91 1 8.82837 0.966377 39.2329
92 1 7.46073 2.72871 6.21316
93 1 6.93751 5.47706 6.27606
94 1 6.37906 3.87995 8.73855
95 1 5.82676 2.20436 11.105
96 1 5.2782 4.99583 11.1245
97 1 4.62872 3.49406 13.44
98 1 4.05507 1.80453 15.8361
99 1 3.51906 4.6849 15.7415
100 1 2.95804 3.06612 18.0424
101 1 2.55636 1.50142 20.33
102 1 17.3205 4.30708 20.3671
103 1 16.812 2.7251 22.6114
104 1 1.01083 1.07479 24.9172
105 1 15.7907 3.85331 24.9935
106 1 15.1865 2.14226 27.195
107 1 14.6338 0.592436 29.6503
108 1 14.1023 3.40886 29.6203
109 1 13.617 1.82107 31.8832
110 1 12.8834 0.247566 34.2841
111 1 12.5064 3.17925 34.3147
112 1 11.8943 1.48218 36.5318
113 1 15.3721 6.59602 38.8724
114 1 11.0189 2.77054 38.5787
115 1 9.70073 4.53322 6.2856
116 1 9.12078 2.95133 8.66096
117 1 8.60671 5.73636 8.69699
118 1 8.03539 4.14612 11.0722
119 1 7.40584 2.54721 13.3627
120 1 6.87383 5.32604 13.3898
121 1 6.20808 3.6968 15.7733
122 1 5.73235 2.13962 18.07
123 1 5.1966 4.98946 18.0348
124 1 4.83951 3.33041 20.4034
125 1 4.35261 1.82481 22.7089
126 1 3.82781 4.74281 22.5421
127 1 3.23948 2.92471 24.9468
128 1 2.55518 1.37389 27.3459
129 1 17.4077 4.20037 27.3248
130 1 16.8536 2.50373 29.583
131 1 0.920339 0.928144 31.938
132 1 15.7428 3.74758 31.8821
133 1 15.1711 2.13571 34.2543
134 1 14.6539 0.54874 36.5582
135 1 14.1721 3.37174 36.5634
136 1 13.6413 1.96 38.8123
137 1 11.3939 4.8459 8.69933
138 1 10.2609 6.02478 11.1043
139 1 9.59267 4.37364 13.2619
140 1 8.9329 2.79539 15.6617
141 1 8.48939 5.58952 15.6722
142 1 7.92005 3.93303 17.9564
143 1 7.41165 2.41235 20.3696
144 1 6.99292 5.2721 20.3393
145 1 6.50619 3.75636 22.7229
146 1 5.97144 2.14231 25.0472
147 1 5.57852 4.93967 25.0483
148 1 4.94085 3.27624 27.2793
149 1 4.19565 1.6111 29.535
150 1 3.75965 4.469 29.5409
151 1 3.13417 2.84018 31.9048
152 1 2.61209 1.19756 34.3162
153 1 17.4301 4.1057 34.2727
154 1 1.51747 2.43989 36.6391
155 1 0.830751 0.942872 39.2649
156 1 15.9763 3.8453 38.9988
157 1 14.6739 5.32546 6.38564
158 1 13.0276 5.17901 11.0411
159 1 11.1308 4.69789 15.6015
160 1 10.1706 5.83802 17.9945
161 1 9.60443 4.28805 20.3317
162 1 9.1677 2.69366 22.7155
163 1 8.78839 5.63571 22.7276
164 1 8.21906 3.93706 25.0216
165 1 7.61099 2.26972 27.3294
166 1 7.10521 5.18979 27.2983
167 1 6.55801 3.52858 29.6934
168 1 5.93755 1.95453 31.9423
169 1 5.45904 4.874 31.9349
170 1 4.84846 3.17463 34.2424
171 1 4.17279 1.55362 36.6421
172 1 3.76677 4.3306 36.6928
173 1 3.2048 2.72481 39.1805
174 1 16.3387 5.66911 8.80198
175 1 14.6104 5.40352 13.3484
176 1 12.8178 4.82062 18.0095
177 1 11.3426 4.64121 22.6797
178 1 10.3595 5.84326 25.0692
179 1 9.84042 4.18159 27.343
180 1 9.20763 2.47614 29.6826
181 1 8.73643 5.36799 29.6742
182 1 8.19726 3.79641 31.9674
183 1 7.54344 2.2982 34.2155
184 1 7.0919 5.07839 34.328
185 1 6.56206 3.4851 36.608
186 1 6.02594 1.92151 38.8377
187 1 5.31167 4.84656 39.0482
188 1 17.9782 6.03668 11.1905
189 1 16.1446 5.59119 15.697
190 1 14.5929 5.23345 20.3099
191 1 13.0844 4.86166 25.0308
192 1 11.4974 4.33011 29.6453
193 1 10.3772 5.79786 31.9811
194 1 9.88478 4.17344 34.2363
195 1 9.22112 2.47644 36.3682
196 1 8.69133 5.44443 36.4691
197 1 8.3586 3.6522 38.6003
198 1 17.8386 5.91136 17.9687
199 1 16.3275 5.55043 22.5837
200 1 14.7285 5.02141 27.292
201 1 13.0893 4.68347 31.9584
202 1 11.6027 4.54701 36.5612
203 1 10.5936 5.77906 38.5509
204 1 18.0981 5.76848 24.9864
205 1 16.3355 5.29918 29.6426
206 1 14.6815 5.03442 34.2989
207 1 13.214 4.79223 39.2436
208 1 17.9753 5.63583 31.8962
209 1 16.3826 5.28713 36.5573
210 1 18.02 5.67179 39.0629
211 2 14.6617 1.56874 101.886
212 1 15.1919 1.11066 99.1563
213 1 3.74021 0.424835 102.927
214 1 2.6391 1.17558 98.622
215 1 1.69804 1.634 101.085
216 2 0.794292 0.599631 96.4922
217 1 14.9369 1.13958 94.1455
218 1 6.16978 1.74209 102.358
219 1 7.09659 1.35136 99.7781
220 1 5.87208 6.39609 94.3268
221 1 4.87338 2.64179 98.3873
222 2 4.46831 1.30007 100.589
223 1 4.29871 1.19528 93.3275
224 1 2.1836 2.35763 94.7635
225 1 0.530108 0.477655 90.3688
226 1 3.3178 1.68497 90.4366
227 2 1.67661 1.47878 92.4522
228 1 0.629108 0.449171 87.7157
229 1 8.59413 0.441538 95.2139
230 1 7.28871 1.08287 88.7209
231 1 9.07894 6.4149 89.6515
232 1 12.1715 5.04682 103.071
233 1 3.84525 3.24703 102.077
234 1 8.49114 3.22807 101.528
235 1 6.32349 4.69835 102.792
236 2 8.38714 0.663581 102.118
237 2 5.93924 3.6255 100.529
238 1 7.44776 3.83652 98.2952
239 2 6.77804 1.57575 97.0508
240 1 4.74525 2.52881 95.6469
241 1 12.9143 2.28967 103.029
242 1 10.2585 1.34547 100.429
243 1 14.4705 5.99866 98.4391
244 2 11.82 1.403 98.3685
245 1 10.4463 3.83266 99.2332
246 1 9.26954 1.89871 97.5809
247 1 11.287 0.469634 95.9575
248 1 7.70643 3.24823 95.4664
249 1 11.5724 3.14385 96.5672
250 2 9.44525 4.46228 96.7718
251 1 8.49612 3.18651 92.6904
252 2 8.95952 1.68866 90.5937
253 1 10.3906 3.89561 90.6912
254 1 6.38495 1.72433 91.2589
255 1 8.72426 0.339317 92.6578
256 1 10.4926 3.97512 94.3731
257 1 7.54892 3.81246 89.749
258 1 9.52411 2.55627 88.3638
259 1 12.8723 2.49168 100.366
260 2 11.1177 3.38841 101.861
261 1 12.6821 5.42177 100.384
262 2 13.249 3.83128 98.4038
263 1 15.1795 3.97977 100.412
264 1 11.609 5.84956 97.5807
265 1 13.7405 4.70004 96.1029
266 2 6.78922 1.53713 93.8917
267 2 5.2391 2.41407 88.9138
268 1 11.0889 5.09528 87.9964
269 1 2.68996 4.07387 99.4472
270 1 13.8322 1.84141 96.7638
271 1 11.0162 1.81223 92.5514
272 1 11.6559 1.28472 90.0399
273 2 13.9584 1.31638 89.1413
274 1 12.0622 2.59859 87.6066
275 2 3.03038 3.43802 97.0107
276 1 15.8491 3.45745 97.8158
277 1 16.3446 4.62279 95.4636
278 2 12.8584 2.58811 94.4179
279 1 13.6615 1.91127 91.776
280 2 14.3571 5.75052 93.9
281 1 12.5365 4.3433 92.354
282 1 13.1935 3.86771 89.7694
283 1 15.537 3.59717 93.0246
284 1 16.1498 3.31647 90.294
285 1 13.7302 6.407 88.8434
286 1 14.9088 6.04554 102.31
287 1 9.91563 6.48862 95.4016
288 2 17.1863 4.65744 101.969
289 1 16.7374 6.60034 100.242
290 1 5.04677 5.3842 98.3774
291 1 4.30443 5.77861 101.098
292 1 17.386 5.93936 97.6023
293 1 16.8059 6.24282 93.3063
294 1 17.5886 5.80881 90.7006
295 1 14.8935 5.63987 91.3423
296 2 16.0096 5.40632 88.6766
297 1 5.77249 3.80079 93.3089
298 1 3.55132 4.9949 94.799
299 1 2.9126 3.74867 92.3473
300 1 4.99566 4.33869 90.51
301 2 4.24055 5.89675 92.4626
302 1 9.96528 5.6509 101.464
303 1 7.31633 6.11671 96.4315
304 1 7.30945 5.72679 100.429
305 1 9.20192 6.51148 98.3894
306 2 8.10091 5.30217 94.0676
307 1 6.93545 5.90091 91.7394
308 1 2.99422 3.94653 88.6392
309 2 6.53693 6.16787 89.1648
310 1 10.0786 5.92151 92.5587
311 2 11.6389 6.08235 90.4487
312 1 5.57676 4.41884 87.5724
313 1 3.54569 1.18602 87.632
314 1 13.294 0.336691 86.8726
315 2 16.7533 6.21855 84.6003
316 1 18.3326 6.41522 82.6009
317 1 6.054 1.92649 82.7735
318 1 6.08736 6.40995 83.4035
319 2 1.01413 0.554709 81.0986
320 1 3.94487 5.99001 76.8506
321 1 5.84421 6.64917 74.837
322 1 6.14996 6.83318 78.7403
323 1 18.2883 6.57102 73.998
324 1 4.0742 1.17826 84.7382
325 2 8.72918 6.41947 82.8252
326 1 10.7369 6.44981 84.8879
327 1 3.13928 1.90838 81.8801
328 1 5.29029 0.763251 80.5044
329 1 2.65443 1.18238 72.2053
330 1 13.3884 6.58105 83.8883
331 2 13.7603 6.09539 81.2731
332 1 11.3256 6.16124 82.1375
333 1 7.78687 0.670042 79.7899
334 2 5.77179 1.83008 78.2322
335 1 4.01243 0.495357 76.6189
336 1 8.65739 6.57104 74.0168
337 1 10.9703 6.36645 77.4193
338 1 11.6355 6.03907 74.6618
339 1 6.23191 1.9868 86.4741
340 1 16.375 2.64018 79.7155
341 2 8.66353 0.666879 86.5972
342 2 9.99395 3.67801 86.0777
343 1 8.26985 2.3321 84.5149
344 1 11.853 1.35645 82.6105
345 1 11.0838 1.57212 85.2618
346 1 10.5626 3.75365 83.4489
347 1 8.97348 2.05319 81.8482
348 1 8.28552 2.37952 77.6024
349 1 9.12167 1.922 74.9722
350 1 6.40224 1.74227 75.5874
351 2 7.41923 1.44521 72.9573
352 1 14.6665 2.94378 87.2904
353 1 13.333 3.88488 82.7896
354 1 12.6017 4.21212 85.4664
355 2 11.6437 3.33354 80.8607
356 1 10.4216 3.94073 78.5785
357 1 16.9103 4.32968 86.4528
358 1 2.59508 3.90304 83.9173
359 1 16.5482 6.50832 77.5728
360 1 10.3141 1.14733 79.1806
361 1 12.669 2.47512 78.6049
362 1 13.7215 6.49081 76.6367
363 1 11.6875 0.46038 74.7564
364 2 11.0025 1.96262 76.8598
365 1 1.54037 1.74345 85.5089
366 1 15.5705 5.30946 82.6679
367 2 15.1988 3.92551 84.7258
368 1 13.9052 1.75352 80.8303
369 1 13.9652 1.80937 84.618
370 1 15.9184 2.44444 82.6548
371 2 14.9215 1.26801 78.3342
372 1 13.8435 2.02203 75.9735
373 1 15.0232 4.01515 77.6114
374 1 13.0562 5.15505 79.0331
375 1 13.6804 6.76652 72.8783
376 1 11.321 3.2936 74.7746
377 2 13.2688 2.21206 73.4496
378 1 14.0485 4.50529 74.6677
379 2 12.4413 4.29224 76.7477
380 1 11.2985 3.02362 72.1481
381 1 3.97028 2.9889 79.576
382 1 1.44402 1.92005 76.784
383 1 2.84736 3.88433 72.9436
384 1 15.8474 2.43658 74.028
385 2 3.11337 2.11843 74.6166
386 1 12.3806 0.440532 71.9074
387 1 14.7456 5.8727 86.4443
388 1 3.97696 5.79755 85.4271
389 2 3.82727 3.22136 86.169
390 2 17.5683 4.17959 81.282
391 1 15.6797 5.49116 80.0065
392 1 8.35716 5.07604 87.3706
393 1 5.63616 3.91514 84.6414
394 2 7.40194 4.0682 82.5745
395 1 4.69114 4.49588 81.8736
396 1 6.83139 3.22824 80.1405
397 1 18.5349 5.86002 79.6758
398 1 6.98993 5.89268 80.8941
399 2 4.58179 4.49178 74.7837
400 1 17.1833 4.44769 75.5565
401 1 4.12776 3.09642 76.8538
402 1 5.03034 5.28024 72.5138
403 1 8.31052 5.01473 84.6898
404 2 6.4189 6.14589 85.9907
405 2 17.5139 4.22236 78.0749
406 2 15.9049 5.17179 73.2257
407 1 9.36756 4.68299 80.9666
408 1 6.45838 4.56583 76.8714
409 1 7.13681 4.05317 74.221
410 2 9.43149 4.12277 73.3677
411 1 7.59246 5.37384 71.8906
412 2 8.39291 5.50034 78.6836
413 1 9.103 4.66633 76.0175
414 1 5.20484 2.44724 73.0725
415 2 5.52626 6.46963 70.3142
416 1 6.09563 6.49446 67.66
417 1 10.317 5.63471 71.3938
418 1 8.83653 6.66148 67.0545
419 1 4.1038 0.221607 69.6609
420 2 7.20172 6.19818 64.9739
421 1 1.93444 0.122811 62.7189
422 1 8.42744 0.438226 70.7297
423 1 9.41785 0.0641636 68.2077
424 1 8.19719 5.36728 62.7821
425 1 7.16402 1.27876 66.8726
426 2 10.7352 6.63358 68.9294
427 1 6.53977 0.0335318 61.8635
428 1 4.51352 1.34343 63.1398
429 1 6.89226 6.11659 58.8929
430 1 5.4265 0.717453 58.9103
431 2 3.87299 0.496694 60.9285
432 1 6.77979 5.9528 56.2586
433 1 14.8324 5.80919 63.8025
434 1 13.4958 6.56961 57.2137
435 1 11.2385 5.32857 58.2301
436 1 14.2704 3.84931 71.8782
437 1 6.19839 1.92598 70.5625
438 1 10.772 1.94472 69.7039
439 1 8.79659 3.20093 71.0386
440 2 14.5621 5.95444 70.5456
441 2 8.18268 2.31902 68.8022
442 1 9.74306 2.45672 66.8165
443 2 9.06277 0.238257 65.6286
444 1 7.1991 1.37695 64.1869
445 1 15.1907 1.05406 71.6757
446 1 12.5479 -0.0353078 69.0185
447 1 16.7268 4.63905 67.104
448 2 14.0666 0.154991 66.9934
449 1 12.7983 2.52312 67.7131
450 1 11.5515 0.452062 66.1662
451 1 17.5106 5.87646 64.5658
452 1 10.043 1.91601 64.0331
453 1 13.7626 1.84246 65.1113
454 2 11.7325 3.17351 65.3655
455 1 10.6854 2.00224 61.1271
456 2 11.2646 0.625371 59.0614
457 1 12.597 2.77116 59.2584
458 1 8.56997 0.534945 59.7957
459 1 14.9247 5.90221 61.1428
460 1 12.6999 2.66032 62.934
461 1 9.60775 2.65043 58.2254
462 1 11.6607 1.53649 56.7838
463 1 15.1442 1.04691 69.0131
464 2 13.2768 2.17492 70.3676
465 1 14.8755 3.87693 69.0725
466 2 15.461 2.47919 66.9855
467 1 2.17672 2.52165 68.9237
468 1 13.9366 4.63304 66.1512
469 1 16.065 3.38641 64.6732
470 2 8.98303 0.342635 62.3825
471 2 7.39503 1.28672 57.4884
472 1 13.2927 3.91231 56.6654
473 1 4.89018 2.68465 68.1048
474 1 0.746893 0.561536 65.1855
475 1 13.2635 0.729733 61.0428
476 1 13.8325 0.304154 58.3746
477 2 0.933554 0.237036 57.5204
478 1 14.3072 1.60057 56.0771
479 2 5.21801 2.16023 65.5746
480 1 2.74391 2.11437 66.2724
481 1 3.29094 3.53012 63.9806
482 2 15.1218 1.37552 62.907
483 1 0.573383 0.81123 60.2046
484 2 16.5645 4.69315 62.4694
485 1 14.8422 3.30798 60.8889
486 1 15.4884 2.83436 58.2486
487 1 2.45262 2.6007 61.5082
488 1 3.00043 2.23986 58.8705
489 1 15.835 5.41206 57.2968
490 1 16.8989 4.51314 70.811
491 1 12.017 5.29082 64.066
492 2 4.0793 3.32211 70.7322
493 1 3.68685 4.98129 68.7198
494 1 7.35759 4.07234 66.6846
495 1 6.62012 4.44874 69.3719
496 1 4.45058 4.70541 66.0972
497 1 3.75769 5.17233 61.7268
498 1 4.518 4.7447 59.1199
499 1 17.1382 4.70907 59.7272
500 2 2.95502 4.28102 57.1639
501 1 8.1194 2.6708 61.9537
502 1 5.93433 3.93588 63.4981
503 1 5.16992 2.58931 60.8085
504 1 7.04283 3.26315 58.9401
505 2 6.5436 4.78209 61.0508
506 1 12.2779 4.49202 69.831
507 1 9.37239 4.58829 65.012
508 1 9.47872 4.49739 68.7924
509 1 11.3921 5.10609 66.9391
510 2 10.3564 4.09181 62.6255
511 1 9.10323 4.79006 60.1962
512 1 5.16866 2.88732 57.054
513 2 8.69958 4.93582 57.6749
514 1 12.3079 4.73875 61.2125
515 2 13.8515 4.95583 59.084
516 1 7.81951 3.27068 56.0369
517 1 5.56885 0.0719413 56.1377
518 1 4.17665 5.99916 55.2889
519 2 3.73987 5.09117 52.95
520 1 5.32876 5.36025 51.0333
521 1 8.40097 0.761093 51.1603
522 1 8.27321 5.19633 51.8396
523 2 7.28334 6.00156 49.5678
524 1 6.13666 4.77597 45.2658
525 1 8.13043 5.52819 43.2591
526 1 8.31459 5.68274 47.0982
527 1 5.28924 5.59209 42.2609
528 1 6.35838 0.035649 53.2057
529 2 11.0017 5.23417 51.2219
530 1 12.9848 5.37355 53.067
531 1 5.4654 0.726031 50.3973
532 1 11.5497 6.17832 48.9196
533 1 9.19498 6.65051 40.8262
534 1 15.6278 5.41211 52.4443
535 2 16.0206 5.00905 49.7385
536 1 13.579 4.90882 50.4976
537 1 14.2398 6.25326 48.2119
538 2 8.10709 0.738441 46.6872
539 1 10.2764 5.95177 45.1767
540 1 11.1284 5.51359 42.6432
541 1 13.3275 5.28366 45.836
542 1 13.9459 4.89596 43.4012
543 1 8.29411 0.634358 54.984
544 1 3.48488 1.43536 48.1084
545 2 14.7267 6.13444 55.1098
546 2 12.2052 2.64449 54.5748
547 1 10.4798 1.1757 52.9938
548 1 14.0452 0.336912 51.1283
549 1 13.3565 0.455347 53.6507
550 1 12.8521 2.55491 51.9482
551 1 11.3561 0.747043 50.4422
552 1 10.8136 1.18363 46.1078
553 1 11.4201 0.678717 43.4943
554 1 8.72664 0.656974 44.255
555 2 9.53863 0.27543 41.5816
556 1 1.48069 1.92326 55.5292
557 1 15.6549 2.80611 51.2272
558 1 14.8062 3.14951 53.8698
559 2 14.0121 2.36221 49.3237
560 1 12.9198 2.94475 46.9569
561 1 3.90426 3.21376 54.8149
562 1 4.96172 2.79583 52.41
563 1 3.65756 5.39675 45.9957
564 1 17.0007 6.63049 47.8476
565 1 15.1182 1.46511 47.0161
566 1 16.1539 5.39623 45.3004
567 1 17.9019 5.82732 43.2987
568 2 13.4189 0.862801 45.3661
569 1 3.77372 0.621764 53.91
570 1 2.64282 4.16649 50.9921
571 2 2.27971 2.78711 53.1381
572 1 0.901402 0.708161 49.3213
573 1 0.986902 0.725273 52.9771
574 1 2.87908 1.32002 51.0876
575 2 1.86577 0.060122 46.7352
576 1 0.808668 0.917014 44.313
577 1 2.0917 2.76919 45.9963
578 1 15.4207 4.06597 47.5094
579 1 15.5602 5.53494 41.186
580 1 13.6946 2.14804 43.3134
581 2 15.669 1.20732 41.7695
582 1 16.3779 3.35694 43.1687
583 2 14.9381 3.25052 45.2278
584 1 14.3685 3.15652 41.0394
585 1 6.36001 1.83545 47.8352
586 1 3.70517 0.906033 45.1494
587 1 5.12703 2.90089 41.2529
588 1 2.99528 1.1938 42.0076
589 2 5.41779 1.04086 43.1804
590 1 13.1627 0.873564 41.1051
591 1 17.0489 4.74052 54.7586
592 1 6.16612 4.68774 53.9472
593 2 6.02251 2.05744 54.6354
594 2 4.58502 3.07806 49.7575
595 1 2.78657 4.15248 48.3879
596 1 10.5614 3.98313 55.8915
597 1 8.04634 2.71077 53.2078
598 2 9.66139 2.93987 51.0277
599 1 7.08701 3.28441 50.2025
600 1 9.211 2.06317 48.6986
601 1 5.53503 4.69928 48.124
602 1 9.323 4.67396 49.3435
603 2 6.7882 3.39751 43.2707
604 1 4.05265 3.43638 43.7258
605 1 6.38383 2.02795 45.2048
606 1 7.54258 4.23592 40.9731
607 1 10.6256 3.82402 53.199
608 2 8.70854 4.96681 54.4285
609 2 4.55686 3.05264 46.5392
610 2 2.45418 3.90865 41.1718
611 1 11.6088 3.36552 49.4255
612 1 8.79767 3.54613 45.2804
613 1 9.55921 2.97588 42.7347
614 2 12.035 3.12206 41.9767
615 1 10.4672 4.09192 40.598
616 2 10.7494 4.30313 47.1825
617 1 11.4917 3.53323 44.6965
618 1 7.46747 1.39978 41.6898
ITEM: TIMESTEP
200
ITEM: NUMBER OF ATOMS
618
ITEM: BOX BOUNDS xy xz yz pp pp ff
0.0000000000000000e+00 1.9317770367296919e+01 4.0025167278329121e+00
0.0000000000000000e+00 6.6702723500479264e+00 0.0000000000000000e+00
0.0000000000000000e+00 1.0921147561319708e+02 0.0000000000000000e+00
ITEM: ATOMS id type x y z
1 1 4.48044 6.31173 6.29553
2 1 6.02034 6.74506 8.74235
3 1 4.27832 6.20804 13.4083
4 1 5.25022 0.732898 6.17077
5 1 3.57891 0.475548 11.0313
6 1 5.83528 6.515 15.689
7 1 4.16357 6.27612 20.4088
8 1 12.0747 6.49051 6.09885
9 1 6.81202 1.0027 8.66456
10 1 5.12851 0.537823 13.3726
11 1 3.42194 0.258347 18.0001
12 1 5.94511 6.49273 22.8004
13 1 4.49231 6.01404 27.3768
14 1 10.3186 1.70504 6.2224
15 1 13.5289 6.84852 8.67985
16 1 8.44587 1.34162 11.0538
17 1 11.7424 6.3192 13.4446
18 1 6.70881 0.871589 15.7017
19 1 5.24418 0.459995 20.366
20 1 3.75431 -0.0133711 24.9819
21 1 6.10218 6.42252 29.6936
22 1 4.28683 5.96827 34.2821
23 1 13.0736 0.751665 6.1853
24 1 12.5834 3.63289 6.15688
25 1 11.9141 1.98555 8.67061
26 1 11.1379 0.346634 11.1259
27 1 10.646 3.17114 11.1592
28 1 10.1111 1.52875 13.3036
29 1 13.4427 6.72684 15.7027
30 1 8.40067 1.22961 18.0587
31 1 11.8951 6.19614 20.4242
32 1 6.91513 0.691226 22.6285
33 1 5.49668 0.32201 27.3432
34 1 3.66259 -0.133725 31.9966
35 1 6.00057 6.34191 36.7313
36 1 15.2202 2.67885 6.22052
37 1 14.6489 1.04608 8.6929
38 1 14.0034 3.81389 8.63697
39 1 13.4582 2.2548 11.1463
40 1 12.889 0.485387 13.4457
41 1 12.2895 3.4391 13.457
42 1 11.7764 1.85486 15.8093
43 1 11.2301 0.322648 18.0454
44 1 10.7024 3.07161 18.089
45 1 10.1164 1.38468 20.2784
46 1 13.6068 6.45537 22.6015
47 1 8.67484 0.953722 24.9551
48 1 12.1095 6.10333 27.2716
49 1 7.0975 0.656496 29.6472
50 1 5.18627 0.27051 34.2717
51 1 7.4028 6.8015 39.1521
52 1 2.51381 1.68557 6.20806
53 1 17.4591 4.64326 6.31248
54 1 16.7205 3.0344 8.66026
55 1 0.855251 1.29381 11.0628
56 1 15.7118 4.14236 11.009
57 1 15.0056 2.51079 13.4323
58 1 14.4584 0.886115 15.7419
59 1 13.9855 3.72339 15.7723
60 1 13.4394 2.06097 18.0455
61 1 12.8325 0.467822 20.4602
62 1 12.4252 3.32522 20.3439
63 1 11.8439 1.66483 22.727
64 1 11.2118 0.110905 24.9676
65 1 10.8897 2.92824 24.9055
66 1 10.3144 1.36327 27.1923
67 1 13.7852 6.30715 29.6448
68 1 8.58638 0.893593 31.8959
69 1 12.0846 6.03844 34.1924
70 1 7.00307 0.654634 36.5018
71 1 4.89343 3.52094 6.16034
72 1 4.10998 2.01422 8.6893
73 1 3.76825 4.8524 8.67639
74 1 3.07718 3.27791 11.0219
75 1 2.39921 1.64304 13.2946
76 1 17.2226 4.45171 13.3728
77 1 16.6823 2.78966 15.6722
78 1 0.791383 1.14225 17.9957
79 1 15.5242 4.00993 17.969
80 1 15.0188 2.44431 20.3577
81 1 14.634 0.72893 22.5639
82 1 14.1677 3.51865 22.7286
83 1 13.6932 1.96918 25.0996
84 1 13.0825 0.332286 27.3451
85 1 12.5683 3.31042 27.3667
86 1 11.9078 1.51594 29.5488
87 1 11.3111 -0.146873 31.9838
88 1 10.7568 2.70864 31.8272
89 1 10.3182 1.2488 34.2307
90 1 13.8002 6.36002 36.6123
91 1 8.81888 0.771449 39.1948
92 1 7.67963 2.57544 6.27085
93 1 7.14356 5.41071 6.27423
94 1 6.56296 3.91328 8.72248
95 1 5.73893 2.34679 10.9865
96 1 5.32202 5.15645 11.1288
97 1 4.73655 3.40222 13.3407
98 1 4.04725 1.8568 15.5678
99 1 3.57143 4.69677 15.6951
100 1 2.97055 2.95886 18.0396
101 1 2.36265 1.37391 20.3244
102 1 17.2692 4.36348 20.3256
103 1 16.7732 2.63569 22.652
104 1 0.954793 1.08415 25.0915
105 1 15.7572 3.89582 25.0107
106 1 15.2665 2.31028 27.3957
107 1 14.6168 0.536275 29.5973
108 1 14.1771 3.42189 29.7072
109 1 13.5106 1.79691 31.8929
110 1 12.9915 0.17693 34.1944
111 1 12.4088 3.10469 34.1504
112 1 11.9346 1.55749 36.4528
113 1 15.4525 6.6867 39.087
114 1 10.9323 2.74539 38.7032
115 1 9.78617 4.6331 6.16547
116 1 9.15159 3.02499 8.75159
117 1 8.62995 5.86106 8.63747
118 1 8.07959 4.18232 11.0931
119 1 7.38494 2.48176 13.314
120 1 6.96545 5.40778 13.3394
121 1 6.41958 3.72411 15.629
122 1 5.68772 2.04677 18.0346
123 1 5.26968 4.85246 18.0478
124 1 4.65715 3.49194 20.2992
125 1 4.19069 1.64652 22.602
126 1 3.73829 4.46876 22.6663
127 1 3.26454 2.98165 25.0122
128 1 2.74537 1.15147 27.3862
129 1 17.5203 4.09711 27.3767
130 1 16.9206 2.49184 29.6248
131 1 0.997167 0.858461 31.9081
132 1 15.8162 3.6682 31.9216
133 1 15.3085 2.16106 34.3321
134 1 14.5804 0.665974 36.5567
135 1 14.2605 3.58078 36.5167
136 1 13.6193 1.99645 38.6232
137 1 11.3112 4.83474 8.65714
138 1 10.2668 6.10837 10.9597
139 1 9.55044 4.47685 13.4269
140 1 8.98531 2.8296 15.7346
141 1 8.63902 5.5821 15.7668
142 1 7.90388 4.02489 18.0878
143 1 7.36134 2.35733 20.3083
144 1 7.00042 5.19689 20.3539
145 1 6.43329 3.521 22.5692
146 1 5.92478 1.91047 25.0031
147 1 5.53517 4.74043 24.948
148 1 4.88403 3.17022 27.3414
149 1 4.3018 1.56797 29.7012
150 1 3.84693 4.40719 29.6822
151 1 3.14283 2.76385 32.0163
152 1 2.49764 1.17348 34.3608
153 1 17.4723 3.97885 34.3088
154 1 1.63766 2.59944 36.7891
155 1 0.858038 1.02347 39.0613
156 1 16.1081 3.86698 39.0642
157 1 14.699 5.55966 6.15016
158 1 12.8318 5.05719 11.0088
159 1 11.2738 4.64888 15.7918
160 1 10.2012 5.93164 17.954
161 1 9.77359 4.32712 20.3884
162 1 9.19732 2.61666 22.7243
163 1 8.71054 5.48275 22.665
164 1 8.17125 3.87435 25.0181
165 1 7.64248 2.24555 27.2919
166 1 7.1428 5.07025 27.3866
167 1 6.48824 3.52839 29.6026
168 1 6.03451 1.79787 31.9831
169 1 5.43708 4.56197 31.9342
170 1 4.86326 3.17908 34.3986
171 1 4.24802 1.40079 36.6144
172 1 3.87401 4.58586 36.7707
173 1 3.32363 2.90006 38.9638
174 1 16.2532 5.79427 8.61973
175 1 14.4995 5.32234 13.3965
176 1 12.8622 5.06235 17.9671
177 1 11.5016 4.43978 22.6638
178 1 10.4951 5.71995 24.9378
179 1 9.80563 4.12669 27.3079
180 1 9.19622 2.5978 29.6699
181 1 8.68808 5.42866 29.6252
182 1 8.06381 3.73253 31.9211
183 1 7.55937 2.10272 34.2916
184 1 6.91829 5.10671 34.2858
185 1 6.40571 3.50512 36.6165
186 1 6.06091 1.83796 39.0175
187 1 5.4166 4.77446 39.2977
188 1 17.8709 6.08035 10.9951
189 1 16.124 5.6667 15.7132
190 1 14.5924 5.10788 20.2688
191 1 13.1521 4.8113 24.9402
192 1 11.4758 4.4597 29.617
193 1 10.3382 5.58862 32.0056
194 1 9.69215 4.0136 34.1387
195 1 9.13859 2.53679 36.509
196 1 8.52248 5.49486 36.6296
197 1 8.2357 3.57724 38.74
198 1 17.8435 5.81186 18.0383
199 1 16.4125 5.40091 22.6556
200 1 14.7785 5.05853 27.3471
201 1 13.2248 4.66265 31.9957
202 1 11.3481 4.458 36.334
203 1 10.6012 5.78456 38.5476
204 1 17.8908 5.90507 25.0231
205 1 16.4975 5.32831 29.5968
206 1 14.7444 5.03008 34.2994
207 1 13.1578 4.67293 38.9815
208 1 18.1229 5.70115 31.9627
209 1 16.4137 5.31342 36.6098
210 1 18.1392 5.64132 39.1797
211 2 14.573 1.41108 101.781
212 1 15.2079 1.11677 99.1162
213 1 3.91876 0.43249 102.818
214 1 2.67063 1.32966 98.6192
215 1 1.78007 1.6215 101.172
216 2 0.928022 0.643435 96.5204
217 1 15.0638 1.12289 94.1386
218 1 6.25244 1.86318 102.361
219 1 7.1933 1.36506 99.8403
220 1 6.07429 6.4851 94.3186
221 1 4.91636 2.70691 98.4126
222 2 4.61052 1.32166 100.47
223 1 4.27799 1.16703 93.3084
224 1 2.2193 2.46612 94.6666
225 1 0.622463 0.548801 90.4594
226 1 3.22069 1.65842 90.2977
227 2 1.73122 1.5737 92.4016
228 1 0.594088 0.394654 87.789
229 1 8.60797 0.492707 95.1989
230 1 7.36219 1.04093 88.7864
231 1 9.08952 6.39916 89.635
232 1 12.2429 5.07727 103.079
233 1 3.96926 3.2865 102.039
234 1 8.57635 3.31689 101.371
235 1 6.38197 4.73444 102.812
236 2 8.35244 0.664636 102.009
237 2 5.96361 3.69502 100.517
238 1 7.55595 3.79441 98.4407
239 2 6.79097 1.45139 97.2027
240 1 4.84072 2.40136 95.7341
241 1 12.722 2.36701 102.96
242 1 10.467 1.3314 100.489
243 1 14.6206 5.99961 98.3679
244 2 11.8575 1.55543 98.3605
245 1 10.5752 3.88264 99.2491
246 1 9.33663 1.85698 97.7194
247 1 11.3674 0.53156 96.0093
248 1 7.71296 3.13309 95.5568
249 1 11.562 3.21689 96.5787
250 2 9.53039 4.49041 96.8926
251 1 8.40422 3.20383 92.5788
252 2 9.0806 1.75217 90.5777
253 1 10.3296 3.84631 90.6837
254 1 6.27697 1.65337 91.3314
255 1 8.60003 0.292379 92.5964
256 1 10.2302 3.83974 94.3392
257 1 7.34196 3.64295 89.7069
258 1 9.4816 2.58275 88.3126
259 1 12.9457 2.42669 100.372
260 2 11.0453 3.50182 101.841
261 1 12.7737 5.39961 100.432
262 2 13.2455 3.86008 98.467
263 1 15.2581 3.87655 100.367
264 1 11.7095 5.89775 97.6256
265 1 13.8056 4.67887 96.1312
266 2 6.73904 1.43734 93.8331
267 2 5.1612 2.32831 88.9003
268 1 11.1373 5.12467 88.1439
269 1 2.68897 3.96896 99.5581
270 1 13.8765 1.86345 96.6956
271 1 10.9799 1.64686 92.6371
272 1 11.7019 1.36494 89.9456
273 2 14.1171 1.44901 89.0836
274 1 12.0407 2.69832 87.6566
275 2 3.00668 3.42933 96.8708
276 1 15.9183 3.45947 97.6553
277 1 16.3775 4.70998 95.3257
278 2 12.7752 2.60076 94.3911
279 1 13.6546 1.77276 91.7746
280 2 14.1622 5.78851 93.942
281 1 12.4601 4.27262 92.3284
282 1 13.3061 3.84883 89.7436
283 1 15.4541 3.65551 93.0644
284 1 16.0467 3.38791 90.5051
285 1 13.6735 6.42478 88.7968
286 1 15.0266 6.11408 102.449
287 1 9.93866 6.43866 95.4984
288 2 17.1165 4.6625 102.151
289 1 16.8027 6.41364 100.146
290 1 5.03471 5.35731 98.5044
291 1 4.24935 5.83422 101.214
292 1 17.5275 5.98135 97.5994
293 1 16.8668 6.19217 93.3452
294 1 17.6977 5.80439 90.6977
295 1 14.9534 5.76938 91.2981
296 2 15.9233 5.26217 88.5906
297 1 5.77281 3.77555 93.3916
298 1 3.82221 4.98958 94.9554
299 1 3.04784 3.69961 92.3285
300 1 4.93045 4.32097 90.4883
301 2 4.30257 5.80874 92.6993
302 1 10.0324 5.7855 101.603
303 1 7.25233 5.88216 96.5785
304 1 7.26206 5.86013 100.495
305 1 9.17996 6.5176 98.4706
306 2 8.09009 5.22223 94.1414
307 1 6.90295 5.85467 91.755
308 1 2.856 3.88412 88.6821
309 2 6.615 5.98616 89.1111
310 1 9.99555 5.85172 92.57
311 2 11.6238 5.98528 90.4936
312 1 5.52029 4.42975 87.6317
313 1 3.53011 1.13055 87.6075
314 1 13.1421 0.437634 86.8711
315 2 16.7193 6.19004 84.5622
316 1 18.2605 6.36699 82.4849
317 1 6.06467 1.95112 82.7114
318 1 6.05821 6.43654 83.3674
319 2 0.895547 0.408638 81.1185
320 1 3.88428 6.06902 76.9352
321 1 5.72645 6.66482 75.003
322 1 6.04175 6.80101 78.6022
323 1 18.2871 6.61315 74.0014
324 1 4.1056 1.24807 84.7418
325 2 8.72137 6.49382 82.6948
326 1 10.7503 6.54649 84.5956
327 1 3.13678 1.80423 81.8776
328 1 5.27936 0.483804 80.438
329 1 2.45919 1.0942 72.6138
330 1 13.401 6.59276 83.8961
331 2 13.8631 6.23486 81.2524
332 1 11.3474 6.04968 82.0126
333 1 7.87636 0.817445 79.6984
334 2 5.74573 1.78734 78.1481
335 1 4.01666 0.445759 76.5903
336 1 8.80328 6.7019 73.9508
337 1 10.868 6.40794 77.3432
338 1 11.5944 6.14755 74.6958
339 1 6.13444 1.93535 86.5243
340 1 16.4673 2.59842 79.8361
341 2 8.50821 0.548133 86.4907
342 2 10.0329 3.85903 86.0966
343 1 8.28914 2.41598 84.5453
344 1 11.8139 1.28001 82.6141
345 1 11.2707 1.65642 85.2285
346 1 10.7578 3.58968 83.3845
347 1 8.83263 1.92398 81.9624
348 1 8.32601 2.26548 77.6097
349 1 9.12837 1.92332 74.9315
350 1 6.34868 1.91329 75.4902
351 2 7.47549 1.44156 72.9251
352 1 14.7417 2.96454 87.0709
353 1 13.3703 3.9606 82.7871
354 1 12.6197 4.25717 85.4149
355 2 11.6261 3.33443 80.759
356 1 10.4466 3.92806 78.5091
357 1 16.9641 4.46223 86.4197
358 1 2.77739 3.88597 83.9586
359 1 16.6676 6.52485 77.711
360 1 10.5151 0.98364 79.1153
361 1 12.7147 2.53293 78.5816
362 1 13.6985 6.54533 76.6999
363 1 11.7053 0.358043 74.8152
364 2 11.0503 1.93132 76.823
365 1 1.6273 1.78199 85.4951
366 1 15.6406 5.20701 82.5653
367 2 15.3594 3.81828 84.6729
368 1 13.8412 1.90704 80.8983
369 1 14.0362 1.68598 84.558
370 1 15.9488 2.45722 82.6188
371 2 14.8241 1.39162 78.4412
372 1 13.7053 2.01821 76.0359
373 1 14.991 4.01761 77.6473
374 1 12.9353 5.1543 79.0214
375 1 13.7663 6.64516 72.9417
376 1 11.4534 3.29219 74.666
377 2 13.3549 2.07926 73.4347
378 1 14.0864 4.49693 74.7111
379 2 12.4613 4.34451 76.7338
380 1 11.2856 3.16572 72.0244
381 1 3.85567 2.76336 79.5723
382 1 1.4033 2.04163 76.8895
383 1 2.76906 3.82707 73.0976
384 1 15.8713 2.48778 74.02
385 2 3.10995 2.18826 74.8847
386 1 12.3886 0.480654 71.8295
387 1 14.6398 5.91744 86.409
388 1 4.04702 5.86808 85.5091
389 2 3.81279 3.19881 86.2791
390 2 17.6354 4.26104 81.378
391 1 15.6994 5.31406 79.9605
392 1 8.28716 4.94444 87.374
393 1 5.77907 3.97003 84.759
394 2 7.27103 4.17512 82.6646
395 1 4.72093 4.39441 81.8104
396 1 6.72847 3.14795 80.1918
397 1 18.7196 5.77706 79.6886
398 1 6.98912 5.80497 80.8393
399 2 4.42727 4.57896 74.9592
400 1 17.1549 4.54051 75.6762
401 1 4.08622 3.16359 76.9883
402 1 4.83279 5.3961 72.6265
403 1 8.46445 5.02572 84.6295
404 2 6.56449 6.16832 85.9588
405 2 17.5756 4.26439 78.2253
406 2 16.0232 5.00442 73.1971
407 1 9.28316 4.46132 81.0291
408 1 6.48023 4.56406 76.9732
409 1 7.06781 4.21809 74.2981
410 2 9.48642 4.14932 73.3831
411 1 7.47604 5.43881 71.8467
412 2 8.34742 5.50182 78.6802
413 1 9.12813 4.59286 75.9993
414 1 5.10012 2.63783 73.1007
415 2 5.53005 6.59434 70.4279
416 1 6.07966 6.41849 67.6481
417 1 10.0273 5.67298 71.2938
418 1 8.7714 6.60148 67.0758
419 1 3.97443 0.263601 69.5955
420 2 7.06811 6.13455 65.0231
421 1 1.90528 0.11225 62.8025
422 1 8.33844 0.390245 70.7979
423 1 9.47439 -0.0925287 68.078
424 1 8.15756 5.26999 62.849
425 1 7.07266 1.21273 66.7957
426 2 10.7414 6.55632 68.9472
427 1 6.43604 0.0915002 61.7799
428 1 4.41023 1.29555 63.2181
429 1 6.794 6.18114 58.9525
430 1 5.4438 0.630813 58.858
431 2 3.9484 0.418037 60.8965
432 1 6.7326 5.76677 56.2734
433 1 14.7983 5.69805 63.8246
434 1 13.574 6.70321 57.1238
435 1 11.3102 5.34795 58.1842
436 1 14.0759 3.97316 71.8777
437 1 6.10839 1.85183 70.6529
438 1 10.6083 1.80282 69.6821
439 1 8.64998 3.19352 71.064
440 2 14.5792 5.93248 70.485
441 2 8.13287 2.22233 68.8294
442 1 9.64651 2.46229 66.7519
443 2 8.98768 0.251513 65.5153
444 1 7.14856 1.35565 64.0919
445 1 15.1074 1.2237 71.6155
446 1 12.4523 -0.0968047 68.819
447 1 16.8588 4.57208 67.0493
448 2 14.1603 0.0972787 66.8453
449 1 12.8141 2.38567 67.6388
450 1 11.5147 0.434498 66.0221
451 1 17.6195 5.89837 64.5263
452 1 9.9797 1.95586 63.9832
453 1 13.7502 1.81458 65.0622
454 2 11.638 3.20356 65.3414
455 1 10.6484 2.12664 61.1001
456 2 11.1724 0.658634 59.1968
457 1 12.4598 2.80521 59.0661
458 1 8.50913 0.739341 59.7168
459 1 14.8944 5.91635 61.1169
460 1 12.6923 2.89751 62.8467
461 1 9.67627 2.75726 58.1175
462 1 11.8047 1.47622 56.8147
463 1 15.1535 1.05349 68.9527
464 2 13.2023 2.25785 70.2057
465 1 14.8909 3.8815 69.0289
466 2 15.6032 2.48394 67.0195
467 1 2.15617 2.51742 68.9153
468 1 13.8856 4.55698 66.09
469 1 16.0374 3.33817 64.7615
470 2 8.99886 0.34003 62.3908
471 2 7.35172 1.21821 57.377
472 1 13.3581 4.06284 56.5935
473 1 4.84861 2.70614 68.2322
474 1 0.765369 0.561706 65.2229
475 1 13.1224 0.73104 61.1539
476 1 13.7513 0.297849 58.4965
477 2 0.914645 0.344689 57.6807
478 1 14.3523 1.58184 56.0923
479 2 5.23298 2.17929 65.4436
480 1 2.81951 2.0176 66.2675
481 1 3.23799 3.45192 63.9404
482 2 14.917 1.39885 62.9774
483 1 0.529066 0.826937 60.3335
484 2 16.4536 4.58684 62.4277
485 1 14.6338 3.23482 60.8215
486 1 15.3827 2.76876 58.2984
487 1 2.39652 2.48257 61.5673
488 1 3.08691 2.25375 58.9627
489 1 15.8111 5.37754 57.4183
490 1 16.8837 4.50104 70.7537
491 1 11.921 5.31208 63.9677
492 2 3.96189 3.29977 70.8979
493 1 3.69484 5.03387 68.826
494 1 7.21758 3.96776 66.8831
495 1 6.5583 4.44303 69.5729
496 1 4.35332 4.58992 66.1963
497 1 3.78263 5.17175 61.9787
498 1 4.48262 4.79517 59.297
499 1 17.048 4.55157 59.8734
500 2 2.70636 4.21936 57.1282
501 1 7.99742 2.6503 61.8889
502 1 5.9177 3.92637 63.5418
503 1 5.16824 2.65742 60.8841
504 1 7.10759 3.3409 59.0365
505 2 6.47359 4.83959 61.0791
506 1 12.2389 4.47904 69.6821
507 1 9.3163 4.71549 65.1418
508 1 9.43047 4.40783 68.8791
509 1 11.3646 5.15452 66.9284
510 2 10.223 4.10464 62.6445
511 1 9.08126 4.84331 60.2704
512 1 5.12109 2.86965 57.2507
513 2 8.69942 5.07912 57.6402
514 1 12.1862 4.90147 61.0084
515 2 13.8382 4.95898 58.9854
516 1 7.83282 3.2195 56.0264
517 1 5.62701 0.0784917 56.0569
518 1 4.13093 5.94604 55.3272
519 2 3.48285 5.11813 53.0774
520 1 5.17211 5.11162 50.9593
521 1 8.34332 0.765771 51.3291
522 1 8.34872 5.29401 51.855
523 2 7.23316 5.88681 49.4588
524 1 6.16269 4.96749 45.1525
525 1 8.23736 5.62091 43.3632
526 1 8.33745 5.6849 47.0362
527 1 5.41667 5.54597 42.3088
528 1 6.2499 0.0987953 53.1828
529 2 11.0143 5.3104 51.1183
530 1 12.9034 5.25469 53.0032
531 1 5.36443 0.610644 50.2308
532 1 11.6481 6.06819 48.9265
533 1 9.18033 6.7754 40.9465
534 1 15.7235 5.47071 52.255
535 2 16.0662 4.99601 49.7376
536 1 13.6784 4.90354 50.5616
537 1 14.1791 6.31737 48.1683
538 2 8.09222 0.744876 46.7195
539 1 10.3155 6.00906 45.1813
540 1 11.1445 5.59213 42.6797
541 1 13.2273 5.24404 45.8987
542 1 14.0298 4.90817 43.3919
543 1 8.31866 0.643772 54.9593
544 1 3.40581 1.56937 48.1109
545 2 14.7387 5.98438 54.9183
546 2 12.3312 2.78539 54.4968
547 1 10.4377 1.28798 53.0482
548 1 14.1161 0.029835 50.9674
549 1 13.4548 0.534293 53.5632
550 1 12.8514 2.51997 51.8188
551 1 11.1476 0.905913 50.4156
552 1 10.6367 1.18323 46.0082
553 1 11.5254 0.801998 43.4588
554 1 8.78729 0.609697 44.1201
555 2 9.67681 0.0842128 41.3831
556 1 1.64748 1.7155 55.5869
557 1 15.5951 2.72481 51.212
558 1 14.9608 3.0512 53.9017
559 2 14.0728 2.2252 49.2279
560 1 12.7556 2.91149 47.0052
561 1 3.82852 3.36343 54.9838
562 1 4.82008 2.62441 52.3352
563 1 3.69239 5.55371 45.9665
564 1 16.7927 6.7287 47.7511
565 1 15.0306 1.33948 47.101
566 1 15.9952 5.44803 45.3388
567 1 17.9224 5.88708 43.3937
568 2 13.3679 0.810596 45.4448
569 1 3.72092 0.658998 53.9403
570 1 2.65875 3.96125 51.0119
571 2 2.118 2.6759 53.1666
572 1 0.942461 0.509523 49.214
573 1 0.984461 0.536336 52.9434
574 1 2.82482 1.04914 51.0419
575 2 1.98175 0.252848 46.6714
576 1 0.689483 0.826396 44.2681
577 1 2.08609 2.83022 45.9227
578 1 15.368 3.93585 47.5716
579 1 15.8494 5.4344 41.3963
580 1 13.7866 2.26831 43.2502
581 2 15.5968 1.26096 41.7264
582 1 16.4445 3.33819 43.319
583 2 14.7867 3.14467 45.3345
584 1 14.3729 3.37404 40.9385
585 1 6.23983 1.6757 47.9141
586 1 3.98295 1.03773 45.3444
587 1 5.04132 2.84171 41.3114
588 1 2.84198 1.14317 42.0106
589 2 5.41682 1.1499 43.2923
590 1 13.2089 0.968638 41.0305
591 1 16.9849 4.82965 54.8503
592 1 6.15389 4.77854 53.8684
593 2 5.96974 2.12176 54.7822
594 2 4.60794 2.98934 49.6507
595 1 2.87664 4.46726 48.4194
596 1 10.7049 3.96367 55.8738
597 1 7.88797 2.81659 53.2467
598 2 9.54955 2.93985 51.123
599 1 7.00007 3.37391 50.3327
600 1 8.93028 2.04954 48.7809
601 1 5.77837 4.618 47.8854
602 1 9.24544 4.66937 49.2183
603 2 6.85646 3.44537 43.3335
604 1 3.9879 3.47604 43.7335
605 1 6.52074 2.10601 45.2692
606 1 7.5038 4.47787 41.023
607 1 10.5429 3.91849 53.1502
608 2 8.65332 5.04593 54.4897
609 2 4.55195 3.16783 46.4714
610 2 2.61748 3.84462 41.2825
611 1 11.6148 3.39183 49.4896
612 1 8.82809 3.46289 45.2381
613 1 9.65147 3.11345 42.7421
614 2 12.0351 3.25994 41.8146
615 1 10.3231 4.3133 40.5691
616 2 10.5515 4.1906 47.1416
617 1 11.5608 3.55849 44.6265
618 1 7.60436 1.59336 41.7463
ITEM: TIMESTEP
300
ITEM: NUMBER OF ATOMS
618
ITEM: BOX BOUNDS xy xz yz pp pp ff
0.0000000000000000e+00 1.9317770367296919e+01 4.0025167278329121e+00
0.0000000000000000e+00 6.6702723500479264e+00 0.0000000000000000e+00
0.0000000000000000e+00 1.0921147561319708e+02 0.0000000000000000e+00
ITEM: ATOMS id type x y z
1 1 4.37985 6.77269 5.95837
2 1 5.97922 6.87921 8.47019
3 1 4.15071 6.515 13.1804
4 1 5.46025 0.733235 6.24125
5 1 3.48934 0.375366 10.9182
6 1 5.89477 6.74718 15.5918
7 1 4.23847 5.95245 20.4043
8 1 12.0607 6.43407 6.28563
9 1 6.97123 1.0347 8.67648
10 1 5.23796 0.72661 13.4182
11 1 3.62862 0.142521 18.0681
12 1 5.86518 6.30804 22.6042
13 1 4.35301 6.04205 27.4656
14 1 10.2253 1.61882 6.15856
15 1 13.6069 6.68332 8.60759
16 1 8.5812 1.29754 11.1255
17 1 11.9891 6.34248 13.3966
18 1 6.96138 0.938343 15.732
19 1 5.22563 0.385806 20.3825
20 1 3.49926 -0.072715 24.9617
21 1 6.03818 6.16083 29.5738
22 1 4.47094 6.0129 34.3881
23 1 13.0209 0.852088 6.14019
24 1 12.5291 3.65327 6.19574
25 1 11.7604 1.99836 8.64297
26 1 11.1479 0.355794 11.0102
27 1 10.6926 3.17159 10.9678
28 1 10.0984 1.53265 13.4512
29 1 13.6649 6.45518 15.8143
30 1 8.61527 1.205 18.0706
31 1 11.9286 6.26469 20.3206
32 1 6.84337 0.689513 22.5973
33 1 5.1719 0.280304 27.3255
34 1 3.61226 -0.156816 31.9556
35 1 6.1377 6.36031 36.8631
36 1 15.2198 2.84859 6.13952
37 1 14.5153 1.16225 8.54225
38 1 14.2019 3.9458 8.62145
39 1 13.4184 2.25115 10.9191
40 1 12.753 0.676071 13.3256
41 1 12.4582 3.52631 13.3106
42 1 11.8565 1.82053 15.7419
43 1 11.2176 0.173091 18.0846
44 1 10.8384 3.10453 18.037
45 1 10.2401 1.47084 20.4025
46 1 13.5749 6.46179 22.8329
47 1 8.62108 0.960697 24.9379
48 1 12.0499 6.06228 27.2738
49 1 6.91729 0.5895 29.5438
50 1 5.25498 0.21441 34.2581
51 1 7.42209 6.82376 39.2766
52 1 2.83912 1.80971 6.09729
53 1 17.5856 4.70547 6.03667
54 1 16.8407 3.03357 8.57335
55 1 0.840624 1.4744 10.8532
56 1 15.6281 4.1762 11.0165
57 1 15.0754 2.56762 13.2586
58 1 14.5276 0.988392 15.5627
59 1 14.1282 3.73677 15.6759
60 1 13.4853 2.1993 18.0165
61 1 13.1564 0.409719 20.3066
62 1 12.4716 3.40787 20.4402
63 1 11.8858 1.755 22.6581
64 1 11.4944 0.0498614 24.9989
65 1 10.8457 2.85404 24.9817
66 1 10.2879 1.26126 27.3117
67 1 13.6445 6.44554 29.5962
68 1 8.62005 0.952825 31.8821
69 1 12.0161 5.94444 34.1761
70 1 6.8579 0.474476 36.4916
71 1 4.91645 3.73202 6.18782
72 1 4.29375 1.97575 8.63399
73 1 3.58498 4.98386 8.54432
74 1 3.03475 3.19018 10.9663
75 1 2.54626 1.55109 13.3337
76 1 17.299 4.48882 13.2657
77 1 16.6914 2.78726 15.5836
78 1 0.932256 1.19192 18.0792
79 1 15.8308 4.0154 18.1943
80 1 15.2101 2.1977 20.5122
81 1 14.5525 0.607373 22.7464
82 1 14.1374 3.61503 22.6407
83 1 13.5294 1.94667 24.9236
84 1 13.0139 0.344614 27.3701
85 1 12.623 3.1554 27.2255
86 1 12.0726 1.73253 29.7286
87 1 11.4355 0.0587272 31.902
88 1 10.9174 2.89398 31.9742
89 1 10.1329 1.08446 34.1889
90 1 13.6855 6.23419 36.4582
91 1 8.50883 0.749971 38.9196
92 1 7.49916 2.65438 6.10665
93 1 7.19554 5.57661 6.10689
94 1 6.43108 3.92094 8.57991
95 1 5.8071 2.20519 11.0389
96 1 5.29077 5.13267 10.9055
97 1 4.64533 3.63943 13.2468
98 1 4.18222 1.83238 15.7429
99 1 3.69133 4.74801 15.5623
100 1 3.15619 3.07604 18.0761
101 1 2.52943 1.33213 20.3519
102 1 17.4354 4.16627 20.4851
103 1 16.7499 2.59173 22.7981
104 1 0.931525 0.84591 24.8582
105 1 15.8294 3.72051 25.0018
106 1 15.2922 2.24494 27.2746
107 1 14.7677 0.654691 29.7034
108 1 14.3667 3.56815 29.477
109 1 13.6987 1.97562 31.9318
110 1 12.9594 0.335082 34.2626
111 1 12.563 3.19468 34.1457
112 1 11.9698 1.46161 36.5356
113 1 15.0155 6.55654 38.9376
114 1 11.0532 2.58853 38.6214
115 1 9.73985 4.4834 6.23812
116 1 9.11033 2.829 8.67359
117 1 8.70384 5.7308 8.74496
118 1 8.00339 3.98131 10.9192
119 1 7.38168 2.61193 13.4535
120 1 6.86748 5.31992 13.3413
121 1 6.30851 3.81742 15.7009
122 1 5.84264 2.23509 18.0937
123 1 5.40023 5.00728 17.923
124 1 4.78023 3.12787 20.4668
125 1 4.11444 1.53888 22.7678
126 1 3.59345 4.46599 22.6515
127 1 3.11605 2.71343 25.0413
128 1 2.54544 1.34019 27.4188
129 1 17.4781 4.17321 27.3562
130 1 16.9615 2.50076 29.7502
131 1 1.01695 0.893468 32.1018
132 1 15.8918 3.82927 31.9674
133 1 15.2933 2.24189 34.2176
134 1 14.746 0.640511 36.5857
135 1 14.255 3.37227 36.3923
136 1 13.6414 2.10173 38.6712
137 1 11.4677 4.85026 8.78852
138 1 10.3077 5.96633 11.1749
139 1 9.73191 4.40539 13.4226
140 1 9.13136 2.84463 15.7454
141 1 8.66211 5.69405 15.5687
142 1 8.07999 4.00752 17.9653
143 1 7.40108 2.30113 20.2792
144 1 6.8575 5.04269 20.2731
145 1 6.28961 3.53375 22.7515
146 1 5.83086 1.89723 24.9579
147 1 5.33271 4.67123 25.0428
148 1 4.86896 3.11422 27.3528
149 1 4.29205 1.43904 29.5344
150 1 3.84849 4.36161 29.6183
151 1 3.24668 2.86791 31.9042
152 1 2.67884 1.23973 34.3978
153 1 17.5247 4.23408 34.3953
154 1 1.44857 2.73623 36.7442
155 1 0.894759 1.23409 39.2347
156 1 16.2457 3.99618 39.2507
157 1 14.8701 5.57241 6.16599
158 1 13.0077 5.14819 11.1134
159 1 11.2923 4.87083 15.7741
160 1 10.3357 5.96846 18.108
161 1 9.57326 4.28372 20.2622
162 1 9.12724 2.58928 22.6703
163 1 8.5376 5.4503 22.6386
164 1 8.03039 3.8015 24.9685
165 1 7.52722 2.19039 27.2621
166 1 7.1021 5.01653 27.2623
167 1 6.59136 3.35141 29.6783
168 1 5.84323 1.83673 31.8788
169 1 5.4541 4.79505 32.0784
170 1 4.78162 3.09655 34.3461
171 1 4.15261 1.60537 36.6885
172 1 3.80071 4.48953 36.7919
173 1 3.43501 2.97236 39.0542
174 1 16.4479 5.79829 8.68646
175 1 14.7802 5.38218 13.4177
176 1 13.1599 4.84812 18.1245
177 1 11.2647 4.56524 22.6774
178 1 10.2564 5.72291 24.9636
179 1 9.82995 4.19218 27.2779
180 1 9.30088 2.43496 29.6013
181 1 8.72496 5.21815 29.5728
182 1 8.1879 3.69877 31.878
183 1 7.52696 2.04966 34.0809
184 1 7.09372 4.91751 34.328
185 1 6.44064 3.39748 36.6829
186 1 5.94349 1.77818 38.9466
187 1 5.52447 4.93292 39.1681
188 1 17.9562 6.07787 10.9734
189 1 16.4568 5.58421 15.5507
190 1 14.7808 5.30071 20.5253
191 1 13.0988 4.9025 24.9849
192 1 11.4614 4.38535 29.4536
193 1 10.3785 5.73275 31.8402
194 1 9.90079 3.99418 34.1327
195 1 9.24195 2.32703 36.3784
196 1 8.76606 5.21231 36.3789
197 1 8.37945 3.4979 38.6163
198 1 17.9643 6.06112 17.9953
199 1 16.3514 5.44686 22.7423
200 1 14.8918 5.10007 27.3189
201 1 13.0875 4.79138 31.8192
202 1 11.6113 4.39166 36.4868
203 1 10.2624 5.72758 38.6108
204 1 18.1284 5.61241 25.0157
205 1 16.4685 5.51321 29.6341
206 1 14.8218 5.1241 34.191
207 1 13.1129 4.68177 38.856
208 1 18.0299 5.61551 32.0021
209 1 16.4249 5.34423 36.7098
210 1 17.837 5.92475 39.1327
211 2 14.6384 1.4167 101.969
212 1 15.2091 1.10655 99.2246
213 1 3.81428 0.6037 102.833
214 1 2.73212 1.26358 98.6674
215 1 1.78335 1.7103 101.108
216 2 0.972721 0.821739 96.5579
217 1 14.9987 1.16212 94.2428
218 1 6.39088 1.78064 102.442
219 1 7.18899 1.34152 99.8147
220 1 5.91475 6.42401 94.3329
221 1 4.97932 2.62085 98.5178
222 2 4.59666 1.28222 100.631
223 1 4.22549 1.10545 93.3696
224 1 2.19142 2.31698 94.8091
225 1 0.570608 0.574655 90.5058
226 1 3.31635 1.78879 90.5531
227 2 1.69638 1.4921 92.5377
228 1 0.671432 0.574357 87.8469
229 1 8.58925 0.314569 95.3422
230 1 7.36305 1.08276 88.7606
231 1 9.09258 6.41329 89.7672
232 1 12.452 4.91161 103.048
233 1 4.02456 3.37409 102.083
234 1 8.58904 3.36424 101.433
235 1 6.32355 4.72078 102.818
236 2 8.372 0.635812 102.087
237 2 6.01469 3.66833 100.493
238 1 7.63705 3.76704 98.4159
239 2 6.80999 1.5145 97.0243
240 1 4.80663 2.51361 95.7729
241 1 12.5804 2.03825 103.065
242 1 10.2723 1.38734 100.342
243 1 14.7251 5.99818 98.413
244 2 11.8889 1.50859 98.262
245 1 10.753 3.7229 99.2623
246 1 9.35046 1.80912 97.6
247 1 11.5088 0.602025 95.8818
248 1 7.64348 3.15371 95.521
249 1 11.7455 3.26172 96.638
250 2 9.47731 4.34371 96.8652
251 1 8.40045 3.13497 92.739
252 2 8.96211 1.75631 90.6273
253 1 10.2453 3.84548 90.6648
254 1 6.41262 1.67885 91.3717
255 1 8.68803 0.449662 92.7407
256 1 10.4044 3.79998 94.4881
257 1 7.43244 3.82323 89.7906
258 1 9.53896 2.5191 88.2534
259 1 12.9714 2.43863 100.407
260 2 11.0824 3.413 101.854
261 1 12.7853 5.28513 100.428
262 2 13.4318 3.83046 98.4322
263 1 15.3298 3.97138 100.395
264 1 11.6976 5.89285 97.7642
265 1 13.8765 4.76087 96.2507
266 2 6.70937 1.47675 93.9934
267 2 5.27861 2.3683 88.9378
268 1 11.0704 5.07236 88.1973
269 1 2.77506 3.95636 99.7431
270 1 14.0267 1.92883 96.6774
271 1 11.1323 1.89984 92.6238
272 1 11.6131 1.38776 89.9521
273 2 14.0323 1.43006 89.0908
274 1 12.1436 2.69451 87.5384
275 2 3.00793 3.52861 97.0769
276 1 15.9511 3.41542 97.8485
277 1 16.364 4.70308 95.5132
278 2 12.9993 2.7761 94.4597
279 1 13.72 1.9885 91.7419
280 2 14.4003 5.83372 93.9104
281 1 12.4716 4.4499 92.4987
282 1 13.1766 3.8593 89.7741
283 1 15.5052 3.69664 93.1014
284 1 16.1635 3.2201 90.5723
285 1 13.6749 6.47522 88.846
286 1 14.9444 6.17556 102.308
287 1 9.82431 6.44889 95.5704
288 2 17.0895 4.54074 102.148
289 1 16.8245 6.48263 100.263
290 1 5.1036 5.36916 98.4516
291 1 4.41336 5.88382 101.123
292 1 17.6289 6.02101 97.7132
293 1 16.9163 6.37586 93.3812
294 1 17.5452 5.80237 90.6661
295 1 14.8827 5.60004 91.2398
296 2 15.9375 5.2991 88.6088
297 1 5.65428 3.79473 93.4231
298 1 3.59877 4.94265 94.9091
299 1 2.88896 3.76181 92.5503
300 1 4.93656 4.31801 90.5316
301 2 4.21155 5.90171 92.4955
302 1 10.0496 5.7441 101.537
303 1 7.18498 5.96609 96.5146
304 1 7.32544 5.79348 100.57
305 1 9.16795 6.46066 98.4998
306 2 8.07875 5.14741 94.1564
307 1 7.02027 5.74585 91.8648
308 1 2.92944 3.80715 88.7006
309 2 6.43582 6.18692 89.2876
310 1 9.98845 5.86281 92.6859
311 2 11.5801 5.99858 90.6021
312 1 5.52243 4.45148 87.6179
313 1 3.5437 1.06877 87.6256
314 1 13.2802 0.447109 86.9194
315 2 16.8101 6.29054 84.6086
316 1 18.3006 6.38749 82.5749
317 1 6.06935 1.92916 82.7681
318 1 6.0849 6.36786 83.4018
319 2 0.976447 0.326869 81.1348
320 1 3.82666 5.70208 77.1168
321 1 5.66951 6.71371 75.0223
322 1 6.00886 6.68301 78.6599
323 1 18.1361 6.64491 74.0152
324 1 4.05917 1.17909 84.7485
325 2 8.77456 6.36833 82.7349
326 1 10.7364 6.49141 84.72
327 1 3.15 1.76141 81.8037
328 1 5.2672 0.629958 80.4304
329 1 2.61343 1.17845 72.4505
330 1 13.3933 6.57285 83.9055
331 2 13.688 6.07012 81.2258
332 1 11.3878 6.11134 82.1001
333 1 7.80261 0.761504 79.7065
334 2 5.75481 1.83621 78.2228
335 1 3.98695 0.430978 76.7241
336 1 8.68742 6.65747 74.1306
337 1 11.0098 6.4012 77.3703
338 1 11.4959 6.10586 74.7427
339 1 6.09791 1.82172 86.5547
340 1 16.497 2.53306 79.7665
341 2 8.57203 0.464834 86.5039
342 2 10.0627 3.8466 86.0401
343 1 8.27362 2.33574 84.5332
344 1 11.8506 1.33137 82.6603
345 1 11.2342 1.6848 85.1871
346 1 10.6309 3.81829 83.3543
347 1 9.04311 1.94953 81.8992
348 1 8.34006 2.39562 77.6222
349 1 8.93601 1.90208 74.9747
350 1 6.34953 1.70636 75.5299
351 2 7.2514 1.40513 72.8754
352 1 14.8144 2.96402 86.9081
353 1 13.3633 3.97683 82.73
354 1 12.6757 4.27952 85.3003
355 2 11.6656 3.37817 80.8351
356 1 10.5728 3.95915 78.4449
357 1 17.0452 4.4756 86.5014
358 1 2.60989 3.91167 83.8571
359 1 16.5585 6.50039 77.5671
360 1 10.4818 1.163 79.2185
361 1 12.8066 2.45911 78.5589
362 1 13.8137 6.53327 76.6459
363 1 11.6217 0.711555 74.6283
364 2 10.9554 1.9738 76.805
365 1 1.57428 1.79238 85.4067
366 1 15.6595 5.27999 82.553
367 2 15.3201 3.91971 84.6578
368 1 13.88 1.84969 80.8191
369 1 13.9763 1.76965 84.5513
370 1 15.8724 2.40353 82.6606
371 2 14.8521 1.18946 78.3348
372 1 13.6522 1.88594 75.9499
373 1 15.0243 3.86082 77.4766
374 1 13.0073 5.09531 79.0023
375 1 13.6437 6.82718 72.8906
376 1 11.1959 3.4226 74.6376
377 2 13.2167 2.30776 73.4976
378 1 13.825 4.58174 74.5145
379 2 12.4903 4.28915 76.6137
380 1 11.2778 3.18092 72.0348
381 1 3.98093 3.17127 79.4813
382 1 1.5341 2.01869 76.8769
383 1 2.76344 3.88522 73.0299
384 1 15.844 2.65479 73.9694
385 2 3.0808 2.136 74.8246
386 1 12.3599 0.505439 71.7915
387 1 14.7903 5.88553 86.3454
388 1 4.02934 5.80772 85.4831
389 2 3.7466 3.16229 86.1953
390 2 17.5397 4.10627 81.3165
391 1 15.5632 5.37735 79.8743
392 1 8.30368 4.95147 87.3901
393 1 5.77419 3.82601 84.656
394 2 7.40323 4.00221 82.5738
395 1 4.85141 4.47227 81.7451
396 1 6.86096 3.08325 80.3546
397 1 18.4695 5.8638 79.8221
398 1 7.02088 5.79889 80.8397
399 2 4.52287 4.56807 75.0132
400 1 17.1703 4.40073 75.6073
401 1 4.26568 3.04469 76.8857
402 1 5.04559 5.50368 72.7034
403 1 8.35295 5.02889 84.6721
404 2 6.4137 6.11489 86.113
405 2 17.4605 4.23426 78.1532
406 2 15.801 5.25006 73.1464
407 1 9.41201 4.48036 80.748
408 1 6.57204 4.65363 76.9243
409 1 7.09201 4.09709 74.2801
410 2 9.45348 4.19283 73.3828
411 1 7.56716 5.43539 71.9386
412 2 8.31184 5.2211 78.7329
413 1 9.18017 4.71063 76.0621
414 1 5.06634 2.64449 73.2521
415 2 5.48642 6.53904 70.3742
416 1 6.09521 6.48013 67.7032
417 1 10.2342 5.549 71.1905
418 1 8.69655 6.53858 67.0714
419 1 4.09818 0.355208 69.7329
420 2 6.88763 6.11474 65.1331
421 1 1.94212 -0.027678 62.727
422 1 8.3233 0.50703 70.6669
423 1 9.30119 -0.0672576 68.133
424 1 8.17413 5.3497 62.8024
425 1 6.9854 1.34532 66.8812
426 2 10.6366 6.60697 68.9406
427 1 6.35585 0.0936107 61.7449
428 1 4.43133 1.28071 63.2924
429 1 6.83004 6.10892 58.9886
430 1 5.43708 0.672583 58.8518
431 2 3.81576 0.433048 60.8925
432 1 6.82244 6.07078 56.3264
433 1 14.5353 5.62576 63.6871
434 1 13.5621 6.78356 57.2128
435 1 11.2917 5.34927 58.1358
436 1 14.2479 3.87772 71.7879
437 1 6.15053 1.92823 70.7371
438 1 10.637 1.89864 69.6131
439 1 8.68947 3.24734 71.0923
440 2 14.5775 5.98617 70.41
441 2 8.14565 2.34318 68.852
442 1 9.73988 2.48271 66.8158
443 2 8.96026 0.216971 65.5966
444 1 7.14122 1.48457 64.2151
445 1 15.1229 1.15242 71.7703
446 1 12.4895 -0.127518 68.935
447 1 16.7426 4.62471 66.8981
448 2 13.9909 0.113997 66.9317
449 1 12.7874 2.45402 67.7203
450 1 11.4547 0.46734 66.0684
451 1 17.3881 5.88142 64.4031
452 1 9.95096 1.8139 63.875
453 1 13.7314 1.83003 65.0938
454 2 11.6668 3.14735 65.242
455 1 10.6099 2.05427 61.1109
456 2 11.2664 0.714651 59.0486
457 1 12.5956 2.74215 59.2359
458 1 8.49105 0.47704 59.7334
459 1 14.8355 5.85533 60.9909
460 1 12.7772 2.8189 62.9377
461 1 9.64503 2.75724 58.3255
462 1 11.7339 1.76082 56.8675
463 1 15.1197 1.01001 69.0159
464 2 13.2903 2.21309 70.3146
465 1 14.8189 4.06554 68.9446
466 2 15.3781 2.51236 66.938
467 1 1.907 2.61486 68.8368
468 1 13.8655 4.57084 66.0949
469 1 15.8913 3.33054 64.7416
470 2 8.78551 0.352245 62.3664
471 2 7.34343 1.35413 57.4149
472 1 13.3641 4.11925 56.798
473 1 4.7706 2.58657 68.1855
474 1 0.679094 0.5287 65.1429
475 1 13.194 0.639344 61.052
476 1 13.8283 0.371482 58.4403
477 2 0.813186 0.243492 57.6006
478 1 14.1643 1.42529 56.0167
479 2 5.06573 2.22476 65.5204
480 1 2.74867 2.05896 66.3483
481 1 3.14827 3.4928 64.0846
482 2 15.159 1.57723 62.8095
483 1 0.599998 0.701786 60.2341
484 2 16.4095 4.49247 62.4565
485 1 14.7395 3.16223 60.7219
486 1 15.5491 2.89791 58.1706
487 1 2.33153 2.49232 61.5922
488 1 2.97292 2.23603 58.9614
489 1 15.8409 5.58088 57.3128
490 1 16.8896 4.48958 70.7764
491 1 11.7714 5.37182 63.9211
492 2 3.93066 3.23386 70.8334
493 1 3.65966 5.0223 68.8503
494 1 7.25725 4.01556 66.9476
495 1 6.55175 4.39787 69.5847
496 1 4.24364 4.71037 66.2792
497 1 3.72772 5.08041 61.9192
498 1 4.53861 4.59914 59.2391
499 1 17.0821 4.61211 59.7639
500 2 2.8051 4.18911 57.03
501 1 7.91812 2.65621 61.8784
502 1 5.8457 3.92859 63.5685
503 1 5.17662 2.55968 60.9312
504 1 7.13544 3.2767 59.127
505 2 6.37909 4.6564 61.1134
506 1 12.308 4.46943 69.8563
507 1 9.15777 4.36237 65.0493
508 1 9.45372 4.49742 68.8348
509 1 11.3002 5.21737 66.7607
510 2 10.2552 3.98801 62.5508
511 1 9.14133 4.78151 60.3266
512 1 5.37175 3.03812 57.1146
513 2 8.73343 5.01987 57.6324
514 1 12.1919 4.7117 61.0541
515 2 13.7754 4.92703 58.9594
516 1 7.89571 3.33266 56.0161
517 1 5.63058 0.110021 56.0991
518 1 4.00733 5.81891 55.4038
519 2 3.71805 5.03238 53.0276
520 1 5.21272 5.25508 51.0732
521 1 8.26091 0.689491 51.1846
522 1 8.12271 5.23292 51.9344
523 2 7.11572 5.97291 49.5915
524 1 6.26087 4.89281 45.3951
525 1 8.31088 5.5627 43.2083
526 1 8.2785 5.83778 47.1334
527 1 5.48109 5.7266 42.2422
528 1 6.22 -0.113966 53.2538
529 2 10.9011 5.30877 51.179
530 1 12.845 5.47037 53.0752
531 1 5.21218 0.708169 50.3672
532 1 11.3862 6.13249 48.905
533 1 9.34298 6.73794 40.9185
534 1 15.6339 5.3198 52.3973
535 2 15.9124 4.84941 49.7282
536 1 13.5004 4.68413 50.5571
537 1 14.0542 6.12361 48.3171
538 2 8.1442 0.662933 46.6722
539 1 10.4092 6.18437 45.1314
540 1 11.1775 5.54548 42.624
541 1 13.2807 5.31266 45.8121
542 1 13.9256 5.02243 43.24
543 1 8.30583 0.69803 55.0759
544 1 3.27735 1.50268 48.23
545 2 14.6181 6.04425 55.0232
546 2 12.23 2.75114 54.6766
547 1 10.5197 1.20074 53.1172
548 1 13.9819 0.052996 51.2863
549 1 13.317 0.367008 53.7881
550 1 12.744 2.55222 52.013
551 1 11.0574 0.69248 50.4726
552 1 10.6168 1.35844 46.1213
553 1 11.4897 0.801185 43.4065
554 1 8.71655 0.870271 44.1145
555 2 9.5924 0.243953 41.3608
556 1 1.49918 1.72399 55.5091
557 1 15.5542 2.59611 51.178
558 1 14.7801 2.95515 53.8425
559 2 13.8026 2.17196 49.2528
560 1 12.8305 2.87764 46.965
561 1 3.83089 3.12931 55.001
562 1 4.94429 2.79148 52.3055
563 1 3.64962 5.3764 46.008
564 1 16.8672 6.70941 47.7178
565 1 15.0698 1.32439 46.919
566 1 16.1913 5.50548 45.2419
567 1 17.9943 5.95433 43.1726
568 2 13.3325 1.0143 45.2712
569 1 3.67974 0.686403 53.9276
570 1 2.54302 4.11389 51.1172
571 2 2.16306 2.62611 53.0781
572 1 0.590498 0.416912 49.2022
573 1 0.872549 0.520622 53.1464
574 1 2.69996 1.20111 51.0674
575 2 1.75256 0.105058 46.8745
576 1 0.606234 0.826247 44.3144
577 1 2.02936 2.71503 46.0101
578 1 15.399 4.03628 47.4092
579 1 15.8028 5.48857 41.4155
580 1 13.8241 2.29523 43.2056
581 2 15.7916 1.28885 41.7888
582 1 16.5045 3.55103 43.292
583 2 14.8908 3.23392 45.1629
584 1 14.5106 3.30418 40.8865
585 1 6.11016 1.73131 47.9903
586 1 3.81346 0.790537 45.1887
587 1 5.15868 3.00468 41.3025
588 1 3.13901 1.31585 42.4753
589 2 5.59427 1.11091 43.1478
590 1 13.1594 1.07626 41.0435
591 1 16.8516 4.58634 54.7528
592 1 6.271 4.67042 54.047
593 2 6.02647 2.01479 54.5661
594 2 4.43775 3.07685 49.8337
595 1 2.65 4.27597 48.4432
596 1 10.6326 4.01557 55.826
597 1 8.04501 2.70438 53.2227
598 2 9.57837 2.82668 51.1611
599 1 7.04683 3.34316 50.2867
600 1 8.98956 1.93851 48.6931
601 1 5.63812 4.63609 48.1167
602 1 9.23015 4.70072 49.3455
603 2 6.80245 3.54559 43.196
604 1 4.18217 3.49504 43.8628
605 1 6.42889 2.11424 45.1704
606 1 7.60765 4.46517 40.928
607 1 10.7206 3.90276 53.1088
608 2 8.75034 5.06355 54.4466
609 2 4.48251 3.03049 46.5694
610 2 2.80052 4.07192 41.3545
611 1 11.415 3.24445 49.4436
612 1 8.81218 3.61378 45.2061
613 1 9.61521 3.11682 42.6945
614 2 12.0815 3.20956 41.8254
615 1 10.4873 4.06436 40.4869
616 2 10.6108 4.13365 47.1392
617 1 11.5698 3.59855 44.5514
618 1 7.68967 1.56675 41.4368
ITEM: TIMESTEP
400
ITEM: NUMBER OF ATOMS
618
ITEM: BOX BOUNDS xy xz yz pp pp ff
0.0000000000000000e+00 1.9317770367296919e+01 4.0025167278329121e+00
0.0000000000000000e+00 6.6702723500479264e+00 0.0000000000000000e+00
0.0000000000000000e+00 1.0921147561319708e+02 0.0000000000000000e+00
ITEM: ATOMS id type x y z
1 1 4.34539 6.4426 6.20106
2 1 6.05191 6.80416 8.73117
3 1 4.41003 6.24474 13.4348
4 1 5.2277 0.870655 6.13813
5 1 3.68184 0.393259 10.9947
6 1 6.08112 6.58342 15.6263
7 1 4.29824 6.33771 20.3542
8 1 11.9601 6.51676 6.17053
9 1 6.92143 1.01408 8.59931
10 1 5.33327 0.63313 13.3021
11 1 3.63357 0.192165 17.8486
12 1 5.95343 6.30804 22.7019
13 1 4.22621 5.90339 27.2525
14 1 10.1213 1.72976 6.25878
15 1 13.6042 6.85737 8.77571
16 1 8.58449 1.35791 10.9274
17 1 12.0041 6.38397 13.2803
18 1 6.89471 0.845607 15.5772
19 1 5.45011 0.436876 20.2711
20 1 3.60196 -0.0163592 25.0072
21 1 5.96127 6.438 29.6964
22 1 4.45912 5.98386 34.2369
23 1 12.8558 0.789673 6.08436
24 1 12.4869 3.53708 6.1457
25 1 11.9622 2.02408 8.66973
26 1 11.4133 0.46938 11.0475
27 1 10.8681 3.28221 10.9077
28 1 10.3189 1.68865 13.2055
29 1 13.6436 6.8407 15.5597
30 1 8.59816 1.13182 18.0155
31 1 11.972 6.08229 20.3434
32 1 6.96006 0.615464 22.6867
33 1 5.30576 0.183365 27.3231
34 1 3.82321 0.0755597 31.8892
35 1 6.08123 6.34314 36.6331
36 1 15.1992 2.63235 6.10324
37 1 14.704 1.03192 8.54248
38 1 14.1959 3.90067 8.63528
39 1 13.6265 2.4186 11.0211
40 1 13.1551 0.59715 13.3591
41 1 12.5688 3.55391 13.3719
42 1 12.0636 1.85242 15.6473
43 1 11.4141 0.246809 17.9807
44 1 10.7995 2.96935 17.9798
45 1 10.1785 1.36188 20.2435
46 1 13.7342 6.41739 22.5964
47 1 8.54221 0.966555 25.0267
48 1 11.929 5.91943 27.2786
49 1 6.95621 0.60604 29.6317
50 1 5.38744 0.340625 34.1349
51 1 7.32427 6.87098 39.2475
52 1 2.62561 1.84778 6.09403
53 1 17.4078 4.63675 6.17804
54 1 16.9231 3.00808 8.6067
55 1 1.00302 1.28009 11.0435
56 1 15.9546 4.16111 10.915
57 1 15.3307 2.67519 13.3385
58 1 14.6511 0.874987 15.6485
59 1 14.2224 3.78925 15.6169
60 1 13.5558 2.12352 17.9587
61 1 12.778 0.375212 20.3684
62 1 12.4775 3.12842 20.2591
63 1 11.8792 1.56941 22.7367
64 1 11.0298 0.015396 24.9659
65 1 10.8053 2.86689 24.9431
66 1 10.3004 1.18992 27.2883
67 1 13.8004 6.33217 29.584
68 1 8.74896 0.933428 31.8796
69 1 12.1391 6.07602 34.1994
70 1 6.98282 0.603993 36.2747
71 1 4.87368 3.65515 5.91611
72 1 4.26751 1.97323 8.49139
73 1 3.82747 4.79657 8.56941
74 1 3.26902 3.28256 10.8936
75 1 2.49523 1.71337 13.328
76 1 17.4633 4.53681 13.4127
77 1 16.9545 2.93302 15.6379
78 1 0.997745 1.15387 17.7862
79 1 15.6894 3.95415 17.7432
80 1 15.1667 2.44762 20.1841
81 1 14.6444 0.710595 22.6223
82 1 14.0672 3.48634 22.6077
83 1 13.4035 1.90198 25.0223
84 1 12.9133 0.205062 27.23
85 1 12.3766 3.22722 27.3965
86 1 11.8755 1.43725 29.4736
87 1 11.4181 -0.00955024 31.878
88 1 10.9896 2.76229 31.7018
89 1 10.4431 1.21657 34.1006
90 1 13.7223 6.35899 36.6074
91 1 8.67276 0.744508 39.022
92 1 7.49323 2.65859 6.29481
93 1 7.03246 5.59081 6.19312
94 1 6.51202 3.74175 8.66702
95 1 5.89166 2.40056 11.0025
96 1 5.43084 5.06063 11.0589
97 1 5.01282 3.40056 13.3993
98 1 4.27558 1.86874 15.5116
99 1 3.83962 4.74743 15.5351
100 1 3.21319 2.97493 18.0015
101 1 2.61551 1.42743 20.3348
102 1 17.5454 4.35122 20.3821
103 1 16.7989 2.60234 22.6479
104 1 0.888215 1.04476 25.0272
105 1 15.8223 3.91324 25.0113
106 1 15.0509 2.26708 27.4415
107 1 14.6307 0.621244 29.5705
108 1 14.0025 3.40886 29.7129
109 1 13.6142 1.87144 31.9678
110 1 13.171 0.190402 34.1906
111 1 12.6378 3.16968 34.1417
112 1 11.9484 1.45784 36.4982
113 1 15.3381 6.6282 39.1884
114 1 10.9145 2.64896 38.6274
115 1 9.77305 4.60911 6.22081
116 1 9.1344 2.96219 8.80989
117 1 8.64277 5.88482 8.52987
118 1 8.15229 4.2803 11.0333
119 1 7.60815 2.40981 13.2647
120 1 7.10768 5.5427 13.4317
121 1 6.61519 3.74678 15.6035
122 1 5.97843 2.02499 17.9975
123 1 5.53398 4.90034 18.0264
124 1 4.87369 3.27678 20.1575
125 1 4.27314 1.58722 22.6386
126 1 3.76383 4.53129 22.6349
127 1 3.02359 2.87771 24.9651
128 1 2.67747 1.14881 27.2614
129 1 17.2784 4.0701 27.2848
130 1 16.827 2.59635 29.5192
131 1 1.02572 1.06034 31.9151
132 1 16.0011 3.8817 31.9764
133 1 15.3816 2.22535 34.2501
134 1 14.6486 0.738968 36.4797
135 1 14.1799 3.5681 36.6039
136 1 13.6988 2.09846 38.6442
137 1 11.2883 4.85761 8.65836
138 1 10.4086 6.09929 10.9561
139 1 9.70548 4.55429 13.3624
140 1 9.2166 2.83246 15.6206
141 1 8.77064 5.70622 15.7241
142 1 8.13802 3.94034 18.0425
143 1 7.61309 2.30122 20.3517
144 1 7.26248 5.22519 20.3707
145 1 6.46214 3.51186 22.633
146 1 5.73681 1.92559 25.0201
147 1 5.41192 4.77798 25.0102
148 1 4.67629 3.00184 27.3059
149 1 4.1786 1.77599 29.6843
150 1 3.68459 4.54822 29.685
151 1 3.24712 2.85194 32.0192
152 1 2.68831 1.21745 34.2527
153 1 17.5936 4.11536 34.2673
154 1 1.85367 2.54966 36.7488
155 1 0.820038 1.0231 39.2198
156 1 16.1118 4.04604 38.9954
157 1 14.5287 5.50161 6.1689
158 1 13.1206 5.2071 10.9585
159 1 11.4672 4.68584 15.5945
160 1 10.4117 5.77506 17.9351
161 1 9.95462 4.21332 20.3523
162 1 9.19443 2.50199 22.6645
163 1 8.76852 5.46681 22.7058
164 1 8.03415 3.74773 25.0079
165 1 7.41009 2.17809 27.4104
166 1 6.96387 4.99853 27.3624
167 1 6.41868 3.46555 29.6136
168 1 6.0292 1.89571 31.8859
169 1 5.47287 4.76025 31.8207
170 1 4.89253 3.22203 34.2647
171 1 4.40924 1.45329 36.5322
172 1 3.99305 4.42087 36.5658
173 1 3.36676 2.93753 38.9726
174 1 16.3869 5.79944 8.45997
175 1 14.7212 5.46655 13.2127
176 1 13.0898 5.07145 17.9198
177 1 11.5286 4.51401 22.6604
178 1 10.3306 5.6431 25.0231
179 1 9.6494 4.05147 27.3104
180 1 9.11705 2.54571 29.5657
181 1 8.81622 5.46436 29.6023
182 1 8.13202 3.74666 31.8349
183 1 7.6188 2.25814 34.0759
184 1 7.08246 5.21863 34.1727
185 1 6.52009 3.48988 36.458
186 1 6.05478 1.85633 38.8213
187 1 5.71309 4.96317 39.2161
188 1 18.1158 6.19742 10.8613
189 1 16.278 5.80383 15.6023
190 1 14.7195 5.10147 20.1761
191 1 12.9182 4.73178 24.9595
192 1 11.4951 4.48374 29.6939
193 1 10.3572 5.60057 31.8408
194 1 9.73396 4.13682 34.0618
195 1 9.26934 2.41966 36.3464
196 1 8.62588 5.39825 36.4331
197 1 8.28587 3.60995 38.6174
198 1 18.1485 5.79331 18.1289
199 1 16.3779 5.35946 22.5645
200 1 14.6702 5.06854 27.307
201 1 13.1483 4.73417 31.9697
202 1 11.3616 4.40252 36.1893
203 1 10.4019 5.77722 38.3861
204 1 17.835 5.7713 24.9378
205 1 16.3907 5.26593 29.6241
206 1 14.7847 5.0165 34.2824
207 1 12.8841 4.6683 39.0546
208 1 18.27 5.80234 31.94
209 1 16.5581 5.19014 36.4994
210 1 18.1045 5.76794 38.8787
211 2 14.6663 1.52512 101.935
212 1 15.2896 1.1199 99.3457
213 1 3.92302 0.218903 103.029
214 1 2.65895 1.35574 98.7289
215 1 1.76226 1.66663 101.502
216 2 0.903435 0.625351 96.6331
217 1 14.9809 1.10655 94.4613
218 1 6.31708 1.76993 102.447
219 1 7.26345 1.25742 99.8333
220 1 5.95529 6.57022 94.5285
221 1 4.99656 2.63006 98.561
222 2 4.48762 1.29422 100.691
223 1 4.25543 1.19639 93.3751
224 1 2.15874 2.54605 94.7963
225 1 0.689847 0.727793 90.4899
226 1 3.22845 1.74345 90.4219
227 2 1.64575 1.62467 92.5308
228 1 0.547652 0.507228 87.8161
229 1 8.69755 0.462645 95.4068
230 1 7.30176 1.29505 88.7897
231 1 9.10048 6.3658 89.8315
232 1 12.4525 4.78182 103.145
233 1 3.98567 3.35335 102.261
234 1 8.57848 3.13869 101.519
235 1 6.53003 4.50999 102.891
236 2 8.33906 0.489755 102.049
237 2 6.13075 3.58717 100.6
238 1 7.4925 3.79234 98.362
239 2 6.90357 1.55327 97.3304
240 1 4.98115 2.48207 95.6955
241 1 12.7502 1.83205 103.037
242 1 10.3 1.22371 100.495
243 1 14.6629 6.11607 98.4297
244 2 11.9474 1.49372 98.3858
245 1 10.5354 3.84612 99.3754
246 1 9.37909 1.95084 97.7415
247 1 11.385 0.663597 95.7865
248 1 7.77635 3.16145 95.5149
249 1 11.6165 3.23722 96.6623
250 2 9.50741 4.50552 96.927
251 1 8.39779 3.21424 92.6259
252 2 9.05872 1.69984 90.6443
253 1 10.397 3.89316 90.7925
254 1 6.33044 1.80409 91.4284
255 1 8.6112 0.375568 92.6487
256 1 10.4305 3.94568 94.4945
257 1 7.40558 3.88122 89.8491
258 1 9.50938 2.60675 88.4393
259 1 12.9854 2.50201 100.488
260 2 11.1274 3.28056 101.868
261 1 12.7804 5.26377 100.515
262 2 13.2429 3.99646 98.5217
263 1 15.2927 4.08432 100.405
264 1 11.791 5.87167 97.6898
265 1 13.8818 4.67753 96.2465
266 2 6.85891 1.55004 93.8621
267 2 5.11876 2.41571 89.0124
268 1 11.0827 5.13089 88.1557
269 1 2.76587 4.01767 99.5908
270 1 13.9545 1.94394 96.8177
271 1 10.9969 1.93353 92.8412
272 1 11.5239 1.41455 90.1799
273 2 14.0091 1.44448 89.2213
274 1 12.0616 2.61589 87.7202
275 2 3.12477 3.50409 96.9775
276 1 15.9565 3.4543 97.8715
277 1 16.3628 4.76921 95.5561
278 2 12.9212 2.65714 94.4926
279 1 13.7326 1.84272 91.8406
280 2 14.3266 5.76716 94.0442
281 1 12.5831 4.35514 92.3925
282 1 13.2546 3.94302 89.7597
283 1 15.3182 3.59308 93.1695
284 1 16.1177 3.34379 90.5829
285 1 13.727 6.59321 88.8613
286 1 14.9874 5.93972 102.534
287 1 9.96827 6.55746 95.5209
288 2 17.1688 4.43199 102.134
289 1 16.8361 6.49485 100.333
290 1 5.13445 5.38831 98.6052
291 1 4.54047 5.80704 101.26
292 1 17.5932 6.11746 97.6235
293 1 17.0018 6.11396 93.2963
294 1 17.7526 5.92815 90.6713
295 1 14.9375 5.68579 91.3487
296 2 15.8995 5.38273 88.6905
297 1 5.90799 3.88042 93.4564
298 1 3.68016 4.93375 94.9543
299 1 3.05282 3.76014 92.4622
300 1 4.91309 4.48501 90.4935
301 2 4.27753 5.93634 92.6523
302 1 10.0236 5.58019 101.826
303 1 7.30847 6.11678 96.6974
304 1 7.38173 5.73605 100.486
305 1 9.33132 6.51262 98.5982
306 2 8.12847 5.3185 94.1452
307 1 6.85131 5.98473 91.9892
308 1 2.87297 3.84304 88.6915
309 2 6.62588 6.05695 89.0803
310 1 9.94638 5.9988 92.5401
311 2 11.6421 6.2094 90.5005
312 1 5.52 4.52285 87.6355
313 1 3.4563 1.08942 87.6082
314 1 13.2222 0.406258 86.8873
315 2 16.6549 6.28589 84.5721
316 1 18.37 6.48385 82.5536
317 1 6.0585 1.85222 82.8541
318 1 6.10543 6.40451 83.4059
319 2 0.901498 0.415759 80.9898
320 1 3.7546 6.05513 76.7035
321 1 5.83797 6.61514 74.9553
322 1 5.86945 6.52139 78.6094
323 1 18.2902 6.57491 73.9773
324 1 4.24402 1.15955 84.8713
325 2 8.7141 6.40814 82.8653
326 1 10.7918 6.33955 84.7474
327 1 3.30213 1.75129 82.0025
328 1 5.25281 0.620821 80.5791
329 1 2.50077 1.19242 72.3442
330 1 13.4646 6.52548 84.0145
331 2 13.8539 6.0163 81.2412
332 1 11.4284 5.98002 82.1848
333 1 7.81733 0.539234 79.8318
334 2 5.70986 1.77732 78.2012
335 1 3.89638 0.487525 76.5973
336 1 8.71959 6.71594 73.9809
337 1 10.8725 6.43846 77.2485
338 1 11.5666 6.08021 74.7052
339 1 6.31131 2.10707 86.705
340 1 16.7508 2.40212 79.6536
341 2 8.6217 0.696764 86.6965
342 2 9.97868 3.63669 86.1783
343 1 8.33782 2.32803 84.5817
344 1 11.8642 1.28669 82.6412
345 1 11.0815 1.54213 85.321
346 1 10.6318 3.7167 83.4008
347 1 8.9449 1.87736 81.7807
348 1 8.352 2.18475 77.6463
349 1 9.09233 2.03135 74.9279
350 1 6.37189 1.78696 75.5621
351 2 7.26152 1.43932 72.9001
352 1 14.5934 3.02157 87.1106
353 1 13.323 3.84575 82.8946
354 1 12.5924 4.26901 85.5392
355 2 11.6884 3.35099 80.7879
356 1 10.4111 4.0303 78.5217
357 1 16.9504 4.40422 86.5232
358 1 2.67453 3.79907 83.8901
359 1 16.6276 6.52117 77.7224
360 1 10.4116 0.925264 79.167
361 1 12.5955 2.48323 78.5965
362 1 13.6731 6.57387 76.6497
363 1 11.786 0.427177 74.8533
364 2 11.0405 1.93103 76.855
365 1 1.50707 1.77705 85.4896
366 1 15.7281 5.34826 82.641
367 2 15.2008 3.94299 84.7802
368 1 14.023 1.98208 80.7102
369 1 14.0265 1.74496 84.6341
370 1 15.8857 2.43488 82.695
371 2 14.7878 1.32242 78.3651
372 1 13.6739 2.00703 75.9355
373 1 15.0903 3.96117 77.5605
374 1 12.8949 5.0751 78.9529
375 1 13.7122 6.73629 73.0943
376 1 11.4687 3.31513 74.6914
377 2 13.2741 2.17524 73.2937
378 1 14.1112 4.53717 74.7476
379 2 12.4858 4.26527 76.6852
380 1 11.2922 3.34148 72.1385
381 1 4.1282 3.03609 79.475
382 1 1.39016 1.90735 76.7455
383 1 2.6949 3.83384 72.8621
384 1 15.7991 2.47211 73.909
385 2 3.00276 2.17556 74.7193
386 1 12.2691 0.425215 71.8468
387 1 14.8507 5.82111 86.4818
388 1 3.87581 5.86879 85.4237
389 2 3.89454 3.26287 86.2842
390 2 17.592 4.09547 81.3204
391 1 15.6692 5.12977 79.9128
392 1 8.3514 4.96818 87.4551
393 1 5.76613 3.93343 84.7379
394 2 7.34783 3.96006 82.7913
395 1 4.83303 4.43384 81.849
396 1 6.84109 3.16378 80.328
397 1 18.5744 5.81419 79.7067
398 1 7.00499 5.7778 80.9259
399 2 4.32343 4.46511 74.705
400 1 17.0135 4.41903 75.5724
401 1 3.99937 3.03897 76.8399
402 1 4.86842 5.51451 72.6089
403 1 8.34444 5.01853 84.8081
404 2 6.50781 6.15467 85.934
405 2 17.5615 4.18934 78.0687
406 2 15.9799 5.10523 73.2046
407 1 9.3008 4.53877 81.0351
408 1 6.28817 4.45734 76.8524
409 1 6.97464 4.19906 74.1634
410 2 9.38188 4.19839 73.4077
411 1 7.45522 5.51933 71.8279
412 2 8.34006 5.30941 78.6299
413 1 9.08151 4.68783 76.0221
414 1 5.04138 2.58598 73.1139
415 2 5.38511 6.59493 70.3009
416 1 5.88579 6.46457 67.6214
417 1 10.0272 5.75692 71.3075
418 1 8.64623 6.66171 67.0177
419 1 3.98517 0.270044 69.5707
420 2 6.97641 6.08512 64.9911
421 1 1.91853 0.0807073 62.8054
422 1 8.31691 0.523518 70.7259
423 1 9.37635 -0.0191804 68.185
424 1 8.16449 5.39523 62.9028
425 1 6.91292 1.37471 66.7477
426 2 10.5288 6.62835 68.864
427 1 6.48277 0.0679304 61.9074
428 1 4.46293 1.32114 63.1435
429 1 6.89463 6.12975 58.9095
430 1 5.53688 0.656139 58.9918
431 2 3.86002 0.454138 60.8864
432 1 6.72842 5.79303 56.1663
433 1 14.592 5.52718 63.8485
434 1 13.6538 6.5823 57.2922
435 1 11.2476 5.4242 58.3353
436 1 14.0382 3.8962 71.8555
437 1 6.0412 2.01869 70.4808
438 1 10.5824 1.9818 69.7494
439 1 8.60436 3.18604 71.1681
440 2 14.4502 6.01555 70.4867
441 2 8.06091 2.29538 68.8267
442 1 9.58683 2.44 66.8397
443 2 8.83991 0.217538 65.5055
444 1 7.17667 1.56265 64.0789
445 1 15.0193 1.11281 71.6273
446 1 12.3201 0.0304766 68.9935
447 1 16.5784 4.76936 67.0508
448 2 13.9478 0.154195 66.8179
449 1 12.6788 2.48347 67.641
450 1 11.3566 0.466694 66.1394
451 1 17.399 5.86815 64.4126
452 1 10.0813 1.8131 63.9277
453 1 13.6332 1.87517 65.1196
454 2 11.4655 3.16123 65.3768
455 1 10.6391 2.08978 61.3151
456 2 11.3291 0.585065 59.2204
457 1 12.518 2.77042 59.3484
458 1 8.50971 0.622866 59.8956
459 1 14.8038 5.8959 61.2233
460 1 12.7769 3.09909 62.9512
461 1 9.61893 2.68053 58.3318
462 1 11.7894 1.59416 56.9409
463 1 15.0191 1.18964 68.9918
464 2 13.0953 2.27748 70.1695
465 1 14.6944 3.9498 69.1198
466 2 15.3865 2.53793 66.913
467 1 1.95809 2.51305 68.7043
468 1 13.8115 4.53157 66.1577
469 1 16.0255 3.31692 64.7704
470 2 8.97298 0.255003 62.4576
471 2 7.40255 1.21825 57.4453
472 1 13.3584 3.90701 56.9035
473 1 4.78121 2.75883 68.1286
474 1 0.61925 0.533326 65.1899
475 1 13.2506 0.695516 61.1276
476 1 13.8318 0.351926 58.477
477 2 0.992585 0.202415 57.5656
478 1 14.3466 1.56911 56.1527
479 2 5.15402 2.25153 65.3994
480 1 2.7732 2.06723 66.1704
481 1 3.17361 3.42142 63.881
482 2 14.99 1.44169 62.9062
483 1 0.550966 0.820069 60.2598
484 2 16.5431 4.63972 62.3987
485 1 14.6652 3.30952 60.8349
486 1 15.5619 2.74405 58.3103
487 1 2.40614 2.55992 61.4855
488 1 2.9329 2.13124 58.9721
489 1 15.9778 5.41589 57.4236
490 1 16.872 4.62699 70.7695
491 1 11.6946 5.35166 64.1015
492 2 3.81557 3.21763 70.694
493 1 3.55448 5.10853 68.6938
494 1 7.18945 4.09276 66.9697
495 1 6.53334 4.5146 69.4981
496 1 4.16013 4.65121 66.112
497 1 3.78104 5.18849 61.7265
498 1 4.50164 4.75734 59.1531
499 1 17.0454 4.55957 59.7327
500 2 2.72842 4.14176 57.1753
501 1 7.9047 2.73127 61.8815
502 1 5.79433 3.90218 63.3944
503 1 5.09865 2.70661 60.8407
504 1 7.0262 3.32399 58.9306
505 2 6.37158 4.80211 61.0551
506 1 12.0306 4.54293 69.6812
507 1 9.08732 4.33439 65.0523
508 1 9.33821 4.53339 68.8617
509 1 11.2245 5.1978 66.8973
510 2 10.1907 4.08599 62.6371
511 1 9.17269 4.71355 60.3677
512 1 5.02405 2.69371 57.2084
513 2 8.68542 4.95716 57.7135
514 1 12.1621 4.8143 60.9726
515 2 13.8833 4.9085 58.966
516 1 7.82428 3.22036 56.1081
517 1 5.54678 -0.0506206 56.1817
518 1 4.00687 5.8681 55.2605
519 2 3.49035 5.02981 53.0738
520 1 5.04086 5.05814 51.0533
521 1 8.25679 0.572758 51.2054
522 1 8.38595 5.10456 51.8732
523 2 7.08247 5.83171 49.5951
524 1 6.11507 4.82208 45.2227
525 1 8.22048 5.61949 43.2463
526 1 8.17743 5.63269 46.9787
527 1 5.34417 5.59516 42.3083
528 1 6.22287 -0.0113455 53.2063
529 2 10.8961 5.10022 51.2383
530 1 12.7485 4.98478 53.126
531 1 5.27929 0.518563 50.1969
532 1 11.4754 6.04865 48.9234
533 1 9.40174 6.80874 40.8625
534 1 15.6224 5.38258 52.386
535 2 15.9411 5.05829 49.7272
536 1 13.5123 4.90456 50.424
537 1 14.0842 6.32308 48.1955
538 2 8.01858 0.709586 46.6126
539 1 10.2953 5.9785 45.1244
540 1 11.1411 5.66984 42.5907
541 1 13.1703 5.32709 45.822
542 1 13.983 4.91992 43.3707
543 1 8.34207 0.37805 55.0377
544 1 3.26105 1.42045 48.1615
545 2 14.5947 5.7713 55.013
546 2 12.2354 2.57027 54.5584
547 1 10.2614 0.912396 52.9452
548 1 13.9502 0.150881 51.2822
549 1 13.4162 0.500409 53.7844
550 1 12.6527 2.5792 51.9856
551 1 11.0886 0.817657 50.451
552 1 10.5693 1.33369 46.0181
553 1 11.5458 0.821949 43.4585
554 1 8.78274 0.6963 43.9566
555 2 9.78011 0.288036 41.3416
556 1 1.60903 1.68943 55.5014
557 1 15.3723 2.76688 51.2468
558 1 14.9184 3.00188 53.9213
559 2 13.7433 2.21516 49.4012
560 1 12.7591 2.86511 47.0219
561 1 3.72096 3.28988 54.8978
562 1 4.69335 2.58106 52.4501
563 1 3.70093 5.53612 46.0391
564 1 16.8788 6.79107 47.8312
565 1 15.1041 1.45729 47.1226
566 1 16.0529 5.45777 45.2452
567 1 18.0924 5.92619 43.2718
568 2 13.434 0.908203 45.5266
569 1 3.54565 0.521634 53.9511
570 1 2.48132 4.18328 51.0247
571 2 2.12105 2.73866 53.1286
572 1 0.692657 0.470701 49.357
573 1 0.885047 0.490989 52.8644
574 1 2.71071 1.309 50.9191
575 2 1.86263 0.0697855 46.8098
576 1 0.653009 0.917475 44.2432
577 1 2.05908 2.85841 46.0592
578 1 15.3756 4.23279 47.4928
579 1 16.0276 5.5713 41.4846
580 1 13.7278 2.30327 43.354
581 2 15.7188 1.2946 41.7289
582 1 16.5143 3.48625 43.3572
583 2 14.8517 3.21675 45.304
584 1 14.5365 3.31775 40.9234
585 1 6.03899 1.70871 48.0542
586 1 3.82689 0.970239 45.2554
587 1 5.04056 2.9726 41.1754
588 1 2.97927 1.31782 41.88
589 2 5.27702 1.1846 43.3132
590 1 13.2472 1.2262 40.8934
591 1 16.7781 4.63925 54.8632
592 1 6.06063 4.60398 53.7537
593 2 5.90996 2.11224 54.823
594 2 4.38702 2.88667 49.7268
595 1 2.70756 4.37402 48.3542
596 1 10.7364 4.05993 55.8928
597 1 7.8631 2.58556 53.1526
598 2 9.51238 2.85853 51.1139
599 1 6.89632 3.23678 50.3084
600 1 8.99937 1.88317 48.8184
601 1 5.63503 4.59924 48.0706
602 1 9.17945 4.62628 49.3008
603 2 6.93489 3.46497 43.3494
604 1 3.96204 3.5375 43.5719
605 1 6.45164 2.01526 45.2749
606 1 7.57671 4.3751 41.0608
607 1 10.4613 3.66271 53.2475
608 2 8.68035 4.89039 54.524
609 2 4.50324 3.12758 46.3967
610 2 2.64736 4.15869 41.1526
611 1 11.4143 3.25063 49.3689
612 1 8.7287 3.33603 45.3665
613 1 9.5944 3.12299 42.7051
614 2 12.1126 3.28518 41.8381
615 1 10.4987 4.27357 40.4409
616 2 10.5284 4.27871 47.2277
617 1 11.4685 3.58661 44.6288
618 1 7.47631 1.58594 41.6145
ITEM: TIMESTEP
500
ITEM: NUMBER OF ATOMS
618
ITEM: BOX BOUNDS xy xz yz pp pp ff
0.0000000000000000e+00 1.9317770367296919e+01 4.0025167278329121e+00
0.0000000000000000e+00 6.6702723500479264e+00 0.0000000000000000e+00
0.0000000000000000e+00 1.0921147561319708e+02 0.0000000000000000e+00
ITEM: ATOMS id type x y z
1 1 4.27029 6.24571 6.2419
2 1 6.00303 6.84873 8.51532
3 1 4.70814 6.49041 13.3709
4 1 5.1548 0.645113 6.13611
5 1 3.7942 0.401458 10.9429
6 1 6.21883 6.58728 15.6909
7 1 4.49643 5.96567 20.2465
8 1 11.8878 6.49634 6.0945
9 1 6.9574 1.24743 8.56654
10 1 5.55628 0.669667 13.4105
11 1 3.78028 0.156662 18.0126
12 1 6.12876 6.60315 22.5958
13 1 4.23281 6.14239 27.1748
14 1 10.3447 1.63111 6.09506
15 1 13.7747 6.88459 8.43839
16 1 8.84447 1.44203 10.8964
17 1 12.1918 6.47319 13.1954
18 1 7.14532 0.936083 15.5693
19 1 5.39709 0.455104 20.4896
20 1 3.67343 0.163879 24.9294
21 1 5.90829 6.35781 29.4914
22 1 4.38807 6.06171 34.1843
23 1 13.0667 0.542645 6.35779
24 1 12.4171 3.68613 6.22986
25 1 11.8779 2.01903 8.58245
26 1 11.2706 0.422327 10.8905
27 1 11.0235 3.24221 10.8717
28 1 10.3129 1.48892 13.2317
29 1 13.885 6.50912 15.4976
30 1 8.75338 1.12913 17.8652
31 1 12.0692 6.14482 20.1847
32 1 6.96489 0.736156 22.4247
33 1 5.21409 0.474133 27.0416
34 1 3.56711 0.111777 31.8844
35 1 6.12198 6.36721 36.5325
36 1 14.991 2.53336 6.31479
37 1 14.662 0.9721 8.72915
38 1 14.1538 3.87673 8.5917
39 1 13.7067 2.19729 10.8733
40 1 13.1552 0.683472 13.2858
41 1 12.7013 3.61837 13.157
42 1 11.9314 1.83037 15.5572
43 1 11.3116 0.151354 17.8224
44 1 10.9568 3.02402 17.9764
45 1 10.4294 1.33738 20.1716
46 1 13.4777 6.2643 22.5404
47 1 8.64732 0.787524 24.775
48 1 11.848 6.08465 27.2266
49 1 6.9286 0.658091 29.5082
50 1 5.37828 0.386189 34.2199
51 1 7.73202 6.59587 38.5308
52 1 2.39571 1.46549 6.23303
53 1 17.2826 4.36083 6.26607
54 1 16.8173 2.96882 8.65066
55 1 1.13488 1.52285 10.927
56 1 15.7746 4.27016 10.9581
57 1 15.3597 2.46674 13.3326
58 1 14.7387 0.989979 15.5641
59 1 14.3382 3.69925 15.5627
60 1 13.6649 2.03585 17.8786
61 1 13.201 0.370023 20.1486
62 1 12.5082 3.3432 20.2369
63 1 11.849 1.54761 22.423
64 1 11.3783 -0.0106928 24.9551
65 1 10.7292 2.77649 24.9502
66 1 10.1495 1.22781 27.2123
67 1 13.5172 6.23142 29.551
68 1 8.57703 1.02378 31.8887
69 1 12.1097 5.95242 34.2518
70 1 7.18397 0.781189 36.6328
71 1 4.6075 3.39485 6.41357
72 1 4.16561 2.14018 8.74737
73 1 3.70608 4.93098 8.73948
74 1 3.32812 3.25435 11.0489
75 1 2.92467 1.45743 13.4648
76 1 17.6543 4.44014 13.3447
77 1 16.865 2.66847 15.6127
78 1 1.08719 1.16344 18.146
79 1 15.9286 4.01269 17.9016
80 1 15.2037 2.32643 20.3126
81 1 14.5935 0.638901 22.4589
82 1 14.1275 3.52537 22.501
83 1 13.4322 1.77763 24.7974
84 1 12.6815 0.275835 27.289
85 1 12.3799 3.06168 27.1458
86 1 11.8115 1.61313 29.7049
87 1 11.2939 -0.0559851 31.9648
88 1 10.8075 2.87052 31.9896
89 1 10.2577 1.2772 34.2596
90 1 13.8569 6.52441 36.5525
91 1 8.83862 1.0468 39.1623
92 1 7.59491 2.58922 5.99865
93 1 7.01562 5.36862 6.10006
94 1 6.56247 4.09615 8.6418
95 1 6.1331 2.35346 10.9475
96 1 5.6552 5.26066 10.9587
97 1 4.9349 3.69935 13.2892
98 1 4.35204 1.71854 15.7378
99 1 3.94134 4.61393 15.7261
100 1 3.2999 3.04219 17.9535
101 1 2.78175 1.43361 20.225
102 1 17.4125 4.29075 20.2305
103 1 16.9486 2.66304 22.5541
104 1 1.06518 0.956774 24.7882
105 1 15.7728 3.72148 24.8586
106 1 15.1395 2.24961 27.1503
107 1 14.3993 0.493968 29.5662
108 1 14.1557 3.42499 29.4027
109 1 13.4968 1.78589 31.8275
110 1 13.0144 0.364282 34.1783
111 1 12.508 3.20804 34.1816
112 1 12.0986 1.73266 36.5783
113 1 15.2459 6.81339 39.2398
114 1 10.972 2.94714 38.6088
115 1 9.70332 4.62905 6.00869
116 1 9.3051 3.0319 8.43659
117 1 8.88225 5.88383 8.71822
118 1 8.30899 4.10294 10.8543
119 1 7.65427 2.67821 13.2456
120 1 7.32415 5.37243 13.2651
121 1 6.5725 3.79804 15.6705
122 1 5.94329 2.21038 18.0457
123 1 5.53941 5.05496 17.9046
124 1 4.85556 3.36062 20.3607
125 1 4.30407 1.72866 22.5846
126 1 3.77474 4.65782 22.5382
127 1 3.25146 2.94023 24.9445
128 1 2.52971 1.49173 27.1529
129 1 17.3811 4.19912 27.1046
130 1 16.8599 2.45229 29.5714
131 1 0.829733 0.812411 31.8433
132 1 15.7098 3.55915 31.8056
133 1 15.2223 2.23906 34.06
134 1 14.6775 0.598004 36.4946
135 1 14.3045 3.44388 36.4489
136 1 13.4844 1.98171 38.67
137 1 11.5116 4.90448 8.56339
138 1 10.6103 6.15188 10.8897
139 1 10.0628 4.51941 13.1397
140 1 9.28402 2.77444 15.5863
141 1 8.80324 5.63272 15.5306
142 1 8.33453 4.00623 17.8749
143 1 7.56635 2.26586 20.1876
144 1 7.06967 5.18939 20.2561
145 1 6.63265 3.68647 22.6401
146 1 5.86177 1.94714 24.8542
147 1 5.39307 4.87447 24.7661
148 1 4.89679 3.36585 27.0664
149 1 4.28117 1.51507 29.5015
150 1 3.7148 4.37536 29.4966
151 1 3.32489 2.93963 31.7502
152 1 2.71359 1.32393 34.1432
153 1 17.6918 4.18121 34.2371
154 1 1.63408 2.75357 36.5785
155 1 1.04698 1.06525 39.0172
156 1 16.135 3.829 39.072
157 1 14.8519 5.4766 6.15933
158 1 13.2012 5.18199 10.8521
159 1 11.5347 4.7098 15.4844
160 1 10.4835 5.96945 17.9441
161 1 9.81796 4.15328 20.2027
162 1 9.14657 2.56886 22.6476
163 1 8.74994 5.4604 22.5459
164 1 8.19421 3.97856 24.8828
165 1 7.43055 2.37618 27.1792
166 1 7.13208 5.2269 26.9861
167 1 6.47349 3.48568 29.4629
168 1 5.90423 2.03516 31.8867
169 1 5.33706 4.78943 31.9347
170 1 5.03093 3.29457 34.2081
171 1 4.3005 1.86923 36.4466
172 1 3.78773 4.63401 36.6065
173 1 3.29732 2.66817 39.1166
174 1 16.4544 5.7349 8.73274
175 1 14.9998 5.35746 13.2796
176 1 13.1228 4.78248 17.8256
177 1 11.3333 4.38492 22.596
178 1 10.3978 5.7856 24.9469
179 1 9.76621 4.15252 27.1531
180 1 9.19605 2.51523 29.648
181 1 8.67096 5.36902 29.5355
182 1 8.2195 3.94002 31.9139
183 1 7.62649 2.13063 34.2085
184 1 7.155 5.10328 34.2805
185 1 6.46871 3.52528 36.5051
186 1 6.09998 1.96572 39.0027
187 1 5.37948 4.84204 39.0308
188 1 18.2294 6.00754 11.1995
189 1 16.6473 5.47071 15.5677
190 1 14.8388 5.18567 20.2778
191 1 12.9499 4.76591 24.9466
192 1 11.2876 4.32623 29.5907
193 1 10.5371 5.81256 31.8466
194 1 10.006 4.24244 34.3164
195 1 9.29763 2.6878 36.4675
196 1 8.96571 5.52881 36.3002
197 1 8.36274 3.80532 38.5367
198 1 18.055 6.11764 17.7353
199 1 16.4385 5.52279 22.5066
200 1 14.5984 4.94734 27.1866
201 1 13.0831 4.59936 31.8325
202 1 11.7759 4.66552 36.5908
203 1 10.7238 5.86724 38.7143
204 1 17.9588 5.60789 24.893
205 1 16.3745 5.4067 29.426
206 1 14.9646 5.03819 34.1668
207 1 13.5299 4.86148 38.832
208 1 17.8797 5.55365 31.7829
209 1 16.5823 5.56536 36.6962
210 1 18.0901 5.63693 39.4913
211 2 14.8039 1.31022 101.969
212 1 15.3281 1.05827 99.2295
213 1 3.73015 0.523273 103.135
214 1 2.73272 1.21041 98.6672
215 1 1.92166 1.585 101.207
216 2 0.991515 0.66968 96.6646
217 1 15.0294 1.25471 94.3664
218 1 6.44132 1.73493 102.745
219 1 7.15488 1.41171 99.93
220 1 5.94791 6.52995 94.429
221 1 4.99331 2.75961 98.6631
222 2 4.73626 1.22379 100.721
223 1 4.36972 1.25825 93.4716
224 1 2.38365 2.57136 94.8936
225 1 0.634363 0.529222 90.6481
226 1 3.28584 1.89511 90.4497
227 2 1.70834 1.57056 92.4756
228 1 0.597559 0.502944 87.9796
229 1 8.61204 0.629076 95.3788
230 1 7.3773 1.21097 88.8759
231 1 9.09085 6.43611 89.6415
232 1 12.4422 4.63388 103.266
233 1 4.02664 3.25116 102.212
234 1 8.5938 3.14504 101.563
235 1 6.42266 4.58978 103.069
236 2 8.41654 0.473556 102.308
237 2 6.04638 3.65164 100.684
238 1 7.66995 3.89199 98.6742
239 2 6.73701 1.58717 97.2168
240 1 4.8558 2.58253 95.9272
241 1 12.6753 1.80967 102.873
242 1 10.3941 1.35027 100.784
243 1 14.5462 6.06691 98.7065
244 2 11.8676 1.4838 98.5859
245 1 10.511 3.84403 99.3741
246 1 9.28616 1.85147 97.6668
247 1 11.4886 0.540886 96.0972
248 1 7.69659 3.28963 95.7558
249 1 11.656 3.13022 96.7486
250 2 9.54964 4.57593 97.0341
251 1 8.54135 3.18337 92.8779
252 2 8.99197 1.83206 90.826
253 1 10.2905 3.99386 90.6746
254 1 6.49999 1.64494 91.3849
255 1 8.59185 0.400948 92.7037
256 1 10.4912 3.95813 94.5667
257 1 7.48019 3.88071 89.8197
258 1 9.61104 2.57799 88.3255
259 1 13.0617 2.42024 100.414
260 2 11.1018 3.41652 102.015
261 1 12.8548 5.26287 100.629
262 2 13.4032 3.82492 98.4725
263 1 15.2601 3.81915 100.467
264 1 11.7744 5.97332 97.8506
265 1 13.7769 4.82229 96.276
266 2 6.78418 1.65612 94.1813
267 2 5.3261 2.48319 89.0587
268 1 11.1232 5.31968 88.0334
269 1 2.70442 3.98164 99.727
270 1 13.9611 1.87983 96.7805
271 1 11.0935 1.77356 92.7413
272 1 11.5851 1.55854 89.9992
273 2 14.0758 1.35972 89.2366
274 1 12.1776 2.80093 87.6265
275 2 3.09307 3.56484 97.1409
276 1 15.9267 3.53807 97.9141
277 1 16.4441 4.73757 95.5817
278 2 12.9043 2.73497 94.5054
279 1 13.7268 1.93807 91.9217
280 2 14.325 5.92353 94.1897
281 1 12.447 4.33391 92.529
282 1 13.2381 3.91946 89.8851
283 1 15.4742 3.72433 93.1923
284 1 16.0442 3.2873 90.5653
285 1 13.6338 6.56545 89.0035
286 1 14.7713 5.88207 102.443
287 1 9.84422 6.59194 95.5808
288 2 17.142 4.454 102.187
289 1 16.816 6.37799 100.393
290 1 5.30711 5.43298 98.6489
291 1 4.52073 5.66931 101.171
292 1 17.4866 5.98666 97.7881
293 1 16.9289 6.36513 93.4416
294 1 17.5569 6.04292 90.7294
295 1 14.8651 5.64485 91.3766
296 2 15.9589 5.36957 88.7937
297 1 6.00632 3.83572 93.5
298 1 3.71606 5.06122 94.9147
299 1 2.94606 3.77534 92.4911
300 1 4.99126 4.36676 90.6411
301 2 4.23416 5.82869 92.5625
302 1 10.0955 5.71742 101.587
303 1 7.17158 5.99411 96.7186
304 1 7.30582 5.74338 100.823
305 1 9.21689 6.6132 98.4817
306 2 8.14813 5.32119 94.2194
307 1 7.11926 5.89982 91.9344
308 1 2.99138 4.06887 88.7544
309 2 6.44529 6.27647 89.381
310 1 10.0087 5.98856 92.6592
311 2 11.6905 6.11975 90.5902
312 1 5.50475 4.56754 87.6223
313 1 3.47737 1.2477 87.7208
314 1 13.1566 0.438275 86.9634
315 2 16.7664 6.14027 84.6747
316 1 18.3687 6.48114 82.5419
317 1 6.0154 2.01576 82.7987
318 1 6.13069 6.38258 83.5071
319 2 0.921201 0.388745 81.2135
320 1 3.90063 5.88095 76.9621
321 1 5.56574 6.79185 74.8124
322 1 5.89451 6.56956 78.7211
323 1 18.0869 6.52456 73.836
324 1 4.09177 1.2461 84.672
325 2 8.8277 6.47845 82.7186
326 1 10.5885 6.37958 84.7135
327 1 3.29023 1.68983 81.8432
328 1 5.31438 0.558575 80.4525
329 1 2.41925 1.24632 72.177
330 1 13.387 6.59668 84.0569
331 2 13.6125 6.09842 81.3754
332 1 11.2419 6.09864 82.1382
333 1 7.76603 0.806148 79.7288
334 2 5.76359 1.85608 78.2294
335 1 3.87793 0.430065 76.5992
336 1 8.51566 6.48262 73.9247
337 1 10.8515 6.37613 77.3497
338 1 11.4191 6.02971 74.7685
339 1 6.24223 2.03949 86.5487
340 1 16.6182 2.51165 79.7436
341 2 8.70284 0.706967 86.6077
342 2 10.053 3.78895 86.0814
343 1 8.27434 2.45001 84.5578
344 1 11.9147 1.18976 82.6254
345 1 11.0896 1.55697 85.2872
346 1 10.7107 3.65912 83.4368
347 1 8.88618 1.97769 81.9698
348 1 8.28872 2.21098 77.4579
349 1 8.97937 1.78168 74.8282
350 1 6.20069 1.67286 75.4975
351 2 7.44499 1.47877 72.9351
352 1 14.7211 2.99331 87.1996
353 1 13.3149 3.81623 82.9212
354 1 12.7916 4.24197 85.5144
355 2 11.6029 3.44596 80.9117
356 1 10.3798 3.89042 78.6353
357 1 16.9366 4.36863 86.6188
358 1 2.7553 3.97673 83.9789
359 1 16.5226 6.43445 77.5751
360 1 10.5572 0.906498 79.3062
361 1 12.6612 2.53609 78.7031
362 1 13.6778 6.34525 76.8316
363 1 11.4727 0.435905 74.6839
364 2 10.9575 1.91731 76.822
365 1 1.45181 1.77992 85.6937
366 1 15.4947 5.27885 82.685
367 2 15.4249 3.80056 84.7658
368 1 14.0279 2.04457 80.9307
369 1 14.0499 1.71413 84.5419
370 1 16.1237 2.42163 82.7879
371 2 14.8685 1.22938 78.3814
372 1 13.5431 1.85806 76.1059
373 1 15.0373 3.84324 77.5633
374 1 12.8969 5.16001 79.0606
375 1 13.4279 6.47901 72.8321
376 1 11.2755 3.31399 74.7184
377 2 13.1077 2.16942 73.5562
378 1 13.8363 4.45257 74.6766
379 2 12.2963 4.28934 76.7422
380 1 11.1525 3.08885 72.0593
381 1 4.05069 3.09159 79.4844
382 1 1.54421 1.97173 76.7697
383 1 2.6362 3.77975 72.9764
384 1 15.6401 2.45562 74.0377
385 2 3.13788 2.12103 74.7583
386 1 12.2129 0.504395 71.8271
387 1 14.7922 5.78482 86.3986
388 1 3.9032 5.99583 85.5785
389 2 3.75056 3.30688 86.3273
390 2 17.5927 4.21407 81.3265
391 1 15.4989 5.04421 80.0191
392 1 8.26958 4.96029 87.4614
393 1 5.67243 3.9324 84.6884
394 2 7.34386 4.12594 82.6067
395 1 4.67797 4.42566 81.9914
396 1 6.80392 3.16306 80.2927
397 1 18.383 5.99054 79.8274
398 1 6.97418 5.77761 80.9085
399 2 4.41432 4.44316 74.859
400 1 17.0876 4.52278 75.5029
401 1 4.12589 3.12676 76.8992
402 1 4.90765 5.3959 72.5723
403 1 8.27971 5.15161 84.7629
404 2 6.53438 6.21038 86.2149
405 2 17.4426 4.20551 78.2385
406 2 15.7595 5.14714 73.1879
407 1 9.24477 4.52377 80.9956
408 1 6.40938 4.57459 76.8147
409 1 7.01028 4.06448 74.096
410 2 9.35408 4.08713 73.2674
411 1 7.44764 5.42023 71.8067
412 2 8.1862 5.13032 78.7184
413 1 9.12994 4.60229 76.1159
414 1 4.9678 2.45978 73.1235
415 2 5.34982 6.57391 70.2764
416 1 5.9972 6.43533 67.6879
417 1 10.054 5.78624 71.3083
418 1 8.57113 6.58797 67.0141
419 1 3.88516 0.22532 69.5327
420 2 6.86107 5.87663 64.9687
421 1 2.01007 0.137193 62.8561
422 1 8.36838 0.525633 70.6444
423 1 9.27891 -0.0882127 68.1302
424 1 8.2439 5.39386 62.7339
425 1 6.95568 1.31085 66.7979
426 2 10.5717 6.61968 69.028
427 1 6.47275 0.0648808 61.7809
428 1 4.55819 1.47431 63.1449
429 1 6.80245 6.15066 58.9689
430 1 5.40663 0.525915 58.771
431 2 3.93673 0.489123 60.8726
432 1 6.59469 5.67828 56.3424
433 1 14.4723 5.82426 63.7795
434 1 13.5353 6.59873 57.2293
435 1 11.2677 5.20548 58.289
436 1 14.0908 3.78609 71.8447
437 1 5.9603 1.88748 70.5752
438 1 10.5691 1.92168 69.5918
439 1 8.43389 3.1534 71.0568
440 2 14.4317 5.97721 70.4052
441 2 7.95599 2.38027 68.789
442 1 9.6659 2.50964 66.7875
443 2 8.90941 0.370599 65.6148
444 1 7.2089 1.73109 64.1811
445 1 15.0188 1.07957 71.5685
446 1 12.2864 -0.102915 68.8807
447 1 16.8147 4.6444 66.8536
448 2 13.9115 0.141485 66.872
449 1 12.7118 2.44979 67.6555
450 1 11.4472 0.501459 66.0736
451 1 17.3891 5.96571 64.4257
452 1 9.99693 1.99733 63.9203
453 1 13.7005 1.91711 65.0917
454 2 11.6268 3.2873 65.3419
455 1 10.5704 2.07211 61.0158
456 2 11.141 0.557841 59.1304
457 1 12.5624 2.70187 59.2044
458 1 8.59249 0.511342 59.8389
459 1 14.9307 5.90763 61.1798
460 1 12.5436 2.68621 62.8884
461 1 9.61984 2.57831 58.1851
462 1 11.7703 1.48416 56.8488
463 1 15.0063 1.1158 68.9989
464 2 13.1231 2.24589 70.2802
465 1 14.6732 3.95532 68.9657
466 2 15.2891 2.49156 66.9347
467 1 1.9237 2.55005 68.8023
468 1 13.7627 4.64734 66.0312
469 1 15.8642 3.45122 64.7012
470 2 8.90135 0.41622 62.3494
471 2 7.36067 1.09168 57.4974
472 1 13.3314 3.87866 56.8881
473 1 4.69471 2.64559 68.0691
474 1 0.620638 0.546479 65.2209
475 1 13.1566 0.751796 61.1157
476 1 13.7408 0.15614 58.477
477 2 0.800902 0.317643 57.728
478 1 14.2527 1.61381 56.0728
479 2 5.13569 2.35383 65.5353
480 1 2.71525 2.20827 66.2417
481 1 3.17956 3.53636 64.0522
482 2 15.0144 1.45568 62.9344
483 1 0.41739 0.763895 60.3026
484 2 16.3932 4.56721 62.5439
485 1 14.731 3.17429 60.9474
486 1 15.3852 2.76698 58.3684
487 1 2.388 2.57206 61.5813
488 1 3.14305 2.17403 58.9887
489 1 15.8166 5.28625 57.3863
490 1 16.7372 4.6094 70.7741
491 1 11.7396 5.45331 64.0194
492 2 3.88881 3.46305 70.6819
493 1 3.44737 5.07899 68.7649
494 1 7.16264 3.95171 66.8946
495 1 6.34896 4.39661 69.4763
496 1 4.31996 4.75499 66.2492
497 1 3.76409 5.25977 61.7527
498 1 4.45995 4.82177 59.241
499 1 17.0574 4.50763 59.8264
500 2 2.85955 4.29944 57.1335
501 1 8.02961 2.71686 61.868
502 1 5.85062 3.89344 63.2653
503 1 5.24378 2.56311 60.802
504 1 7.16555 3.28275 58.9975
505 2 6.50632 4.83065 61.0013
506 1 12.0024 4.49577 69.7321
507 1 9.16983 4.56509 65.003
508 1 9.23372 4.52282 68.8357
509 1 11.1819 5.17965 66.8989
510 2 10.2845 4.10082 62.6513
511 1 9.15534 4.78557 60.1882
512 1 5.30706 2.98731 57.1138
513 2 8.74578 4.85107 57.5761
514 1 12.3609 4.85705 61.3531
515 2 13.7282 4.97444 59.1896
516 1 7.86179 3.01357 56.0294
517 1 5.31866 -0.00615217 56.0913
518 1 4.00923 5.83665 55.2246
519 2 3.55236 4.89794 52.9959
520 1 5.18194 5.25867 51.0044
521 1 8.03972 0.72025 51.3564
522 1 8.02884 5.08078 51.8675
523 2 7.08198 5.91129 49.4472
524 1 6.03709 4.91781 45.2287
525 1 8.17426 5.52509 43.2944
526 1 8.35622 5.69341 47.1981
527 1 5.27499 5.53337 42.1939
528 1 6.07173 -0.197942 53.2437
529 2 10.7537 5.18722 51.2525
530 1 12.871 5.33601 52.9628
531 1 5.40996 0.504897 50.3387
532 1 11.5508 6.00637 49.0202
533 1 9.0506 6.6826 40.8208
534 1 15.4852 5.3773 52.4188
535 2 15.9939 4.91217 49.7803
536 1 13.5786 4.7405 50.5313
537 1 14.102 6.28766 48.3842
538 2 8.03685 0.681365 46.7043
539 1 10.2303 6.0763 45.1617
540 1 11.0813 5.49399 42.722
541 1 13.2708 5.38072 45.8723
542 1 14.0693 4.92884 43.3431
543 1 8.03821 0.213322 55.0888
544 1 3.19355 1.52367 48.2851
545 2 14.5579 5.89132 55.0452
546 2 12.3204 2.92029 54.592
547 1 10.3047 1.15658 53.1495
548 1 14.0513 -0.0577791 50.9966
549 1 13.2191 0.35289 53.6019
550 1 12.7707 2.38113 51.8289
551 1 10.8289 0.707905 50.6417
552 1 10.7151 1.23001 46.1146
553 1 11.5132 0.754222 43.4638
554 1 8.77422 0.587282 44.0687
555 2 9.64743 0.288212 41.3624
556 1 1.5129 1.67181 55.5401
557 1 15.5795 2.41364 51.1446
558 1 14.7621 2.85113 53.7506
559 2 13.9379 2.29425 49.1851
560 1 12.7791 2.9039 46.9893
561 1 3.79323 3.17046 54.932
562 1 4.83722 2.70619 52.3599
563 1 3.52255 5.51345 46.04
564 1 16.7809 6.7091 47.8383
565 1 14.9906 1.47787 46.8398
566 1 16.0281 5.42174 45.3149
567 1 17.888 5.89854 43.0632
568 2 13.3839 0.909789 45.2628
569 1 3.67137 0.41007 53.9562
570 1 2.52859 3.88483 50.9919
571 2 2.1525 2.51962 53.1568
572 1 0.612223 0.509182 48.9657
573 1 0.802315 0.439688 53.0174
574 1 2.69968 1.07549 51.0791
575 2 1.77983 0.277706 46.7227
576 1 0.702706 0.909956 44.2264
577 1 2.06364 2.90375 45.9305
578 1 15.3628 4.07767 47.4898
579 1 15.8778 5.42878 41.3784
580 1 13.6659 2.25157 43.3358
581 2 15.6434 1.24357 41.5913
582 1 16.3616 3.43698 43.1707
583 2 14.7766 3.30753 45.1488
584 1 14.2453 3.26467 40.8254
585 1 5.97962 1.64224 47.9444
586 1 3.69332 0.88238 45.1642
587 1 5.01414 2.89219 41.2338
588 1 2.94109 1.40755 42.1047
589 2 5.40642 1.05713 43.1378
590 1 13.0597 0.991846 41.1263
591 1 16.8291 4.46353 54.703
592 1 6.02188 4.36334 54.1442
593 2 5.96998 1.92278 54.659
594 2 4.48916 2.89263 49.7242
595 1 2.77877 4.32848 48.4153
596 1 10.5341 3.88925 55.864
597 1 7.94256 2.71865 53.2236
598 2 9.36704 2.81625 51.2196
599 1 6.79678 3.14101 50.203
600 1 9.01649 2.01806 48.8451
601 1 5.72204 4.53231 48.011
602 1 9.17139 4.62183 49.3344
603 2 6.78654 3.51163 43.1933
604 1 4.03466 3.46478 43.7337
605 1 6.38965 2.09062 45.1339
606 1 7.4078 4.42954 40.9434
607 1 10.5999 3.8027 53.115
608 2 8.4978 4.81206 54.5487
609 2 4.40143 3.15421 46.5954
610 2 2.57391 3.84293 41.2549
611 1 11.4005 3.17875 49.5477
612 1 8.7176 3.5306 45.1689
613 1 9.53052 2.94677 42.7039
614 2 12.0455 3.2659 41.9002
615 1 10.329 4.23013 40.6285
616 2 10.5661 4.1008 47.1181
617 1 11.5097 3.59862 44.6571
618 1 7.49591 1.35851 41.7079
ITEM: TIMESTEP
600
ITEM: NUMBER OF ATOMS
618
ITEM: BOX BOUNDS xy xz yz pp pp ff
0.0000000000000000e+00 1.9317770367296919e+01 4.0025167278329121e+00
0.0000000000000000e+00 6.6702723500479264e+00 0.0000000000000000e+00
0.0000000000000000e+00 1.0921147561319708e+02 0.0000000000000000e+00
ITEM: ATOMS id type x y z
1 1 4.39141 6.43842 6.19211
2 1 6.14043 6.59544 8.72625
3 1 4.3375 6.1849 13.169
4 1 5.40902 0.55947 6.13305
5 1 3.81759 0.371067 11.0615
6 1 6.32838 6.60623 15.4821
7 1 4.42765 6.31158 20.1836
8 1 12.2062 6.36509 6.01645
9 1 7.17708 0.854798 8.58958
10 1 5.56842 0.597047 13.2592
11 1 3.79685 0.293693 17.7121
12 1 5.96808 6.35852 22.4388
13 1 4.4313 6.0945 27.1385
14 1 10.2271 1.67306 6.03912
15 1 13.8267 6.69217 8.72345
16 1 8.72275 1.31776 11.0173
17 1 12.2707 6.23758 13.322
18 1 7.20811 0.8293 15.48
19 1 5.39489 0.478648 20.0148
20 1 3.71331 0.0931315 24.7639
21 1 6.07013 6.4127 29.4837
22 1 4.30027 5.998 34.1551
23 1 12.9078 0.657278 5.93174
24 1 12.6583 3.45897 5.96811
25 1 11.9601 2.01906 8.54375
26 1 11.4878 0.319078 11.0087
27 1 10.8922 3.25428 10.9035
28 1 10.5255 1.61577 13.1782
29 1 13.7386 6.70901 15.6292
30 1 8.77725 1.16067 17.8668
31 1 12.1325 6.27704 20.2364
32 1 7.08854 0.73366 22.4714
33 1 5.43214 0.331967 27.1126
34 1 3.65005 0.00421501 31.7927
35 1 6.01326 6.41068 36.5638
36 1 15.408 2.47177 6.05537
37 1 14.7122 1.06569 8.59069
38 1 14.2483 3.84842 8.67822
39 1 13.6423 2.37924 10.9828
40 1 13.1248 0.52725 13.3069
41 1 12.6029 3.4145 13.2764
42 1 12.239 1.87384 15.6432
43 1 11.5783 0.254249 17.8656
44 1 11.0484 3.00123 17.7972
45 1 10.3237 1.45288 20.0926
46 1 13.8044 6.54114 22.4824
47 1 8.69539 1.16754 24.8146
48 1 12.1376 5.96811 26.9727
49 1 6.91827 0.70385 29.5196
50 1 5.34555 0.451256 34.1187
51 1 7.68497 6.83629 38.9857
52 1 2.69164 1.57838 6.23056
53 1 17.5528 4.47263 6.20056
54 1 17.0669 2.6685 8.7351
55 1 0.992616 1.04824 11.0017
56 1 16.0279 4.06358 11.018
57 1 15.3337 2.43764 13.3816
58 1 14.833 0.837104 15.602
59 1 14.4807 3.76496 15.5448
60 1 13.6566 2.04536 17.9036
61 1 12.8963 0.53729 20.3729
62 1 12.5226 3.23131 20.1149
63 1 12.0774 1.79088 22.5551
64 1 11.2372 0.0987941 24.744
65 1 10.8863 3.01615 24.7541
66 1 10.3893 1.35858 27.0348
67 1 13.5278 6.45238 29.3229
68 1 8.52554 0.99367 31.7765
69 1 12.089 6.31326 34.0957
70 1 6.99498 0.798025 36.3318
71 1 4.93965 3.56684 5.95562
72 1 4.40391 1.86949 8.5551
73 1 3.98202 4.67359 8.56512
74 1 3.33754 3.20041 10.9581
75 1 2.70616 1.64777 13.2303
76 1 17.5845 4.48688 13.2066
77 1 17.1385 2.89208 15.5836
78 1 1.0802 1.11058 17.6588
79 1 15.9511 3.92757 17.8831
80 1 15.3418 2.37994 20.1064
81 1 14.6235 0.723255 22.454
82 1 14.2042 3.6341 22.3551
83 1 13.4628 2.12035 24.916
84 1 13.0605 0.294703 27.032
85 1 12.4895 3.24153 27.1585
86 1 11.9185 1.55144 29.2866
87 1 11.3302 0.10776 31.7677
88 1 10.9068 2.92875 31.622
89 1 10.4468 1.43244 34.0273
90 1 13.7437 6.41276 36.602
91 1 8.81892 1.21403 38.7051
92 1 7.58267 2.60617 6.02423
93 1 7.00931 5.5175 6.10477
94 1 6.55792 3.76104 8.62464
95 1 6.15425 2.34778 10.8903
96 1 5.59646 4.95238 11.0698
97 1 5.15527 3.4631 13.2902
98 1 4.57454 1.86194 15.5533
99 1 4.04846 4.81063 15.5621
100 1 3.44901 2.912 17.9231
101 1 2.64159 1.33372 20.1535
102 1 17.6937 4.24896 20.2858
103 1 16.8281 2.55701 22.5815
104 1 1.06047 1.02207 24.8381
105 1 15.8411 4.02016 24.869
106 1 15.1835 2.36274 27.062
107 1 14.6629 0.632306 29.5084
108 1 13.9155 3.47558 29.4812
109 1 13.5084 1.97673 31.8009
110 1 12.9788 0.313836 34.1444
111 1 12.6219 3.21054 34.1075
112 1 12.2009 1.65978 36.4442
113 1 15.3307 6.8578 38.8889
114 1 11.4838 2.87398 38.7404
115 1 9.90479 4.35546 6.15113
116 1 9.38976 2.88049 8.57747
117 1 8.75274 5.5821 8.40506
118 1 8.2357 4.33457 11.0009
119 1 7.94718 2.4566 13.2237
120 1 7.18421 5.52608 13.3845
121 1 6.88431 3.82477 15.507
122 1 6.15907 2.03349 17.7286
123 1 5.60128 4.88745 17.9276
124 1 5.02854 3.28113 20.0539
125 1 4.32483 1.5872 22.3504
126 1 3.78139 4.51806 22.4944
127 1 3.16691 2.96162 24.8391
128 1 2.70193 1.29996 26.9691
129 1 17.4582 4.10619 27.1073
130 1 16.7719 2.56423 29.4375
131 1 0.976374 0.992768 31.8274
132 1 15.6257 3.90001 31.909
133 1 15.2269 2.24205 34.0848
134 1 14.7718 0.723463 36.3774
135 1 14.3313 3.60044 36.5699
136 1 14.1063 1.91246 38.6213
137 1 11.4791 4.75164 8.54669
138 1 10.502 6.08714 10.9725
139 1 9.9227 4.46188 13.334
140 1 9.48744 2.79785 15.6025
141 1 8.94831 5.78227 15.4976
142 1 8.26514 4.00354 17.863
143 1 7.62709 2.36813 20.1414
144 1 7.13517 5.27125 20.1056
145 1 6.50004 3.50849 22.4024
146 1 5.89475 2.02811 24.8702
147 1 5.55322 4.93038 24.8684
148 1 4.81839 3.06774 27.1921
149 1 4.17968 1.77879 29.487
150 1 3.59504 4.53965 29.5772
151 1 3.02405 2.84665 31.8055
152 1 2.62985 1.27912 34.1748
153 1 17.285 4.21397 34.1105
154 1 1.725 2.59292 36.7649
155 1 1.26087 0.817737 39.4909
156 1 16.0823 3.89164 39.0742
157 1 14.8131 5.29363 6.10932
158 1 13.2713 5.09779 11.0836
159 1 11.7293 4.71738 15.6457
160 1 10.6116 5.7329 17.8366
161 1 9.96379 4.37793 20.0709
162 1 9.29183 2.77057 22.422
163 1 8.79494 5.59401 22.4339
164 1 8.24033 3.98237 24.7136
165 1 7.53987 2.26034 27.1982
166 1 7.13189 4.99405 27.2176
167 1 6.55741 3.49185 29.5118
168 1 5.79827 1.90336 31.8259
169 1 5.32744 4.8008 31.9266
170 1 4.64643 3.29922 34.1359
171 1 4.31922 1.54189 36.4343
172 1 3.8493 4.53719 36.6464
173 1 3.48375 2.95086 39.0048
174 1 16.4002 5.78661 8.50537
175 1 14.763 5.49293 13.2794
176 1 13.3422 5.01181 17.8871
177 1 11.6144 4.66938 22.3369
178 1 10.3545 5.76323 24.8419
179 1 9.80766 4.26436 27.1016
180 1 9.1493 2.64055 29.4159
181 1 8.75919 5.43458 29.4657
182 1 8.11102 3.6686 31.7206
183 1 7.44739 2.54528 34.1605
184 1 7.02405 5.15054 34.1506
185 1 6.49765 3.67724 36.4947
186 1 6.11525 1.98116 38.9382
187 1 5.49019 4.69264 39.1242
188 1 18.074 6.09307 10.6933
189 1 16.5341 5.6226 15.6828
190 1 14.8189 5.13513 20.1602
191 1 13.063 4.95673 24.7371
192 1 11.3896 4.57566 29.4615
193 1 10.3413 5.6444 31.8013
194 1 9.91639 4.24092 34.0489
195 1 9.48196 2.77065 36.2652
196 1 8.87972 5.46706 36.3639
197 1 8.51482 3.79171 38.3846
198 1 18.253 5.75649 18.0018
199 1 16.5024 5.4228 22.4668
200 1 14.8298 5.17445 27.1779
201 1 12.9098 4.937 31.8462
202 1 11.6328 4.63413 36.275
203 1 10.7638 5.8319 38.5926
204 1 18.1688 5.86221 24.7296
205 1 16.2715 5.46482 29.348
206 1 14.5677 5.29238 34.1566
207 1 13.3072 5.03505 39.2033
208 1 18.1752 5.86955 31.8151
209 1 16.5689 5.35378 36.4693
210 1 17.9942 5.6917 39.0662
211 2 14.6095 1.32571 102.01
212 1 15.2161 1.09009 99.3285
213 1 3.82848 0.474556 103.019
214 1 2.62726 1.13184 98.7926
215 1 1.78796 1.59624 101.41
216 2 0.942121 0.601575 96.7149
217 1 14.9931 1.27648 94.4084
218 1 6.30013 2.05635 102.588
219 1 7.28457 1.37112 99.9567
220 1 5.96422 6.53281 94.6163
221 1 4.9938 2.55966 98.6624
222 2 4.62554 1.29683 100.766
223 1 4.29052 1.17126 93.6138
224 1 2.23601 2.61617 94.9909
225 1 0.675506 0.716829 90.6559
226 1 3.21221 1.76962 90.554
227 2 1.77911 1.712 92.6831
228 1 0.816761 0.438686 87.8051
229 1 8.61485 0.315133 95.4855
230 1 7.23496 1.12273 88.8982
231 1 9.10474 6.4663 89.8412
232 1 12.3157 4.68597 103.358
233 1 3.88194 3.2829 102.286
234 1 8.66761 3.26162 101.749
235 1 6.34129 4.82572 103.01
236 2 8.41952 0.575042 102.196
237 2 6.09177 3.67717 100.709
238 1 7.53958 3.81086 98.5913
239 2 6.97951 1.51841 97.4163
240 1 4.91592 2.60547 95.848
241 1 12.6838 1.68125 103.261
242 1 10.4226 1.4828 100.853
243 1 14.6741 5.9037 98.7281
244 2 11.8842 1.48519 98.6063
245 1 10.6818 3.83301 99.4204
246 1 9.38491 1.74387 97.9317
247 1 11.3962 0.551453 96.1044
248 1 7.87778 2.96893 95.6065
249 1 11.6522 3.15472 96.7245
250 2 9.4931 4.42367 97.1186
251 1 8.35117 3.4517 92.6669
252 2 9.082 1.83428 90.747
253 1 10.4133 3.98949 90.8969
254 1 6.36161 1.79438 91.3685
255 1 8.68833 0.571982 92.6505
256 1 10.4144 3.90766 94.5648
257 1 7.52716 3.85283 89.9209
258 1 9.42163 2.77941 88.3593
259 1 13.0202 2.49014 100.754
260 2 11.2136 3.46006 102.001
261 1 12.8552 5.47825 100.709
262 2 13.2683 3.79581 98.7001
263 1 15.3173 3.93872 100.637
264 1 11.865 5.87438 97.9197
265 1 13.9367 4.59885 96.3826
266 2 6.7779 1.48555 94.0049
267 2 5.20834 2.46119 89.175
268 1 11.1993 5.1353 88.2277
269 1 2.74049 4.03005 99.697
270 1 13.9463 1.75658 96.9437
271 1 11.0553 2.02471 92.7517
272 1 11.5578 1.44052 90.0099
273 2 14.0367 1.42815 89.2091
274 1 12.1008 2.69515 87.6258
275 2 3.16561 3.68742 97.1349
276 1 15.9196 3.48878 97.9942
277 1 16.5127 4.93042 95.6676
278 2 12.8688 2.64173 94.5921
279 1 13.7213 2.00099 91.8922
280 2 14.4063 5.87298 94.0936
281 1 12.6392 4.52913 92.4533
282 1 13.2473 4.06829 89.7928
283 1 15.4383 3.74186 93.226
284 1 16.205 3.43908 90.7386
285 1 13.6386 6.63282 88.956
286 1 14.9512 5.95149 102.674
287 1 9.83158 6.57486 95.8456
288 2 17.1276 4.47353 102.353
289 1 16.745 6.49526 100.52
290 1 5.07826 5.35715 98.7571
291 1 4.48853 5.83877 101.451
292 1 17.4132 5.97874 97.9915
293 1 16.9952 6.51923 93.3967
294 1 17.7262 6.07339 90.7433
295 1 14.9879 5.75215 91.4143
296 2 15.9763 5.3649 88.781
297 1 5.80994 3.81076 93.5427
298 1 3.67339 5.07935 94.9384
299 1 3.12895 3.82443 92.6714
300 1 4.96313 4.65219 90.6393
301 2 4.28008 6.08123 92.7518
302 1 10.1501 5.80123 102.095
303 1 7.28517 5.98131 96.8564
304 1 7.27687 5.79359 100.561
305 1 9.29001 6.38393 98.8172
306 2 8.07762 5.254 94.348
307 1 6.91453 5.92871 91.9935
308 1 2.90044 3.88042 88.7601
309 2 6.67283 6.1213 89.2725
310 1 10.0917 6.03882 92.8125
311 2 11.7111 6.18863 90.7117
312 1 5.72681 4.4241 87.6757
313 1 3.4128 1.25124 87.7726
314 1 13.2738 0.474013 86.9918
315 2 16.6663 6.40926 84.7427
316 1 18.2188 6.49582 82.5776
317 1 5.94278 2.06724 82.8603
318 1 6.01857 6.55697 83.4768
319 2 0.812798 0.513575 81.1042
320 1 3.6924 5.84573 76.9973
321 1 5.67462 6.56561 75.0413
322 1 5.75149 6.4158 78.7527
323 1 18.0353 6.5543 74.1184
324 1 4.06658 1.06145 84.9497
325 2 8.66389 6.40559 82.9504
326 1 10.6218 6.56601 84.7581
327 1 3.07121 1.95634 82.04
328 1 5.10816 0.706727 80.5786
329 1 2.26554 1.04369 72.4546
330 1 13.4718 6.71097 84.0624
331 2 13.7354 6.12292 81.2132
332 1 11.2182 6.20767 82.1807
333 1 7.6822 0.598864 79.8709
334 2 5.73974 1.98883 78.305
335 1 3.91845 0.322123 76.7304
336 1 8.70199 6.73749 73.9883
337 1 10.7713 6.28839 77.3973
338 1 11.447 5.92837 74.7168
339 1 6.16829 1.86798 86.7163
340 1 16.5524 2.47465 79.7265
341 2 8.60531 0.635603 86.5133
342 2 9.98459 3.90282 86.2005
343 1 8.27986 2.35235 84.6624
344 1 11.8275 1.46937 82.7347
345 1 11.1176 1.85288 85.2376
346 1 10.6733 3.85063 83.4005
347 1 9.08182 1.92687 82.0595
348 1 8.13718 2.31563 77.6454
349 1 8.90987 1.89918 75.0443
350 1 6.27613 1.70117 75.6253
351 2 7.05362 1.33785 72.9119
352 1 14.6879 3.1245 87.2568
353 1 13.2799 4.01416 82.8305
354 1 12.5412 4.32875 85.4882
355 2 11.6509 3.38314 80.7851
356 1 10.4189 3.86913 78.4355
357 1 16.9382 4.54697 86.6038
358 1 2.59727 3.99308 83.9889
359 1 16.4688 6.42148 77.7195
360 1 10.2882 1.04419 79.2451
361 1 12.644 2.49616 78.6105
362 1 13.5619 6.36269 76.7513
363 1 11.442 0.39864 74.9365
364 2 10.9027 1.81662 76.8587
365 1 1.55106 1.92801 85.6033
366 1 15.62 5.27147 82.6535
367 2 15.2411 4.02531 84.8208
368 1 13.7388 1.8946 80.7783
369 1 13.9424 1.82277 84.6502
370 1 15.6595 2.40258 82.6445
371 2 14.7744 1.18678 78.4325
372 1 13.5528 1.95744 76.0783
373 1 14.8665 3.89973 77.5868
374 1 12.8334 5.15414 78.9969
375 1 13.4612 6.79533 73.0066
376 1 11.2893 3.21149 74.7356
377 2 13.1149 2.08875 73.341
378 1 13.9054 4.38305 74.5688
379 2 12.3682 4.26489 76.644
380 1 11.2501 3.24671 72.0176
381 1 4.01965 3.07928 79.5119
382 1 1.39298 1.85056 76.9164
383 1 2.58692 3.7043 73.0699
384 1 15.6777 2.37018 73.9093
385 2 2.93309 2.05687 74.8952
386 1 12.1042 0.538629 71.9132
387 1 14.6646 5.89891 86.4476
388 1 4.00361 5.83079 85.544
389 2 3.94199 3.24645 86.3878
390 2 17.4684 4.12479 81.4447
391 1 15.5671 5.09875 79.9964
392 1 8.52586 5.29216 87.594
393 1 5.88426 3.97023 84.8474
394 2 7.41921 4.14636 82.7931
395 1 4.69756 4.55385 81.9734
396 1 6.87674 3.04001 80.5343
397 1 18.3594 5.79289 79.7558
398 1 6.99779 5.76436 80.9242
399 2 4.31775 4.52253 74.9766
400 1 16.8682 4.31141 75.6317
401 1 4.06927 3.08217 76.8086
402 1 4.68354 5.43757 72.7174
403 1 8.34248 5.06149 84.913
404 2 6.50641 6.19553 86.0329
405 2 17.4981 4.15696 78.1434
406 2 15.7828 5.05157 73.3142
407 1 9.29468 4.56903 80.8921
408 1 6.25465 4.48847 76.8545
409 1 6.88326 4.16504 74.2542
410 2 9.31299 4.03412 73.4515
411 1 7.38585 5.38931 71.8997
412 2 8.29952 5.35113 78.6873
413 1 8.92856 4.57373 76.0666
414 1 4.93167 2.52875 73.1564
415 2 5.35054 6.48939 70.4633
416 1 5.90317 6.52248 67.8283
417 1 9.99151 5.57163 71.3096
418 1 8.51926 6.56501 67.1485
419 1 3.99357 0.324692 69.7751
420 2 6.88888 5.89299 65.1551
421 1 1.89442 0.0840972 62.7747
422 1 8.26454 0.368988 70.814
423 1 9.12497 0.074214 68.06
424 1 8.112 5.30005 62.7414
425 1 6.84138 1.38669 66.747
426 2 10.6331 6.66323 68.9454
427 1 6.35892 0.0905698 61.8476
428 1 4.37906 1.3862 63.1988
429 1 6.71193 6.10035 58.9444
430 1 5.38623 0.688623 58.9144
431 2 3.8367 0.429941 60.9046
432 1 6.65167 5.65737 56.1779
433 1 14.7586 5.70068 63.6516
434 1 13.3997 6.60297 57.1843
435 1 11.1668 5.35349 58.2902
436 1 14.093 3.80233 71.8693
437 1 6.13531 1.83299 70.6361
438 1 10.5911 1.85907 69.8459
439 1 8.60002 3.10828 71.1482
440 2 14.4011 5.92045 70.6314
441 2 8.10166 2.25655 68.9083
442 1 9.58592 2.47752 66.7479
443 2 8.88552 0.233967 65.5684
444 1 7.02754 1.40902 64.1891
445 1 14.872 0.910851 71.6551
446 1 12.3694 0.0332035 69.0132
447 1 16.636 4.76501 67.1722
448 2 13.9675 0.192373 66.8779
449 1 12.6996 2.56396 67.719
450 1 11.4286 0.517857 66.096
451 1 17.5985 5.89128 64.5103
452 1 10.0039 1.91762 63.9323
453 1 13.7647 1.94907 65.0777
454 2 11.6108 3.19532 65.337
455 1 10.5792 1.87502 61.0567
456 2 11.2267 0.658436 58.9192
457 1 12.3775 2.76551 59.134
458 1 8.53055 0.659961 59.7163
459 1 14.7997 5.78785 60.9846
460 1 12.7269 2.87694 62.7867
461 1 9.60692 2.75085 58.2326
462 1 11.5202 1.5757 56.6228
463 1 14.9429 1.0587 69.0854
464 2 13.0418 2.1487 70.2563
465 1 14.7936 3.73665 69.1406
466 2 15.5392 2.48096 67.094
467 1 2.07785 2.64814 69.0727
468 1 13.8296 4.62539 66.0528
469 1 16.0199 3.40836 64.693
470 2 8.8707 0.346662 62.3862
471 2 7.31346 1.33741 57.293
472 1 13.226 3.91991 56.8019
473 1 4.72324 2.68312 68.2335
474 1 0.694168 0.47545 65.2106
475 1 13.1918 0.701493 61.0128
476 1 13.778 0.252536 58.3312
477 2 0.796066 0.105957 57.5366
478 1 14.2459 1.51675 56.0643
479 2 5.24958 2.56899 65.5206
480 1 2.67681 2.16636 66.434
481 1 3.16435 3.41597 63.929
482 2 15.0326 1.35444 62.8524
483 1 0.536593 0.743762 60.1351
484 2 16.4635 4.57738 62.4058
485 1 14.7247 3.13909 60.6806
486 1 15.3864 2.75696 58.1506
487 1 2.30369 2.57005 61.4606
488 1 2.84019 2.13383 58.9028
489 1 15.6847 5.32896 57.2922
490 1 16.8327 4.6836 70.91
491 1 11.9705 5.34343 63.842
492 2 4.04966 3.37087 70.8933
493 1 3.55831 5.15376 68.7983
494 1 7.05605 3.99238 67.1348
495 1 6.41013 4.45096 69.5928
496 1 4.13283 4.62153 66.2623
497 1 3.61607 5.0993 61.7166
498 1 4.41607 4.75064 59.1775
499 1 17.0183 4.68601 59.6969
500 2 2.77983 4.23504 57.2532
501 1 8.04111 2.68483 61.8947
502 1 5.72434 3.93548 63.3366
503 1 5.04866 2.62308 60.9657
504 1 7.06901 3.30336 59.1212
505 2 6.34864 4.76292 61.0465
506 1 12.271 4.60395 69.6891
507 1 9.17829 4.58218 65.0807
508 1 9.39995 4.37767 68.8332
509 1 11.2134 5.17758 66.7767
510 2 10.2435 4.13442 62.6197
511 1 9.00235 4.9188 60.1863
512 1 5.16259 2.83045 57.052
513 2 8.62165 4.98167 57.7064
514 1 12.0024 4.89895 61.0722
515 2 13.7908 4.91566 58.9691
516 1 7.83801 3.22509 55.8925
517 1 5.36649 0.160151 56.2145
518 1 4.06304 5.85331 55.3991
519 2 3.48989 4.94597 53.1487
520 1 5.10619 4.96965 51.083
521 1 8.26472 0.615097 51.2035
522 1 8.22341 5.1473 51.8514
523 2 7.1681 5.87052 49.555
524 1 6.05045 4.87094 45.1553
525 1 8.11665 5.52235 43.2701
526 1 8.27802 5.64746 47.1157
527 1 5.22709 5.51416 41.9615
528 1 6.31452 0.0462717 53.091
529 2 10.9053 5.11704 51.0839
530 1 12.7964 5.08485 52.9092
531 1 5.3493 0.584118 50.2844
532 1 11.3929 5.98843 48.8105
533 1 9.20021 6.75945 40.9203
534 1 15.4848 5.22643 52.3272
535 2 15.8797 4.85132 49.551
536 1 13.5199 4.77343 50.3996
537 1 13.927 6.09334 48.1028
538 2 8.00961 0.616898 46.6851
539 1 10.1883 6.03715 45.086
540 1 11.0196 5.63982 42.6245
541 1 13.0927 5.2972 45.7968
542 1 13.898 4.84659 43.3227
543 1 8.22106 0.506837 54.9963
544 1 3.274 1.43158 48.2733
545 2 14.6996 5.87966 54.9597
546 2 12.4997 2.84722 54.66
547 1 10.4544 0.905267 52.8449
548 1 14.0296 0.00067857 51.3237
549 1 13.179 0.408559 53.8281
550 1 12.7585 2.46369 52.0039
551 1 11.085 0.699353 50.292
552 1 10.6635 1.1623 46.0579
553 1 11.2606 0.724222 43.4438
554 1 8.79219 0.675243 43.9312
555 2 9.59175 0.084321 41.2245
556 1 1.50976 1.66709 55.4484
557 1 15.4061 2.48713 51.1485
558 1 14.9151 2.86404 53.8903
559 2 13.7578 1.97652 49.3497
560 1 12.9147 2.85213 47.0106
561 1 3.71321 3.08816 54.8286
562 1 4.82008 2.50023 52.3331
563 1 3.5122 5.32728 45.8721
564 1 16.6517 6.61788 47.757
565 1 14.9618 1.15287 47.0421
566 1 15.9802 5.37783 45.2927
567 1 17.8196 5.92613 43.2484
568 2 13.1101 0.882692 45.5062
569 1 3.70833 0.469327 53.9576
570 1 2.45225 4.16168 50.9574
571 2 2.0203 2.58628 53.1095
572 1 0.665834 0.223024 49.271
573 1 0.830048 0.461882 52.9804
574 1 2.65761 1.2116 51.0988
575 2 1.81245 0.0427285 46.8319
576 1 0.459455 0.872942 44.2576
577 1 2.03061 2.5381 46.0083
578 1 15.5167 3.88808 47.4398
579 1 15.8025 5.42379 41.3143
580 1 13.4866 2.24545 43.3493
581 2 15.5259 1.33584 41.8596
582 1 16.2668 3.41371 43.1575
583 2 14.7621 3.06899 45.2359
584 1 14.1857 3.27263 41.0822
585 1 6.08374 1.78199 47.9443
586 1 3.77934 0.86173 45.1232
587 1 4.94133 2.80857 41.3267
588 1 2.70707 1.29134 42.2206
589 2 5.43392 1.1158 43.2344
590 1 13.1123 0.906785 40.9912
591 1 16.8618 4.62419 54.7118
592 1 6.10122 4.52606 53.8198
593 2 5.93391 2.03966 54.7827
594 2 4.45079 2.94686 49.6516
595 1 2.87712 4.23512 48.2065
596 1 10.5191 4.22544 55.8375
597 1 7.83037 2.69854 53.0478
598 2 9.59556 2.69187 51.1585
599 1 6.83806 3.08756 50.3549
600 1 8.99824 1.88652 48.8302
601 1 5.7922 4.46388 47.9534
602 1 9.10983 4.48856 49.3445
603 2 6.61777 3.39449 43.3134
604 1 3.89651 3.41784 43.7794
605 1 6.44842 2.07446 45.3344
606 1 7.45269 4.34166 40.8727
607 1 10.4306 3.56576 53.1406
608 2 8.63754 4.95912 54.3955
609 2 4.4573 3.02674 46.4434
610 2 2.60663 3.89902 41.331
611 1 11.3719 3.19528 49.2444
612 1 8.68547 3.67911 45.2005
613 1 9.39277 3.09749 42.7181
614 2 11.7171 3.19141 41.7439
615 1 10.0536 4.07298 40.4489
616 2 10.3225 4.0743 47.0448
617 1 11.3963 3.59527 44.5764
618 1 7.36431 1.55598 41.6296
ITEM: TIMESTEP
700
ITEM: NUMBER OF ATOMS
618
ITEM: BOX BOUNDS xy xz yz pp pp ff
0.0000000000000000e+00 1.9317770367296919e+01 4.0025167278329121e+00
0.0000000000000000e+00 6.6702723500479264e+00 0.0000000000000000e+00
0.0000000000000000e+00 1.0921147561319708e+02 0.0000000000000000e+00
ITEM: ATOMS id type x y z
1 1 4.82976 6.41756 5.89863
2 1 6.19203 6.66708 8.34055
3 1 4.72732 6.30583 13.1571
4 1 5.61705 0.625991 6.04042
5 1 3.67344 0.0787142 10.713
6 1 6.15272 6.53702 15.5266
7 1 4.62336 6.13882 20.1474
8 1 12.2021 6.14332 6.18467
9 1 7.04712 0.801763 8.5894
10 1 5.28514 0.476615 13.2128
11 1 3.86178 0.225335 17.8761
12 1 6.20725 6.49134 22.4919
13 1 4.34849 6.12175 27.0692
14 1 10.5302 1.45696 6.2266
15 1 13.8526 6.5228 8.41803
16 1 8.75135 1.02518 10.8914
17 1 12.2503 6.35685 13.1883
18 1 7.12877 0.862218 15.533
19 1 5.52128 0.527234 20.0995
20 1 3.6332 0.0679954 24.7892
21 1 5.86042 6.48011 29.4468
22 1 4.43589 6.17715 34.1108
23 1 13.2268 0.627995 6.19451
24 1 12.5627 3.42583 6.25796
25 1 12.092 1.80216 8.57493
26 1 11.5112 0.121894 10.9238
27 1 11.2309 2.9048 10.9548
28 1 10.3512 1.53319 13.2447
29 1 13.9867 6.45388 15.4684
30 1 8.93379 1.25604 17.8084
31 1 12.1918 6.17548 20.034
32 1 7.06536 0.82009 22.3052
33 1 5.20994 0.398641 27.1283
34 1 3.48364 0.288127 31.8037
35 1 5.93627 6.35965 36.4007
36 1 15.4178 2.62184 5.97291
37 1 14.9056 0.706168 8.53441
38 1 14.3159 3.65557 8.47883
39 1 13.761 1.97188 10.8016
40 1 13.1806 0.599297 13.1273
41 1 12.8139 3.55211 13.1892
42 1 12.1019 1.84553 15.6263
43 1 11.5112 0.221363 17.9516
44 1 11.0944 3.14364 17.9137
45 1 10.6041 1.55637 20.1577
46 1 13.821 6.54936 22.4583
47 1 8.79383 1.10565 24.684
48 1 12.0292 6.3008 27.1408
49 1 7.01286 0.82308 29.3581
50 1 5.13695 0.470342 34.0669
51 1 7.60148 6.56992 38.5955
52 1 3.00494 1.69277 5.93001
53 1 17.6338 4.44851 5.80359
54 1 17.1199 2.89698 8.35253
55 1 1.2158 1.27553 10.6674
56 1 15.8726 4.12069 10.7104
57 1 15.4548 2.55934 13.0535
58 1 14.8149 0.993899 15.4776
59 1 14.2692 3.66978 15.6039
60 1 13.7923 2.27823 17.926
61 1 13.3744 0.528695 20.0728
62 1 12.9056 3.49583 20.3408
63 1 12.1939 1.75753 22.439
64 1 11.5398 0.3358 24.7837
65 1 11.0656 3.06291 24.7945
66 1 10.3351 1.36684 27.0617
67 1 13.9636 6.55687 29.3838
68 1 8.62182 1.16703 31.5206
69 1 12.0579 5.95975 33.9346
70 1 7.02677 0.657382 36.2433
71 1 5.19618 3.46236 6.23999
72 1 4.38561 1.84079 8.48811
73 1 4.02273 4.65036 8.58188
74 1 3.32297 3.0731 10.7024
75 1 2.70352 1.34205 12.9748
76 1 17.7258 4.21571 13.1201
77 1 16.8443 2.72005 15.4384
78 1 1.21646 1.12113 18.0269
79 1 15.9902 4.04903 17.6975
80 1 15.3416 2.34118 20.2671
81 1 14.9208 0.721546 22.4753
82 1 14.3076 3.70113 22.5359
83 1 13.8364 2.05253 24.7482
84 1 13.0155 0.684861 27.2193
85 1 12.7529 3.46061 26.9923
86 1 12.0311 1.88185 29.4046
87 1 11.3289 0.238156 31.8176
88 1 10.8334 3.09548 31.8206
89 1 10.2592 1.27958 34.0111
90 1 13.8569 6.38245 36.3832
91 1 8.59299 1.02287 38.9636
92 1 7.94857 2.35306 6.22391
93 1 7.55876 5.26726 6.00695
94 1 6.68813 3.77074 8.5893
95 1 5.94857 1.9773 10.8997
96 1 5.46841 5.08116 10.7079
97 1 4.92086 3.51021 12.9371
98 1 4.35643 1.62497 15.571
99 1 3.87951 4.68354 15.4
100 1 3.32741 3.14435 17.7184
101 1 2.8855 1.44015 20.1244
102 1 17.5574 4.2648 20.0487
103 1 17.0107 2.79591 22.387
104 1 1.07914 1.06198 24.8564
105 1 16.0594 3.88731 24.7359
106 1 15.2946 2.35764 27.1529
107 1 14.69 0.967028 29.4214
108 1 14.3999 3.81438 29.2509
109 1 13.7138 2.10886 31.8112
110 1 12.9951 0.558897 34.1237
111 1 12.5492 3.38022 33.92
112 1 11.9815 1.57291 36.3898
113 1 15.3638 6.62059 38.9601
114 1 11.0115 2.65409 38.5771
115 1 10.0246 4.35365 6.15069
116 1 9.40797 2.75064 8.55732
117 1 9.02305 5.55443 8.73677
118 1 8.26918 3.73783 10.8617
119 1 7.54349 2.48915 13.1768
120 1 7.29793 5.19967 13.0076
121 1 6.50783 3.76494 15.4572
122 1 5.8386 2.28029 17.9172
123 1 5.71022 5.01337 17.8024
124 1 4.94561 3.34977 20.0899
125 1 4.37661 1.74273 22.4609
126 1 3.9618 4.7109 22.4179
127 1 3.10531 2.79865 24.8752
128 1 2.67019 1.39028 27.2708
129 1 17.4284 4.28751 27.1038
130 1 17.0489 2.68719 29.423
131 1 0.796669 1.06764 31.8676
132 1 16.0895 3.90888 31.7654
133 1 15.2193 2.3921 34.1408
134 1 14.657 0.641067 36.4905
135 1 14.1416 3.57933 36.326
136 1 13.9187 2.19467 38.5459
137 1 11.5446 4.51337 8.54549
138 1 10.6098 5.76639 10.9238
139 1 10.0358 4.3348 13.1124
140 1 9.37341 2.78495 15.4659
141 1 8.85889 5.67988 15.4395
142 1 8.39785 3.98176 17.8425
143 1 7.77328 2.48383 20.0592
144 1 7.25495 5.25211 20.017
145 1 6.67328 3.75236 22.3709
146 1 5.91465 1.99052 24.7992
147 1 5.4398 4.84873 24.7497
148 1 4.8946 3.23646 27.0152
149 1 4.20181 1.59735 29.4851
150 1 3.85326 4.47979 29.3627
151 1 3.28725 2.96761 31.8264
152 1 2.45021 1.42352 34.3148
153 1 17.6362 4.19954 34.3295
154 1 1.36925 2.57232 36.7597
155 1 1.15258 0.957062 39.5915
156 1 16.0876 4.09552 38.9653
157 1 14.9312 5.42413 6.0258
158 1 13.3208 4.91866 10.872
159 1 11.6119 4.79828 15.4868
160 1 10.6468 6.11607 17.8354
161 1 10.0872 4.31223 20.1905
162 1 9.25278 2.60272 22.5189
163 1 8.93154 5.58806 22.5624
164 1 8.19881 3.89412 24.8358
165 1 7.54528 2.42486 27.0488
166 1 7.04854 5.23678 27.1396
167 1 6.52333 3.53397 29.2724
168 1 5.93743 2.04659 31.667
169 1 5.42096 5.02009 31.7763
170 1 5.00859 3.22045 34.1553
171 1 4.21498 1.72216 36.531
172 1 3.77243 4.59712 36.5486
173 1 3.33755 2.94401 38.9947
174 1 16.5699 5.66995 8.59136
175 1 14.9976 5.28653 13.0988
176 1 13.1806 5.01736 17.8283
177 1 11.6346 4.75378 22.4812
178 1 10.5744 5.8086 24.6987
179 1 9.82331 4.3224 27.1094
180 1 9.08945 2.71804 29.3445
181 1 8.70209 5.36427 29.267
182 1 8.07142 4.02766 31.6624
183 1 7.6006 2.09866 33.8981
184 1 6.95732 5.1545 34.0521
185 1 6.58479 3.4194 36.4223
186 1 5.9443 1.96414 38.7822
187 1 5.34151 4.96537 39.0258
188 1 18.3012 5.86571 11.0715
189 1 16.5959 5.69461 15.3673
190 1 14.9803 5.41627 20.2199
191 1 13.3379 5.00528 24.7673
192 1 11.6031 4.5614 29.3838
193 1 10.4961 6.01176 31.5706
194 1 9.57136 4.2196 33.9886
195 1 9.22542 2.47929 36.4135
196 1 8.72881 5.43479 36.1639
197 1 8.32276 3.61661 38.4772
198 1 18.2857 6.00514 17.754
199 1 16.6067 5.73081 22.5221
200 1 14.8059 5.33688 26.9428
201 1 13.1367 4.91896 31.6607
202 1 11.4763 4.52292 36.2421
203 1 10.4676 5.75046 38.2151
204 1 18.0953 5.73314 24.8199
205 1 16.664 5.56726 29.3793
206 1 14.969 5.09433 34.0664
207 1 13.2014 4.86235 39.1027
208 1 18.0822 5.88076 31.8526
209 1 16.441 5.36944 36.629
210 1 18.1557 5.78853 39.0023
211 2 14.7643 1.56863 102.251
212 1 15.2767 1.12104 99.538
213 1 3.83001 0.477405 103.304
214 1 2.57889 1.14318 98.8295
215 1 1.93697 1.57975 101.676
216 2 0.628842 0.406533 96.749
217 1 15.1121 1.23311 94.4267
218 1 6.25819 1.66763 102.753
219 1 7.17906 1.24728 100.018
220 1 6.08741 6.61327 94.4821
221 1 4.96358 2.65866 98.7833
222 2 4.54698 1.32152 100.955
223 1 4.43283 1.43828 93.5658
224 1 2.3958 2.6413 95.1589
225 1 0.626773 0.750289 90.6075
226 1 3.38665 1.91401 90.623
227 2 1.78515 1.67662 92.6445
228 1 0.449171 0.45721 87.9521
229 1 8.56963 0.235473 95.6491
230 1 7.34543 1.12536 88.9457
231 1 8.99886 6.56346 89.8931
232 1 12.3565 4.88711 103.41
233 1 3.98629 3.33243 102.408
234 1 8.56689 3.20582 101.654
235 1 6.45551 4.45494 103.101
236 2 8.44347 0.585261 102.436
237 2 6.07236 3.54887 100.777
238 1 7.45838 3.73641 98.6195
239 2 6.77975 1.49737 97.311
240 1 4.98959 2.79683 95.9295
241 1 12.6597 2.13983 103.246
242 1 10.3173 1.41372 100.848
243 1 14.3869 6.08489 98.8806
244 2 11.7813 1.43795 98.7684
245 1 10.5704 3.76989 99.5081
246 1 9.30924 1.89124 97.9008
247 1 11.3114 0.430429 96.5401
248 1 7.79175 3.18708 95.8089
249 1 11.6683 3.22173 96.88
250 2 9.51825 4.4299 97.1166
251 1 8.57521 3.21378 93.0403
252 2 8.98867 1.89562 90.7421
253 1 10.2346 3.99346 90.8809
254 1 6.4968 1.86108 91.5232
255 1 8.69477 0.427427 92.7634
256 1 10.6223 3.99307 94.6921
257 1 7.5079 3.89971 89.8697
258 1 9.62011 2.73149 88.5516
259 1 12.9766 2.51311 100.596
260 2 11.0103 3.43452 102.174
261 1 12.6347 5.44383 100.69
262 2 13.2779 3.89723 98.6073
263 1 15.3049 3.9872 100.528
264 1 11.5073 5.87869 97.9802
265 1 13.9592 4.62907 96.4536
266 2 6.88253 1.51891 94.2713
267 2 5.18784 2.50321 88.9407
268 1 11.0847 5.17498 88.3307
269 1 2.79693 4.00042 99.7539
270 1 13.922 1.79574 96.9832
271 1 11.1489 2.02133 92.7854
272 1 11.8128 1.62856 90.2021
273 2 14.1112 1.75811 89.371
274 1 12.2233 2.84993 87.7799
275 2 3.37269 3.85149 97.2661
276 1 16.0959 3.29325 97.9638
277 1 16.5964 4.85806 95.7983
278 2 12.9694 2.70423 94.6848
279 1 13.817 1.88154 92.0635
280 2 14.4364 5.83872 94.2556
281 1 12.5854 4.32702 92.6717
282 1 13.3087 4.08915 90.0536
283 1 15.5233 3.75252 93.3244
284 1 16.2795 3.47529 90.6509
285 1 13.7066 6.71446 89.026
286 1 14.8408 6.15357 102.659
287 1 9.69983 6.60733 95.6964
288 2 17.1197 4.4737 102.449
289 1 16.7579 6.48566 100.636
290 1 5.26856 5.3855 98.796
291 1 4.53069 5.82683 101.358
292 1 17.5451 6.05236 98.1783
293 1 17.0535 6.33296 93.6063
294 1 17.6855 6.01334 90.8895
295 1 15.02 5.88569 91.5608
296 2 15.9752 5.49 88.8482
297 1 5.92707 3.94943 93.5659
298 1 3.74117 5.10198 94.9249
299 1 3.0876 3.87423 92.6286
300 1 5.04697 4.58335 90.7379
301 2 4.3671 6.08374 92.7356
302 1 9.88807 5.76599 101.659
303 1 7.13924 5.8218 96.6953
304 1 7.34014 5.78041 100.694
305 1 8.94266 6.5446 98.5874
306 2 8.20498 5.31619 94.2666
307 1 6.93225 6.00863 91.9156
308 1 2.91194 4.10436 88.7695
309 2 6.47323 6.28818 89.3582
310 1 10.0588 5.94897 92.7358
311 2 11.8532 6.07544 90.8373
312 1 5.49018 4.56933 87.6839
313 1 3.39264 1.2385 87.8406
314 1 13.2127 0.584237 86.9467
315 2 16.6413 6.37999 84.6247
316 1 18.3192 6.44333 82.6893
317 1 6.13809 1.92779 82.8541
318 1 6.14489 6.35669 83.5702
319 2 0.85645 0.368376 81.2903
320 1 3.65602 5.93292 77.012
321 1 5.53185 6.53289 74.9921
322 1 5.71498 6.61347 78.7714
323 1 18.0906 6.47654 74.0811
324 1 3.97981 1.37045 84.8297
325 2 8.7357 6.58351 82.8166
326 1 10.7048 6.54685 84.8169
327 1 2.99363 1.7391 82.0051
328 1 5.20356 0.813973 80.5781
329 1 2.43909 1.09293 72.5269
330 1 13.4571 6.77913 84.2041
331 2 13.6469 6.19446 81.3157
332 1 11.3663 6.15577 82.2228
333 1 7.73445 0.789039 79.6797
334 2 5.55557 1.64953 78.3708
335 1 3.79046 0.409785 76.8029
336 1 8.35567 6.63231 74.3428
337 1 10.6742 6.24715 77.5122
338 1 11.3649 6.00336 74.989
339 1 6.111 1.89128 86.7091
340 1 16.4255 2.44557 79.8235
341 2 8.51385 0.616602 86.8268
342 2 10.1077 3.9109 86.248
343 1 8.21904 2.36257 84.7715
344 1 11.7609 1.40496 82.8063
345 1 11.2607 1.83652 85.3713
346 1 10.6748 3.73459 83.6444
347 1 8.69929 2.05065 81.8495
348 1 8.24934 2.43096 77.6146
349 1 8.94548 1.87816 75.0278
350 1 6.15512 1.74582 75.6182
351 2 7.26609 1.30572 73.0657
352 1 14.7462 3.00201 87.0408
353 1 13.2509 3.85758 82.8958
354 1 12.6575 4.48671 85.6397
355 2 11.4133 3.2702 80.9952
356 1 10.369 3.84968 78.736
357 1 16.8466 4.61376 86.5558
358 1 2.51054 4.01855 84.0405
359 1 16.3922 6.4318 77.6915
360 1 10.3293 1.05426 79.2998
361 1 12.5741 2.36162 78.8363
362 1 13.6265 6.39486 76.6323
363 1 11.4869 0.486847 74.8057
364 2 10.8263 1.95348 76.8999
365 1 1.5698 1.80272 85.6757
366 1 15.577 5.34379 82.5964
367 2 15.1555 4.13246 84.7161
368 1 13.9052 2.01919 80.976
369 1 13.979 1.79566 84.557
370 1 15.8046 2.40376 82.7742
371 2 14.6554 1.25974 78.4672
372 1 13.5502 1.9151 76.2141
373 1 14.7384 3.86044 77.7656
374 1 12.8067 5.14429 79.1486
375 1 13.4357 6.35042 72.9742
376 1 11.2484 3.36263 74.8547
377 2 13.1689 2.21608 73.5953
378 1 13.9293 4.44818 74.8038
379 2 12.1865 4.26688 76.9466
380 1 11.2991 3.36371 72.1401
381 1 3.83664 3.19037 79.6492
382 1 1.30809 1.92387 76.9178
383 1 2.67872 3.76071 73.012
384 1 15.6958 2.55593 74.098
385 2 2.91558 2.08125 74.8999
386 1 11.9541 0.652376 72.0001
387 1 14.7276 5.92061 86.5266
388 1 3.95222 5.95458 85.6167
389 2 3.58876 3.33642 86.3682
390 2 17.4613 4.23683 81.3964
391 1 15.582 5.25656 80.0149
392 1 8.29409 5.04786 87.5826
393 1 5.60869 3.97321 84.8678
394 2 7.21232 4.05469 82.7188
395 1 4.74153 4.43893 82.0634
396 1 6.56505 3.25436 80.0909
397 1 18.3441 5.87224 79.781
398 1 6.95319 5.89358 80.936
399 2 4.30954 4.36778 75.0064
400 1 16.9723 4.29207 75.7525
401 1 3.92297 3.08097 76.9932
402 1 4.93724 5.19859 72.7132
403 1 8.36593 5.00311 84.7972
404 2 6.47062 6.29126 86.2627
405 2 17.2878 4.23811 78.3133
406 2 15.9038 5.04599 73.3372
407 1 9.35376 4.6444 81.1368
408 1 6.31402 4.49778 76.9845
409 1 6.94117 4.05023 74.4052
410 2 9.36922 4.22789 73.5442
411 1 7.43113 5.35717 71.978
412 2 8.16137 5.38711 78.8369
413 1 8.97788 4.6317 76.2156
414 1 4.89591 2.36846 73.1227
415 2 5.37828 6.46913 70.3697
416 1 5.96614 6.37596 67.6326
417 1 9.96982 5.73407 71.4358
418 1 8.71413 6.62302 66.9751
419 1 3.94853 0.317361 69.6861
420 2 6.84347 5.83504 64.9709
421 1 1.67097 -0.0145804 62.7969
422 1 8.1957 0.419075 70.8646
423 1 9.47027 -0.259788 68.1761
424 1 8.04095 5.36729 62.8453
425 1 7.07443 1.26513 66.8257
426 2 10.5891 6.60271 68.9757
427 1 6.35639 -0.0123443 61.7897
428 1 4.35578 1.28683 63.3447
429 1 6.67041 6.08133 58.9151
430 1 5.27311 0.54713 58.8302
431 2 3.68914 0.45539 60.9918
432 1 6.77334 5.94935 56.1965
433 1 14.5252 5.51595 63.8485
434 1 13.5031 6.6699 57.1998
435 1 11.2457 5.36797 58.1877
436 1 14.2655 3.75506 71.9426
437 1 5.99032 1.7831 70.726
438 1 10.6825 1.9786 69.8132
439 1 8.63883 3.09261 71.2062
440 2 14.3783 5.91607 70.556
441 2 8.01485 2.20486 69.0042
442 1 9.79389 2.38984 67.0462
443 2 8.91013 0.210007 65.5349
444 1 7.13068 1.56005 64.1983
445 1 15.0204 0.977623 71.8598
446 1 12.3406 0.0299993 69.0054
447 1 16.7612 4.51721 67.0354
448 2 13.9723 0.0404306 66.9892
449 1 12.802 2.42456 67.8221
450 1 11.382 0.491078 66.1682
451 1 17.3582 5.90591 64.6335
452 1 9.91385 1.86995 63.8631
453 1 13.662 1.80765 65.2848
454 2 11.5359 3.15267 65.3477
455 1 10.4965 2.13884 60.9954
456 2 11.1323 0.684491 59.181
457 1 12.5148 2.74447 59.0245
458 1 8.4896 0.591696 59.7005
459 1 14.7472 5.8776 61.1813
460 1 12.5918 2.86564 62.9915
461 1 9.71046 2.64805 58.1758
462 1 11.8443 1.52751 56.5769
463 1 14.9765 1.07811 69.1249
464 2 13.1843 2.21763 70.3607
465 1 14.8395 3.83297 68.963
466 2 15.3409 2.505 66.9867
467 1 2.0612 2.44429 68.8041
468 1 13.8647 4.48008 66.2122
469 1 15.8858 3.26279 64.654
470 2 8.88348 0.215046 62.3991
471 2 7.30569 1.25691 57.3296
472 1 13.3893 4.05019 56.6206
473 1 4.85513 2.71206 68.1803
474 1 0.657515 0.515278 65.3334
475 1 13.2152 0.593611 61.0954
476 1 13.7372 0.273451 58.3246
477 2 0.839473 0.273712 57.5604
478 1 14.3797 1.71198 56.0353
479 2 5.41249 2.50609 65.488
480 1 2.82676 2.11302 66.2591
481 1 3.26035 3.63357 64.0662
482 2 14.8624 1.44972 62.9561
483 1 0.545691 0.913325 60.3303
484 2 16.4556 4.58059 62.5353
485 1 14.5913 3.34171 60.8502
486 1 15.3187 2.73526 58.3032
487 1 2.22615 2.50494 61.6357
488 1 2.96347 2.13946 58.816
489 1 15.7212 5.35845 57.3975
490 1 16.8374 4.81069 70.8013
491 1 11.6023 5.47974 64.0326
492 2 3.78819 3.23436 70.9138
493 1 3.62213 5.11363 68.8259
494 1 7.30904 3.99493 66.9732
495 1 6.45321 4.36015 69.4899
496 1 4.27386 4.72329 66.211
497 1 3.53596 5.08838 61.8688
498 1 4.44917 4.87279 59.169
499 1 17.0697 4.56259 59.6868
500 2 2.70272 4.11018 57.0628
501 1 7.79427 2.6212 61.7295
502 1 5.836 3.82772 63.1735
503 1 5.0264 2.61951 60.9089
504 1 7.10424 3.38898 58.9537
505 2 6.30365 4.74591 60.9669
506 1 12.2521 4.54579 69.9145
507 1 9.17276 4.41145 65.1496
508 1 9.37724 4.37358 68.9132
509 1 11.2798 5.09736 66.9267
510 2 10.0883 4.06202 62.6374
511 1 9.15318 4.74161 60.2036
512 1 5.21697 2.81083 56.9612
513 2 8.71422 5.03163 57.542
514 1 12.1742 4.70662 61.1339
515 2 13.8745 4.86507 58.9307
516 1 7.8749 3.21748 55.9383
517 1 5.54362 0.0444215 56.0233
518 1 3.79427 5.93718 55.3022
519 2 3.42027 5.10221 53.0042
520 1 5.15886 5.11883 50.957
521 1 8.11844 0.679597 51.0945
522 1 8.16226 5.02106 51.7983
523 2 7.11606 5.70709 49.3287
524 1 6.05667 4.74088 45.2061
525 1 8.14179 5.47234 43.1898
526 1 8.17817 5.38397 46.8906
527 1 5.23544 5.56752 42.3194
528 1 6.25133 0.0839342 53.1011
529 2 10.8923 5.16559 51.1848
530 1 12.856 5.33274 52.9034
531 1 5.23566 0.440894 50.2809
532 1 11.4977 5.77557 48.8795
533 1 8.94558 6.83936 40.7716
534 1 15.569 5.43962 52.515
535 2 15.9379 5.02736 49.6918
536 1 13.519 4.79608 50.4962
537 1 14.0435 6.18362 48.2098
538 2 8.02311 0.485625 46.6056
539 1 10.2019 5.78322 45.1181
540 1 10.9633 5.44018 42.5897
541 1 13.0171 5.1184 45.7574
542 1 13.9559 4.76656 43.2724
543 1 8.12929 0.465113 55.0479
544 1 3.11321 1.37203 48.2584
545 2 14.487 5.75626 54.9403
546 2 12.4117 2.95914 54.4245
547 1 10.3011 1.07585 53.0409
548 1 13.9348 0.00720246 51.2174
549 1 13.1501 0.476019 53.8131
550 1 12.8312 2.39597 51.8213
551 1 10.8564 0.611992 50.5736
552 1 10.5638 1.10009 45.8227
553 1 11.3102 0.610145 43.2928
554 1 8.48253 0.594853 43.9731
555 2 9.5124 -0.0199174 41.1952
556 1 1.5951 1.8356 55.3731
557 1 15.4428 2.55713 51.0807
558 1 14.7928 2.89707 53.5979
559 2 13.6215 1.83078 49.1397
560 1 12.7201 2.69941 46.8226
561 1 3.79425 3.3557 54.7943
562 1 4.85716 2.68905 52.2246
563 1 3.51375 5.34975 46.1242
564 1 16.4482 6.56566 47.5144
565 1 14.9407 1.37264 46.9647
566 1 15.7612 5.3798 45.1602
567 1 17.8855 5.75182 43.2258
568 2 13.2751 0.697319 45.1791
569 1 3.69067 0.589994 53.8849
570 1 2.47045 4.0934 51.0043
571 2 2.15842 2.56377 53.0561
572 1 0.655222 0.413341 49.1515
573 1 0.719745 0.508034 53.1117
574 1 2.65481 1.21571 51.0121
575 2 1.66874 0.0627982 46.7557
576 1 0.555715 0.768189 44.3812
577 1 1.90863 2.85968 46.0315
578 1 15.1352 4.04924 47.4366
579 1 15.8943 5.42782 41.3833
580 1 13.5999 2.16071 43.0538
581 2 15.4396 1.27393 41.7828
582 1 16.4262 3.29745 43.2281
583 2 14.5671 3.06577 45.173
584 1 14.5095 3.23452 40.7952
585 1 5.98448 1.5107 47.7953
586 1 3.65271 0.923728 45.171
587 1 4.88395 2.95351 41.1255
588 1 2.72145 1.18439 42.0381
589 2 5.28062 0.986936 43.0988
590 1 13.0058 1.03591 40.7993
591 1 16.7798 4.50262 54.7083
592 1 6.21902 4.55668 53.9293
593 2 5.94084 2.03806 54.5823
594 2 4.46022 2.79732 49.7822
595 1 2.52502 4.14689 48.445
596 1 10.6545 4.0428 55.819
597 1 7.89246 2.65709 53.0435
598 2 9.32766 2.73341 51.0456
599 1 6.8371 3.05135 50.2578
600 1 8.84402 1.82417 48.6396
601 1 5.48286 4.42461 48.1314
602 1 9.14622 4.4848 49.2467
603 2 6.67537 3.36294 42.9373
604 1 4.00376 3.3476 43.6112
605 1 6.15888 1.94734 45.0814
606 1 7.47966 4.23898 40.6723
607 1 10.5312 3.73955 53.1717
608 2 8.68079 4.96274 54.5066
609 2 4.29454 2.93379 46.5558
610 2 2.53825 3.92489 41.1963
611 1 11.3589 3.04014 49.4705
612 1 8.56439 3.29963 45.0832
613 1 9.48659 2.93807 42.4028
614 2 12.0388 3.27456 41.7719
615 1 10.4968 4.35361 40.4033
616 2 10.6072 4.03063 47.1613
617 1 11.3539 3.3515 44.5473
618 1 7.3117 1.39656 41.538
ITEM: TIMESTEP
800
ITEM: NUMBER OF ATOMS
618
ITEM: BOX BOUNDS xy xz yz pp pp ff
0.0000000000000000e+00 1.9317770367296919e+01 4.0025167278329121e+00
0.0000000000000000e+00 6.6702723500479264e+00 0.0000000000000000e+00
0.0000000000000000e+00 1.0921147561319708e+02 0.0000000000000000e+00
ITEM: ATOMS id type x y z
1 1 4.72315 6.13345 5.86357
2 1 6.29576 6.46588 8.57214
3 1 4.4916 5.99135 12.9441
4 1 5.64834 0.443064 5.9844
5 1 3.94961 0.26078 10.8957
6 1 6.1616 6.54663 15.4398
7 1 4.59229 6.44588 20.0537
8 1 12.4407 6.15649 6.06574
9 1 7.31209 0.732452 8.46724
10 1 5.63137 0.383737 13.167
11 1 3.75705 0.325531 17.7316
12 1 6.18988 6.56316 22.4467
13 1 4.61033 6.37381 27.1881
14 1 10.7038 1.34418 5.9569
15 1 14.0399 6.45874 8.53486
16 1 8.81038 1.06601 10.9169
17 1 12.1444 5.9356 13.1267
18 1 6.92918 0.708385 15.4075
19 1 5.60667 0.656041 20.1861
20 1 3.91392 0.255675 24.7411
21 1 6.29283 6.69571 29.3341
22 1 4.50654 6.13966 34.0906
23 1 13.34 0.388254 5.7056
24 1 12.9163 3.38356 5.90593
25 1 12.2707 1.74671 8.43381
26 1 11.6335 0.120915 10.7999
27 1 10.9666 3.06616 10.8113
28 1 10.4448 1.19409 13.0823
29 1 13.7128 6.61123 15.4542
30 1 8.73242 1.1027 17.8481
31 1 12.3444 6.35895 20.2577
32 1 7.3651 0.78867 22.6165
33 1 5.48387 0.590905 27.0481
34 1 3.8244 0.0407517 31.6545
35 1 5.98025 6.50722 36.3541
36 1 15.6291 2.33144 5.8748
37 1 14.8845 0.952695 8.31004
38 1 14.4759 3.73915 8.45043
39 1 13.7605 2.11629 10.7631
40 1 13.122 0.378206 13.0952
41 1 12.5824 3.21237 13.0491
42 1 12.1461 1.78319 15.3001
43 1 11.4402 0.505723 17.6781
44 1 11.0409 3.08128 17.7535
45 1 10.4778 1.49151 20.0236
46 1 13.9885 6.58375 22.5139
47 1 8.83852 1.15362 24.7924
48 1 12.4306 6.30441 27.0666
49 1 7.14334 0.986535 29.421
50 1 5.45646 0.263946 33.9999
51 1 7.51283 6.69687 38.5774
52 1 2.91384 1.39734 5.90798
53 1 17.8804 4.18051 5.91652
54 1 17.2119 2.57788 8.39521
55 1 1.31813 0.89658 10.8638
56 1 16.1319 3.96052 10.8392
57 1 15.4371 2.24698 13.1155
58 1 14.7415 0.797654 15.4099
59 1 14.334 3.77341 15.3838
60 1 13.7484 2.15686 17.5915
61 1 13.1751 0.651099 20.0856
62 1 12.6576 3.49131 19.8805
63 1 12.1212 1.84203 22.3904
64 1 11.5094 0.0987174 24.8266
65 1 10.9525 3.01731 24.7941
66 1 10.5187 1.49621 27.0442
67 1 13.6044 6.57658 29.4079
68 1 8.68523 1.03437 31.7202
69 1 12.1656 6.23842 34.0321
70 1 6.89127 0.718192 36.2762
71 1 5.19145 3.18966 5.64904
72 1 4.54074 1.89964 8.31667
73 1 4.17243 4.63666 8.42492
74 1 3.58948 2.9984 10.704
75 1 2.80958 1.41943 13.1173
76 1 17.4617 4.41689 13.0713
77 1 17.0934 2.87563 15.3539
78 1 1.13605 1.25661 17.5994
79 1 16.0107 4.09954 17.7975
80 1 15.513 2.55692 19.9981
81 1 14.8159 1.00803 22.2728
82 1 14.4004 3.73733 22.348
83 1 13.6673 2.21542 24.7838
84 1 13.1714 0.509478 27.0651
85 1 12.7047 3.29681 27.2079
86 1 12.0442 1.76198 29.3621
87 1 11.4884 0.203348 31.6939
88 1 10.97 2.99936 31.5885
89 1 10.3506 1.31878 33.9244
90 1 13.5626 6.26066 36.4963
91 1 8.58156 0.982294 38.6989
92 1 7.83238 2.47177 5.8773
93 1 7.33737 5.24734 5.90573
94 1 6.74935 3.56624 8.35814
95 1 6.22449 2.16641 10.7994
96 1 5.68961 4.85428 10.773
97 1 5.04115 3.29825 13.1316
98 1 4.47456 1.76535 15.5095
99 1 4.0065 4.6486 15.5315
100 1 3.46961 2.97246 17.9749
101 1 2.88025 1.589 19.9919
102 1 17.9558 4.51968 20.0885
103 1 17.0858 2.63868 22.5725
104 1 1.17847 1.28024 24.7157
105 1 15.9768 4.08287 24.8835
106 1 15.3842 2.53983 27.1883
107 1 14.7567 0.84834 29.3882
108 1 14.2712 3.73699 29.4415
109 1 13.6745 1.99977 31.7341
110 1 13.0109 0.402492 33.9973
111 1 12.5661 3.16899 33.9176
112 1 11.8164 1.46558 36.4349
113 1 15.09 6.57555 38.963
114 1 10.7556 2.75736 38.2952
115 1 10.2602 4.16639 6.0699
116 1 9.50808 2.57278 8.41998
117 1 9.10819 5.4763 8.30562
118 1 8.37245 4.1333 10.8434
119 1 7.85063 2.28295 13.0808
120 1 7.1281 5.18612 13.2013
121 1 6.68265 3.63461 15.4718
122 1 6.17635 2.00546 17.8752
123 1 5.52457 4.9988 17.8
124 1 5.22545 3.48586 19.9912
125 1 4.55676 1.73075 22.4092
126 1 4.07597 4.78948 22.4194
127 1 3.50172 3.294 24.7811
128 1 2.68896 1.51348 26.9396
129 1 17.7081 4.3103 27.1233
130 1 16.8886 2.74961 29.3774
131 1 1.27947 1.20174 31.7012
132 1 15.688 3.94755 31.733
133 1 15.3983 2.35836 33.9443
134 1 14.558 0.643015 36.3422
135 1 14.2881 3.51228 36.1392
136 1 13.5149 2.12431 38.6146
137 1 11.8634 4.61217 8.46648
138 1 10.5259 5.90376 10.7437
139 1 9.83858 4.20974 13.1562
140 1 9.355 2.699 15.5014
141 1 8.85998 5.60445 15.4263
142 1 8.18033 4.17219 17.8302
143 1 7.69024 2.49426 20.2406
144 1 7.23681 5.306 20.1649
145 1 6.78515 3.65668 22.4639
146 1 6.20974 2.1833 24.8081
147 1 5.73221 5.01455 24.7579
148 1 5.02444 3.54323 27.1807
149 1 4.40137 1.99345 29.275
150 1 3.8242 4.74948 29.4168
151 1 3.26805 3.10719 31.5749
152 1 2.80803 1.25022 33.8433
153 1 17.3935 4.23142 33.9086
154 1 1.59946 2.78139 36.4109
155 1 0.728662 0.998489 38.6738
156 1 15.9817 3.81453 38.9564
157 1 15.151 5.1942 6.00723
158 1 13.3029 4.85604 10.9878
159 1 11.6483 4.58307 15.3979
160 1 10.5211 5.87223 17.8523
161 1 9.96991 4.44141 19.9818
162 1 9.52858 2.8287 22.4013
163 1 8.96749 5.61277 22.3599
164 1 8.38967 4.06702 24.7328
165 1 7.69216 2.49266 27.1933
166 1 7.30934 5.2923 27.0093
167 1 6.65256 3.72319 29.4021
168 1 6.1006 1.97706 31.6834
169 1 5.50409 4.9449 31.8093
170 1 4.75241 3.36315 34.0762
171 1 4.22296 1.58689 36.1593
172 1 3.64227 4.58985 36.6584
173 1 3.32581 2.815 38.9197
174 1 16.7061 5.45117 8.35543
175 1 14.7987 5.18926 13.0936
176 1 13.3406 5.06669 17.7476
177 1 11.7693 4.66886 22.4222
178 1 10.5882 5.91575 24.6651
179 1 9.76176 4.39392 27.0658
180 1 9.30892 2.89159 29.4002
181 1 8.87 5.72614 29.2703
182 1 8.2626 3.77599 31.6877
183 1 7.49477 2.43131 33.98
184 1 7.18975 5.18499 33.9801
185 1 6.39943 3.48181 36.2841
186 1 5.85858 1.8014 38.762
187 1 5.51712 4.69616 38.8234
188 1 18.3434 5.87626 10.4535
189 1 16.5238 5.48813 15.4883
190 1 14.9253 5.31468 20.0785
191 1 13.2033 4.93374 24.8162
192 1 11.4525 4.79833 29.3814
193 1 10.5571 5.86804 31.6839
194 1 10.0761 4.13013 33.9695
195 1 9.1326 2.50936 36.1084
196 1 8.64902 5.38593 36.1206
197 1 8.12106 3.61078 38.3809
198 1 18.2145 6.05869 17.7906
199 1 16.6346 5.61304 22.3947
200 1 14.8724 5.25612 27.324
201 1 13.2327 5.08436 31.7425
202 1 11.3952 4.51059 36.3288
203 1 10.3213 5.75324 38.4038
204 1 18.269 6.06952 24.7185
205 1 16.3686 5.70097 29.4764
206 1 14.5451 5.21922 34.1939
207 1 12.8388 4.69027 39.0499
208 1 18.274 6.04509 31.7255
209 1 16.4388 5.46572 36.4642
210 1 18.0123 5.59706 39.1633
211 2 14.5689 1.46211 102.222
212 1 15.1114 1.05694 99.4637
213 1 3.98155 0.449339 103.002
214 1 2.60213 1.14385 98.7887
215 1 1.67742 1.57141 101.409
216 2 0.84769 0.419488 96.9807
217 1 15.0786 1.30507 94.4474
218 1 6.24828 1.7694 102.763
219 1 7.12515 1.26629 100.125
220 1 6.14071 6.60411 94.7065
221 1 4.87676 2.6927 98.7034
222 2 4.48416 1.22506 100.726
223 1 4.36368 1.37742 93.7199
224 1 2.518 2.60769 95.2127
225 1 0.605092 0.7028 90.7116
226 1 3.17319 1.93149 90.6494
227 2 1.83436 1.68827 92.828
228 1 0.628006 0.68018 87.9603
229 1 8.46237 0.347445 95.5913
230 1 7.34179 1.38492 89.0835
231 1 9.06614 6.66425 89.936
232 1 12.1092 5.14876 103.556
233 1 3.84953 3.09196 102.481
234 1 8.58538 3.18381 101.863
235 1 6.31295 4.54994 103.36
236 2 8.43191 0.591166 102.48
237 2 5.92991 3.60398 100.948
238 1 7.4964 3.7108 98.9868
239 2 6.89256 1.62532 97.4668
240 1 5.19428 2.93661 96.0521
241 1 12.7034 2.16549 103.435
242 1 10.3241 1.18715 100.736
243 1 14.7271 5.93607 98.6923
244 2 11.9028 1.49907 98.701
245 1 10.6004 3.72543 99.6207
246 1 9.30386 1.85263 98.0631
247 1 11.3021 0.63106 96.2668
248 1 8.11806 3.15704 95.5214
249 1 11.6182 3.21316 96.96
250 2 9.46092 4.58634 97.1238
251 1 8.51829 3.32042 92.9767
252 2 9.16141 1.81254 90.9569
253 1 10.3323 4.05507 91.1017
254 1 6.40252 1.78224 91.6236
255 1 8.79724 0.53753 92.9518
256 1 10.6232 4.20229 94.7963
257 1 7.46414 3.99003 90.128
258 1 9.59699 2.73425 88.7524
259 1 12.8797 2.46613 100.759
260 2 11.0288 3.25115 102.136
261 1 12.8545 5.3741 100.722
262 2 13.3396 3.77255 98.8403
263 1 15.2173 3.78267 100.667
264 1 11.8358 5.92856 98.0948
265 1 13.8292 4.62987 96.4418
266 2 6.77193 1.76769 94.1254
267 2 5.14968 2.58974 89.2446
268 1 11.0672 5.32102 88.3602
269 1 2.60982 4.01608 99.9667
270 1 14.0173 1.85912 97.0221
271 1 11.1838 1.98941 92.9602
272 1 11.7493 1.45204 90.2987
273 2 14.0753 1.59461 89.263
274 1 11.9891 2.80343 87.8335
275 2 3.20331 4.03231 97.3548
276 1 16.0709 3.44427 97.9636
277 1 16.4462 4.98368 95.7455
278 2 12.874 2.73 94.679
279 1 13.8504 2.12014 92.0345
280 2 14.3468 5.8857 94.2504
281 1 12.5727 4.54046 92.6658
282 1 13.1547 4.03672 90.0761
283 1 15.5892 3.8511 93.503
284 1 16.1481 3.4192 90.784
285 1 13.504 6.66569 89.148
286 1 14.8117 5.79346 102.762
287 1 9.54888 6.77175 95.9375
288 2 17.1672 4.67469 102.489
289 1 16.7328 6.47918 100.625
290 1 4.86949 5.32372 99.1655
291 1 4.2411 5.80533 101.805
292 1 17.325 6.00373 98.079
293 1 17.0402 6.4507 93.5466
294 1 17.6613 6.02385 90.9478
295 1 14.9513 5.94078 91.4676
296 2 15.8721 5.37744 88.9514
297 1 5.91635 4.00348 93.6363
298 1 3.74892 5.20501 95.0544
299 1 3.05502 3.83418 92.7038
300 1 4.97394 4.62718 90.7572
301 2 4.43189 5.95359 92.76
302 1 9.94062 5.63232 101.72
303 1 6.95638 5.49944 97.1406
304 1 7.05671 5.86176 100.776
305 1 9.1797 6.42352 98.8038
306 2 8.22756 5.30519 94.262
307 1 6.98675 6.03897 91.9692
308 1 2.96359 4.03313 88.8608
309 2 6.55674 6.24758 89.3858
310 1 10.268 6.15936 93.0827
311 2 11.4645 6.28115 90.8375
312 1 5.58055 4.62369 87.8438
313 1 3.53768 1.24547 87.7952
314 1 13.2658 0.554462 87.1213
315 2 16.6967 6.27429 84.9244
316 1 18.2042 6.46789 82.8507
317 1 5.87874 2.12174 82.7585
318 1 5.86595 6.5072 83.5705
319 2 0.696514 0.563466 81.2688
320 1 3.79256 5.9368 77.1443
321 1 5.6656 6.43594 75.1405
322 1 5.68458 6.79436 78.8501
323 1 18.1375 6.53661 74.0622
324 1 4.06108 1.31364 84.9594
325 2 8.63559 6.55069 83.0514
326 1 10.6056 6.74624 84.8563
327 1 3.06762 1.8087 82.0985
328 1 5.08236 0.634066 80.6639
329 1 2.33452 1.1587 72.6419
330 1 13.2104 6.68896 84.0436
331 2 13.5182 6.2244 81.4795
332 1 11.1356 6.16128 82.261
333 1 7.59151 0.829594 79.9424
334 2 5.59442 1.83921 78.4329
335 1 3.79526 0.314457 76.6811
336 1 8.54636 6.64565 74.2086
337 1 10.5584 6.25016 77.597
338 1 11.4185 5.96705 75.0303
339 1 6.28821 2.07236 86.7578
340 1 16.3417 2.5887 79.8919
341 2 8.53686 0.821268 86.6972
342 2 9.95253 3.97587 86.2436
343 1 8.13445 2.45678 84.7518
344 1 11.8115 1.51309 83.041
345 1 10.8599 1.71732 85.4944
346 1 10.6352 3.92143 83.5975
347 1 8.82883 2.1095 82.0521
348 1 8.21891 2.04599 77.6951
349 1 8.85137 1.85216 75.028
350 1 6.06688 1.68671 75.72
351 2 7.17728 1.30338 73.0353
352 1 14.6465 3.20334 87.3349
353 1 13.2603 3.82529 83.084
354 1 12.4958 4.43464 85.6668
355 2 11.5559 3.38831 80.9579
356 1 10.2558 3.67789 78.5449
357 1 16.919 4.48285 86.7058
358 1 2.54718 4.04658 84.1676
359 1 16.4682 6.49528 77.8975
360 1 10.332 1.0366 79.4378
361 1 12.6515 2.43076 78.7893
362 1 13.511 6.45787 76.908
363 1 11.3698 0.374354 74.8755
364 2 10.8694 1.84849 76.942
365 1 1.56423 1.96564 85.7012
366 1 15.4892 5.47519 82.9073
367 2 15.2426 3.91827 84.9727
368 1 13.8625 1.96253 81.1023
369 1 13.915 1.82113 84.771
370 1 15.8117 2.59354 82.7913
371 2 14.7103 1.23262 78.6409
372 1 13.497 1.84841 76.1606
373 1 14.7406 3.99693 77.7297
374 1 12.5341 5.14191 79.3091
375 1 13.3819 6.43862 73.0523
376 1 11.196 3.30446 74.9056
377 2 13.1676 2.21103 73.6037
378 1 13.8431 4.51741 74.9479
379 2 12.2436 4.22307 76.9976
380 1 11.4074 3.32956 72.2065
381 1 3.96141 2.88219 79.6941
382 1 1.35285 1.94879 76.9705
383 1 2.63105 3.79847 73.1992
384 1 15.6507 2.49383 74.1215
385 2 2.81542 2.05397 74.926
386 1 12.2 0.468463 71.9706
387 1 14.6389 5.94364 86.5529
388 1 3.95721 5.98198 85.7475
389 2 3.87983 3.32927 86.4024
390 2 17.4077 4.22938 81.5658
391 1 15.5442 5.24318 80.1464
392 1 8.25767 5.10398 87.6873
393 1 5.63986 4.10032 84.7877
394 2 7.26597 4.19276 82.8434
395 1 4.59648 4.71243 81.9407
396 1 6.76123 3.30333 80.4176
397 1 18.3688 5.76561 79.8798
398 1 6.89222 5.87916 81.0661
399 2 4.30006 4.42327 75.014
400 1 16.9429 4.47659 75.7004
401 1 3.94279 3.05968 76.945
402 1 4.87108 5.34012 72.6598
403 1 8.36162 5.1147 84.8651
404 2 6.38672 6.30701 86.1159
405 2 17.3773 4.14064 78.2943
406 2 15.7737 5.06819 73.3623
407 1 9.26026 4.57853 81.0482
408 1 6.28147 4.43051 76.9424
409 1 7.01589 3.95231 74.2501
410 2 9.39364 4.06715 73.4132
411 1 7.45715 5.37263 72.0378
412 2 8.13707 5.3871 78.7856
413 1 8.96716 4.53041 76.1701
414 1 4.92494 2.53088 73.2217
415 2 5.38548 6.50329 70.4352
416 1 5.88031 6.34704 67.7494
417 1 10.1207 5.90517 71.5318
418 1 8.6946 6.286 67.0174
419 1 3.95705 0.34298 69.837
420 2 6.74582 5.82116 65.1177
421 1 1.94919 0.0677492 62.5947
422 1 8.33554 0.546471 70.8534
423 1 9.13984 0.0920371 68.3667
424 1 8.17254 5.36066 62.8593
425 1 6.83787 1.24684 66.9028
426 2 10.6312 6.58497 68.9701
427 1 6.37681 0.0382458 61.8965
428 1 4.44773 1.34492 63.3658
429 1 6.73388 6.16252 58.8822
430 1 5.4484 0.501588 58.9963
431 2 3.98096 0.38033 60.9079
432 1 6.69966 5.76433 56.3285
433 1 14.5198 5.60906 63.8573
434 1 13.411 6.65499 57.2788
435 1 11.1086 5.27882 58.1453
436 1 14.0865 3.76075 71.9284
437 1 6.04776 1.878 70.7254
438 1 10.7091 1.9068 69.8411
439 1 8.75819 3.2791 71.1806
440 2 14.5496 5.84504 70.6649
441 2 8.09769 2.36177 68.8483
442 1 9.57222 2.41889 66.8041
443 2 8.87804 0.183476 65.6211
444 1 7.21621 1.6839 64.3054
445 1 14.9659 1.02095 71.6446
446 1 12.4308 -0.129317 69.1453
447 1 16.475 4.66516 67.0343
448 2 13.8825 0.118222 66.9348
449 1 12.7331 2.3557 67.7228
450 1 11.3372 0.519305 66.2075
451 1 17.2424 5.8838 64.6422
452 1 10.1178 1.69459 63.8546
453 1 13.7259 1.80727 65.1781
454 2 11.5804 3.09962 65.4081
455 1 10.5369 1.9817 61.0796
456 2 11.165 0.618824 58.9162
457 1 12.331 2.87102 59.2185
458 1 8.6621 0.681754 59.8121
459 1 14.7055 5.83759 61.1489
460 1 12.7553 2.96759 62.8974
461 1 9.64231 2.62691 58.2198
462 1 11.7334 1.55144 56.6504
463 1 15.1125 1.05358 69.025
464 2 13.141 2.18574 70.3024
465 1 14.7837 3.84011 69.0568
466 2 15.5049 2.35305 67.0312
467 1 2.03859 2.50003 68.9277
468 1 13.7255 4.47575 66.2527
469 1 15.9003 3.37904 64.7013
470 2 8.78642 0.370857 62.4614
471 2 7.31663 1.16494 57.4218
472 1 13.2119 3.94347 56.9474
473 1 4.75893 2.50169 68.212
474 1 0.698278 0.329635 65.2067
475 1 13.0767 0.667043 61.0212
476 1 13.7155 0.397478 58.4381
477 2 0.926976 0.43435 57.7022
478 1 14.3525 1.64616 56.1313
479 2 5.23492 2.60091 65.4732
480 1 2.71976 1.84102 66.2222
481 1 3.26027 3.61402 63.9725
482 2 15.0253 1.29632 62.8594
483 1 0.502028 0.693507 60.2968
484 2 16.3957 4.57268 62.5049
485 1 14.6102 3.20642 60.8343
486 1 15.374 2.94661 58.4132
487 1 2.29726 2.56948 61.6399
488 1 2.88365 2.12621 59.0176
489 1 15.7063 5.43414 57.4396
490 1 16.7936 4.3703 70.9555
491 1 11.6447 5.43959 64.0855
492 2 4.06157 3.26117 70.8673
493 1 3.53441 4.96684 68.9024
494 1 6.95791 3.8576 66.9891
495 1 6.55466 4.43228 69.6103
496 1 3.95232 4.60495 66.3096
497 1 3.73842 5.15009 61.752
498 1 4.5717 4.65262 59.0721
499 1 17.1112 4.67915 59.8679
500 2 2.75855 4.27797 57.1222
501 1 8.04361 2.70846 61.9451
502 1 5.8295 3.88482 63.186
503 1 5.20551 2.50017 60.91
504 1 7.14111 3.27552 58.9413
505 2 6.51013 4.74485 60.9724
506 1 12.1467 4.45895 69.8217
507 1 9.01422 4.20904 64.9111
508 1 9.45013 4.42874 68.8752
509 1 11.1813 5.17628 66.7772
510 2 10.2716 4.00053 62.6554
511 1 9.15756 4.82879 60.2879
512 1 5.02241 2.66153 57.2074
513 2 8.61811 4.9237 57.6259
514 1 12.1124 4.81478 61.1551
515 2 13.7145 4.97355 59.1931
516 1 7.69041 3.16108 56.0755
517 1 5.36268 -0.104805 56.0999
518 1 3.93774 5.91702 55.2524
519 2 3.54599 4.9065 53.0474
520 1 4.91765 5.00127 50.9214
521 1 8.05863 0.679142 51.3166
522 1 8.13976 5.03259 51.6873
523 2 6.93379 5.86829 49.4357
524 1 6.068 4.67747 45.1825
525 1 8.03108 5.38862 43.1578
526 1 8.06297 5.46001 46.9574
527 1 5.36949 5.42741 41.8747
528 1 6.07691 -0.00114464 53.213
529 2 10.7779 5.17452 50.9845
530 1 12.7765 5.17956 52.8481
531 1 5.24916 0.637274 50.3307
532 1 11.3534 6.02216 48.6999
533 1 9.02702 6.53596 40.7634
534 1 15.5609 5.31527 52.2959
535 2 16.1679 5.30905 49.5648
536 1 13.5014 4.80109 50.096
537 1 14.0489 6.31718 48.0624
538 2 7.89391 0.654708 46.4941
539 1 10.1087 5.83955 44.9913
540 1 10.9619 5.44536 42.4015
541 1 13.0694 5.073 45.8942
542 1 13.8887 4.8333 43.3299
543 1 8.1119 0.369947 55.08
544 1 3.15241 1.34041 47.9437
545 2 14.6549 5.74355 54.9705
546 2 12.3822 3.13563 54.5958
547 1 10.1795 1.03948 53.036
548 1 13.8038 -0.0368999 51.2451
549 1 13.2357 0.424806 53.762
550 1 12.7394 2.48394 51.8928
551 1 10.9056 0.77077 50.4226
552 1 10.4969 1.19991 45.7807
553 1 11.3234 0.661385 43.3217
554 1 8.5852 0.517963 43.8783
555 2 9.45413 -0.0186105 41.2208
556 1 1.44449 1.59864 55.4403
557 1 15.4627 2.50037 51.0257
558 1 14.7646 2.87425 53.72
559 2 13.6969 1.81405 49.1635
560 1 12.616 2.59796 46.8169
561 1 3.75867 3.22432 55.0533
562 1 4.69934 2.62341 52.3166
563 1 3.5229 5.2161 45.6806
564 1 16.5886 6.44499 47.3738
565 1 14.8696 1.27952 46.8295
566 1 15.9881 5.19238 45.0435
567 1 17.7954 5.82179 42.8813
568 2 13.2027 0.802425 45.1493
569 1 3.6342 0.583331 54.0617
570 1 2.47817 3.91219 50.9767
571 2 2.11568 2.64538 53.0708
572 1 0.722782 0.238362 49.0252
573 1 0.791802 0.362737 52.8547
574 1 2.60814 1.33244 50.8695
575 2 1.61337 -0.0813918 46.4932
576 1 0.506856 0.551999 44.0853
577 1 1.91725 2.52735 45.809
578 1 15.174 3.89684 47.6079
579 1 15.773 5.46968 41.1722
580 1 13.5759 2.119 43.1361
581 2 15.6957 1.24196 41.4187
582 1 16.3258 3.28694 43.0627
583 2 14.7105 3.09355 45.2351
584 1 14.3451 3.30547 40.8957
585 1 5.96424 1.83037 47.7892
586 1 3.57869 0.672878 45.0915
587 1 4.99555 2.61999 41.2018
588 1 2.88198 1.11822 42.0815
589 2 5.24041 0.90463 42.9976
590 1 13.1251 0.981453 40.8654
591 1 16.8666 4.54688 54.7659
592 1 6.14388 4.55216 53.875
593 2 5.91731 1.98808 54.7795
594 2 4.24976 3.00726 49.4709
595 1 2.56567 4.17735 48.1564
596 1 10.4677 4.13195 55.8652
597 1 7.83676 2.59116 53.2549
598 2 9.37798 2.86569 51.1381
599 1 6.74021 3.28983 50.0507
600 1 8.83327 1.82829 48.7642
601 1 5.44207 4.56771 47.8332
602 1 8.9979 4.59859 49.2585
603 2 6.66184 3.1836 43.2252
604 1 3.85051 3.37926 43.6211
605 1 6.17708 1.87713 45.101
606 1 7.38604 3.99214 40.843
607 1 10.4863 3.76099 53.2582
608 2 8.41774 4.95866 54.3709
609 2 4.38141 2.89742 46.1776
610 2 2.64664 3.82159 41.0964
611 1 11.3255 3.26732 49.2123
612 1 8.53613 3.4194 45.1097
613 1 9.46257 2.92937 42.5679
614 2 11.829 2.98362 41.6084
615 1 10.0679 4.00649 40.3295
616 2 10.2613 4.0632 47.0029
617 1 11.3944 3.484 44.4357
618 1 7.43554 1.35775 41.4381
ITEM: TIMESTEP
900
ITEM: NUMBER OF ATOMS
618
ITEM: BOX BOUNDS xy xz yz pp pp ff
0.0000000000000000e+00 1.9317770367296919e+01 4.0025167278329121e+00
0.0000000000000000e+00 6.6702723500479264e+00 0.0000000000000000e+00
0.0000000000000000e+00 1.0921147561319708e+02 0.0000000000000000e+00
ITEM: ATOMS id type x y z
1 1 4.62564 5.96518 5.92712
2 1 6.37526 6.34291 8.34117
3 1 4.71516 6.29353 13.0929
4 1 5.86004 0.288659 5.72878
5 1 3.92164 0.0365886 10.6032
6 1 6.37137 6.47508 15.4056
7 1 4.49464 6.25741 20.1198
8 1 12.5131 6.05103 5.66949
9 1 7.3785 0.753068 8.19561
10 1 5.53368 0.473431 13.0937
11 1 3.88109 0.258759 17.7407
12 1 6.35633 6.80745 22.4008
13 1 4.69315 6.32612 26.9702
14 1 10.6918 1.42814 5.74681
15 1 14.0545 6.41366 8.07675
16 1 8.94451 1.13557 10.5101
17 1 12.3763 6.32736 12.9951
18 1 7.3149 0.840026 15.4138
19 1 5.54992 0.595959 20.0144
20 1 4.03311 0.38313 24.7662
21 1 6.22179 6.74878 29.25
22 1 4.41271 6.21355 33.851
23 1 13.3927 0.333411 6.06223
24 1 13.0238 3.16298 5.84008
25 1 12.2443 1.6629 8.26486
26 1 11.5711 0.0655435 10.6563
27 1 11.278 2.94237 10.5971
28 1 10.4807 1.49322 12.9984
29 1 13.9062 6.27068 15.3218
30 1 8.96273 1.04294 17.7232
31 1 12.2244 6.22731 20.0054
32 1 7.12523 1.03674 22.2646
33 1 5.59887 0.735403 27.0144
34 1 3.69989 0.387904 31.7841
35 1 6.08738 6.38894 36.2661
36 1 15.682 2.15069 5.96961
37 1 15.1044 0.459608 8.39877
38 1 14.558 3.45623 8.24561
39 1 13.7787 2.02196 10.6628
40 1 13.031 0.446604 13.1089
41 1 12.723 3.45527 13.0029
42 1 12.0213 1.69089 15.5751
43 1 11.5546 -0.00227199 17.7304
44 1 11.0956 2.94611 17.8523
45 1 10.4868 1.46323 20.0969
46 1 13.7977 6.6442 22.2397
47 1 8.90584 1.29342 24.6813
48 1 12.2415 6.34059 27.0594
49 1 7.1845 0.84702 29.4674
50 1 5.21356 0.608147 33.9791
51 1 7.12869 6.77757 38.9249
52 1 2.94304 1.16997 5.85578
53 1 17.7853 4.03591 5.89418
54 1 17.2923 2.60192 8.32583
55 1 1.1806 1.01209 10.6798
56 1 16.016 4.04676 10.7558
57 1 15.4327 2.38818 13.0553
58 1 14.7571 0.840825 15.542
59 1 14.2616 3.56129 15.4462
60 1 13.6787 1.99512 17.813
61 1 13.164 0.56712 20.1165
62 1 12.6539 3.33658 20.2098
63 1 12.2138 1.83913 22.4087
64 1 11.5899 0.406973 24.6703
65 1 11.2165 3.18412 24.5833
66 1 10.4186 1.45317 27.0437
67 1 13.9997 6.38871 29.3314
68 1 8.75785 1.18537 31.6823
69 1 12.1534 6.11668 33.8855
70 1 6.96455 0.648816 36.1843
71 1 5.25764 3.11112 5.99946
72 1 4.72147 1.58505 8.442
73 1 4.1118 4.33982 8.39651
74 1 3.56366 2.91817 10.7618
75 1 2.7943 1.335 13.0842
76 1 17.7361 4.11548 13.1502
77 1 17.03 2.68259 15.49
78 1 1.23111 1.15385 17.8602
79 1 15.9936 3.98072 17.6137
80 1 15.3648 2.43198 20.1611
81 1 14.9321 0.877151 22.3919
82 1 14.4421 3.79173 22.3586
83 1 13.8936 2.14509 24.7513
84 1 13.1182 0.664106 27.047
85 1 12.7919 3.39501 26.8839
86 1 12.1518 1.64011 29.425
87 1 11.31 0.0555443 31.6447
88 1 10.9151 2.9037 31.8108
89 1 10.2497 1.32991 34.0492
90 1 13.854 6.51954 36.3619
91 1 8.60541 0.931039 39.0105
92 1 7.95931 2.17829 5.7527
93 1 7.42338 4.89653 5.8376
94 1 6.76606 3.55718 8.38891
95 1 6.22651 1.96321 10.67
96 1 5.71025 4.97158 10.7999
97 1 5.33757 3.36222 13.0305
98 1 4.54136 1.71218 15.4372
99 1 3.96861 4.6928 15.2887
100 1 3.3955 3.1421 17.7241
101 1 2.80359 1.63752 20.1033
102 1 17.5189 4.39083 19.8816
103 1 17.0698 3.01088 22.3269
104 1 1.29861 1.35811 24.6749
105 1 16.1117 4.13643 24.5904
106 1 15.5129 2.54732 26.9076
107 1 14.8653 0.881778 29.3365
108 1 14.4246 3.60179 29.2518
109 1 13.6646 2.05761 31.6997
110 1 13.04 0.380703 33.9237
111 1 12.7303 3.40052 34.0716
112 1 12.0194 1.64854 36.0539
113 1 15.1499 6.58022 38.8541
114 1 11.0226 2.53802 38.4481
115 1 10.2409 4.23906 5.6592
116 1 9.59547 2.78717 8.24059
117 1 9.07461 5.54554 8.37372
118 1 8.56264 3.79453 10.7804
119 1 7.72675 2.41059 13.0714
120 1 7.46834 5.28372 13.0002
121 1 6.62857 3.70894 15.4234
122 1 5.92609 2.30037 17.7065
123 1 5.73922 5.00851 17.7824
124 1 4.99402 3.48875 20.1082
125 1 4.56502 2.04341 22.3939
126 1 4.04511 4.84339 22.4314
127 1 3.41552 3.19453 24.7215
128 1 2.98888 1.78688 27.1045
129 1 17.6383 4.39479 26.9235
130 1 17.0931 2.84901 29.3325
131 1 0.941088 1.1325 31.6454
132 1 16.0161 3.8754 31.6187
133 1 15.256 2.36736 34.0044
134 1 14.7797 0.710401 36.2654
135 1 14.1537 3.57475 36.4252
136 1 13.536 1.69006 38.3954
137 1 11.7235 4.64269 8.13116
138 1 10.8679 5.75884 10.7211
139 1 10.1299 4.4097 12.9367
140 1 9.38 2.70745 15.2497
141 1 8.93669 5.60902 15.3908
142 1 8.39673 3.9574 17.7505
143 1 7.70216 2.48935 20.007
144 1 7.36762 5.30545 20.1345
145 1 6.79891 3.96869 22.3342
146 1 6.22127 2.34034 24.6093
147 1 5.77674 5.24405 24.6869
148 1 5.24871 3.53335 26.9431
149 1 4.53074 1.87521 29.4229
150 1 4.1084 4.72992 29.2403
151 1 3.26139 2.98477 31.7842
152 1 2.51412 1.48205 34.0334
153 1 17.6175 4.22924 34.0946
154 1 1.57739 2.50515 36.4666
155 1 0.774335 0.951016 38.8455
156 1 15.9935 3.65703 38.7825
157 1 15.1547 5.00342 5.80272
158 1 13.4492 4.83861 10.5326
159 1 11.5844 4.51818 15.3177
160 1 10.573 5.88261 17.6327
161 1 10.0469 4.33053 20.1651
162 1 9.3464 2.78883 22.5434
163 1 8.98426 5.7749 22.5386
164 1 8.39851 4.24809 24.7787
165 1 7.96229 2.71506 26.9084
166 1 7.46953 5.47702 27.0526
167 1 6.87504 3.72084 29.1968
168 1 6.11094 2.1766 31.5956
169 1 5.60121 5.05736 31.5995
170 1 5.03149 3.34179 33.918
171 1 4.31185 1.60556 36.363
172 1 3.84486 4.55595 36.178
173 1 3.26335 2.93251 38.4649
174 1 16.8129 5.42929 8.38659
175 1 15.045 5.26264 12.9415
176 1 13.2952 4.83359 17.7011
177 1 11.6035 4.81944 22.3858
178 1 10.6718 6.13681 24.715
179 1 10.0811 4.34212 27.0058
180 1 9.34171 2.60451 29.4058
181 1 9.06834 5.57804 29.3332
182 1 8.31588 4.09738 31.5496
183 1 7.62851 2.20682 34.0287
184 1 7.04525 5.34352 34.0083
185 1 6.52617 3.5894 36.1334
186 1 5.88321 1.83149 38.6866
187 1 5.09439 4.79671 39.044
188 1 18.3635 5.62919 10.9158
189 1 16.6292 5.51327 15.2378
190 1 14.899 5.34942 20.1258
191 1 13.4144 5.16973 24.5559
192 1 11.7693 4.62399 29.4433
193 1 10.4907 5.97448 31.709
194 1 9.6268 4.40213 33.9306
195 1 9.18162 2.60747 36.1774
196 1 8.70483 5.60622 36.2683
197 1 8.20292 3.73674 38.1804
198 1 18.3321 5.94291 17.7352
199 1 16.6454 5.84729 22.3893
200 1 15.0127 5.39759 26.876
201 1 13.2019 4.80735 31.7412
202 1 11.4894 4.55676 36.3353
203 1 10.409 5.62677 38.3098
204 1 18.2881 5.95512 24.7096
205 1 16.6187 5.54371 29.2239
206 1 14.8807 5.06454 33.9082
207 1 13.1549 4.91581 38.8423
208 1 18.0853 5.80293 31.6248
209 1 16.4013 5.2489 36.2854
210 1 17.8796 5.5106 38.7607
211 2 14.4474 1.3089 102.217
212 1 15.1395 1.10421 99.4701
213 1 3.65722 0.367901 103.351
214 1 2.57849 1.12735 98.9125
215 1 1.7176 1.60016 101.512
216 2 0.696852 0.529699 96.9755
217 1 14.9079 1.38095 94.6473
218 1 6.09505 1.6467 102.822
219 1 7.07104 1.21493 100.162
220 1 5.95377 6.64614 94.5929
221 1 4.86539 2.62233 98.845
222 2 4.40178 1.15652 101.061
223 1 4.36118 1.5125 93.7743
224 1 2.41089 2.693 95.1744
225 1 0.600125 0.799966 90.922
226 1 3.40392 1.97519 90.9207
227 2 1.73902 1.86087 92.8312
228 1 0.547972 0.707109 88.2179
229 1 8.35627 0.13465 95.5487
230 1 7.32764 1.2886 88.9596
231 1 9.1415 6.58022 90.0225
232 1 12.4718 5.05472 103.562
233 1 3.7834 3.17712 102.63
234 1 8.39221 3.24089 101.79
235 1 6.22025 4.53447 103.303
236 2 8.38143 0.660818 102.534
237 2 5.88609 3.64006 100.952
238 1 7.7133 3.72454 98.826
239 2 6.79129 1.53865 97.5638
240 1 5.18822 2.98366 96.1188
241 1 12.7092 2.21034 103.447
242 1 10.1448 1.34122 100.764
243 1 14.4923 5.98832 98.9054
244 2 11.7506 1.48301 98.6398
245 1 10.5451 3.78683 99.7127
246 1 9.31728 1.70896 97.8528
247 1 11.2312 0.669696 96.2105
248 1 8.08453 3.15214 95.7946
249 1 11.526 3.25989 96.966
250 2 9.53086 4.55562 97.3353
251 1 8.47515 3.44319 93.0228
252 2 8.9514 2.1048 90.9417
253 1 10.4068 4.1324 90.8938
254 1 6.45727 1.91509 91.6887
255 1 8.6892 0.504428 93.0102
256 1 10.5256 4.42564 94.6909
257 1 7.38316 4.06408 90.0859
258 1 9.43276 2.75877 88.6252
259 1 12.9305 2.4317 100.7
260 2 10.9378 3.32606 102.292
261 1 12.8098 5.25123 100.797
262 2 13.2688 3.7583 98.79
263 1 15.2057 3.89918 100.694
264 1 11.6609 5.82334 98.0682
265 1 13.916 4.61039 96.564
266 2 6.7889 1.60156 94.4207
267 2 5.316 2.55264 89.2488
268 1 11.1123 5.22171 88.4212
269 1 2.67095 3.89417 99.9086
270 1 13.7784 1.83044 97.1203
271 1 10.8949 2.07262 92.9981
272 1 11.5001 1.59637 90.3571
273 2 13.9238 1.51467 89.5427
274 1 12.0562 2.85405 88.0307
275 2 3.30345 3.94264 97.3402
276 1 15.9895 3.29934 97.9581
277 1 16.56 4.933 95.7751
278 2 12.995 2.88982 94.6947
279 1 13.5175 2.08137 92.0865
280 2 14.3554 5.84897 94.2903
281 1 12.5437 4.57808 92.7124
282 1 13.3505 4.08281 90.1079
283 1 15.4604 3.76709 93.5771
284 1 16.1331 3.43166 90.8468
285 1 13.6708 6.67863 89.201
286 1 14.9068 6.18054 102.784
287 1 9.55077 6.76272 96.1137
288 2 16.9908 4.53154 102.523
289 1 16.7356 6.46938 100.535
290 1 5.18117 5.21087 98.9768
291 1 4.29946 5.77849 101.415
292 1 17.3533 5.91122 98.1134
293 1 16.8373 6.47888 93.6443
294 1 17.6389 5.95537 91.0969
295 1 14.9965 5.79266 91.4742
296 2 15.905 5.42317 89.12
297 1 5.95266 4.01483 93.7151
298 1 3.73694 5.29826 95.1434
299 1 3.01314 3.97537 92.8877
300 1 4.90292 4.63964 90.8753
301 2 4.18379 6.20628 92.8691
302 1 9.8927 5.76496 101.846
303 1 7.04516 5.74771 96.866
304 1 7.27433 5.69454 100.851
305 1 9.10707 6.5081 98.7896
306 2 8.10429 5.40001 94.6721
307 1 6.9792 6.11136 92.0725
308 1 2.82352 3.84195 89.0046
309 2 6.58082 6.35217 89.5658
310 1 9.91382 6.1654 92.7647
311 2 11.722 6.33707 90.7942
312 1 5.36196 4.67971 88.0456
313 1 3.52024 1.30565 88.0104
314 1 13.161 0.436118 87.2851
315 2 16.5462 6.40986 84.8729
316 1 18.1882 6.4683 82.7686
317 1 6.08533 2.03492 83.1714
318 1 5.97507 6.5788 83.7204
319 2 0.834449 0.473485 81.3766
320 1 3.71682 5.95019 77.1321
321 1 5.53036 6.6007 75.0572
322 1 5.56335 6.48521 78.9647
323 1 18.077 6.4192 74.1575
324 1 4.01121 1.4764 85.0323
325 2 8.62655 6.64682 83.0473
326 1 10.6156 6.63033 84.9572
327 1 3.141 1.99889 82.2008
328 1 5.1301 0.82102 80.6786
329 1 2.44973 1.07694 72.5683
330 1 13.4016 6.73807 84.317
331 2 13.7479 6.19024 81.4619
332 1 11.2897 6.25135 82.3338
333 1 7.63464 0.687554 79.9078
334 2 5.67477 1.80683 78.4089
335 1 3.84708 0.411488 76.8376
336 1 8.41139 6.49961 74.3185
337 1 10.979 6.33895 77.5478
338 1 11.4348 5.93956 74.8242
339 1 6.1252 2.019 86.8657
340 1 16.5193 2.55733 79.951
341 2 8.47754 0.772087 86.8896
342 2 9.99817 3.81037 86.4137
343 1 8.19562 2.49964 84.8918
344 1 11.6375 1.41914 82.8733
345 1 11.08 1.86066 85.6088
346 1 10.5016 3.87114 83.7038
347 1 8.84552 1.88325 82.1799
348 1 8.31185 2.42717 77.7657
349 1 8.90347 1.78679 75.0526
350 1 6.219 1.63539 75.7409
351 2 7.20686 1.3014 72.9868
352 1 14.6722 3.03618 87.4831
353 1 13.1046 3.95281 83.2104
354 1 12.498 4.42245 85.7804
355 2 11.3929 3.40166 81.0981
356 1 10.3768 3.92845 78.7638
357 1 16.8486 4.57029 86.7887
358 1 2.52787 3.99704 84.2289
359 1 16.4063 6.45552 77.7905
360 1 10.1828 1.01501 79.2302
361 1 12.4882 2.37306 78.7801
362 1 13.6188 6.31549 76.7305
363 1 11.5052 0.34465 74.8851
364 2 10.7434 1.92452 77.0464
365 1 1.43358 1.88897 85.7758
366 1 15.5868 5.31212 82.9019
367 2 15.1987 4.08102 85.0197
368 1 13.8056 2.04501 81.0057
369 1 13.8469 1.88744 84.9077
370 1 15.6899 2.41833 82.9318
371 2 14.6788 1.29604 78.5665
372 1 13.5094 1.96498 76.1251
373 1 14.8898 3.8672 77.9018
374 1 12.8368 4.95849 79.154
375 1 13.5883 6.60583 73.1149
376 1 11.1339 3.19968 74.8329
377 2 13.1448 2.007 73.5487
378 1 13.8203 4.32169 74.6557
379 2 12.3082 4.17935 76.777
380 1 11.1462 3.05182 72.1399
381 1 3.94535 3.23496 79.7689
382 1 1.41609 1.88577 77.0965
383 1 2.53635 3.76185 73.085
384 1 15.6765 2.36482 74.2149
385 2 2.98897 2.13744 75.0049
386 1 12.2286 0.357862 71.9338
387 1 14.5737 5.93286 86.6791
388 1 3.9402 6.13746 85.6941
389 2 3.69897 3.42322 86.6234
390 2 17.413 4.27147 81.5676
391 1 15.5057 5.17894 80.1679
392 1 8.29566 5.29025 87.7462
393 1 5.68185 4.11899 85.0205
394 2 7.23417 4.17889 82.8351
395 1 4.62668 4.56984 82.2084
396 1 6.77335 3.22408 80.5615
397 1 18.2696 6.06114 79.9513
398 1 6.95034 5.89287 81.1433
399 2 4.40467 4.45242 74.9966
400 1 16.926 4.34119 75.6565
401 1 3.99784 3.09919 77.0085
402 1 4.76715 5.314 72.714
403 1 8.38526 5.19444 84.976
404 2 6.4282 6.32859 86.412
405 2 17.3329 4.26345 78.395
406 2 15.8237 5.1009 73.3339
407 1 9.24766 4.59318 81.3842
408 1 6.25542 4.70043 77.0427
409 1 6.86436 4.0601 74.331
410 2 9.26038 4.09139 73.5176
411 1 7.39856 5.40033 71.966
412 2 8.20295 5.23212 78.9105
413 1 8.94059 4.67796 76.1687
414 1 4.93655 2.52541 73.2909
415 2 5.32233 6.5535 70.5458
416 1 5.92689 6.43996 67.8048
417 1 10.0631 5.64387 71.2735
418 1 8.68657 6.61032 67.0913
419 1 3.87976 0.325301 69.8752
420 2 6.92008 5.95172 65.1193
421 1 1.91744 0.141855 62.8511
422 1 8.24134 0.554084 70.8629
423 1 9.27275 -0.189592 68.2454
424 1 8.12576 5.32596 62.9427
425 1 6.94998 1.36767 66.9127
426 2 10.6534 6.57984 68.9962
427 1 6.45032 0.0973356 61.8294
428 1 4.44299 1.37009 63.4496
429 1 6.72368 6.20479 58.9265
430 1 5.40754 0.619063 58.9859
431 2 3.79195 0.481892 61.0542
432 1 6.74773 5.74895 56.2321
433 1 14.7076 5.5299 63.6643
434 1 13.467 6.71071 57.2064
435 1 11.1161 5.20248 58.1995
436 1 14.0371 3.80564 71.8877
437 1 5.84586 1.90781 70.7745
438 1 10.5358 1.8415 69.7045
439 1 8.57513 3.07916 71.2664
440 2 14.3751 5.97045 70.5164
441 2 8.04863 2.11833 68.9079
442 1 9.64349 2.28876 66.8265
443 2 8.82185 0.18735 65.6045
444 1 7.28057 1.63027 64.1606
445 1 14.8853 1.02558 71.7502
446 1 12.3032 -0.0919824 68.9958
447 1 16.6377 4.4755 67.122
448 2 13.8674 0.0167502 67.1246
449 1 12.6546 2.45251 67.734
450 1 11.4445 0.349255 66.1595
451 1 17.3757 5.73017 64.7626
452 1 10.092 1.84043 63.9779
453 1 13.7656 1.81219 65.1541
454 2 11.5247 3.1577 65.4785
455 1 10.6731 2.07913 61.304
456 2 11.1095 0.585642 59.2099
457 1 12.5463 2.70824 59.049
458 1 8.46907 0.657698 59.9182
459 1 14.8268 5.92617 61.0942
460 1 12.6846 2.96075 63.0564
461 1 9.60776 2.60623 58.2166
462 1 11.8443 1.56641 56.7005
463 1 15.0637 1.135 69.1921
464 2 13.019 2.11241 70.4492
465 1 14.669 3.83707 69.0564
466 2 15.3707 2.20046 67.0614
467 1 2.07414 2.49796 68.9363
468 1 13.7591 4.44414 65.9843
469 1 16.0302 3.16749 64.6797
470 2 9.06541 0.305408 62.3839
471 2 7.30294 1.23147 57.408
472 1 13.3038 4.05591 56.6858
473 1 4.68555 2.59726 68.3769
474 1 0.660139 0.32765 65.2891
475 1 13.3042 0.876098 61.066
476 1 13.7471 0.233265 58.4421
477 2 0.868997 0.198595 57.4497
478 1 14.1942 1.58308 56.0066
479 2 5.39101 2.61307 65.6221
480 1 2.73771 1.94991 66.2481
481 1 3.35777 3.61984 64.0407
482 2 14.9923 1.482 62.9345
483 1 0.627653 0.749463 60.3552
484 2 16.5457 4.60778 62.4417
485 1 14.7625 3.26632 60.7883
486 1 15.4316 2.69974 58.2662
487 1 2.2343 2.55068 61.677
488 1 3.00105 2.1699 59.1109
489 1 15.8204 5.32373 57.2606
490 1 16.701 4.50839 70.9401
491 1 11.6453 5.49138 64.0869
492 2 3.71877 3.24488 70.9375
493 1 3.48049 5.17468 69.0448
494 1 7.13191 4.04284 67.0731
495 1 6.48315 4.4429 69.6173
496 1 4.08895 4.58281 66.4877
497 1 3.69016 5.19546 61.8676
498 1 4.42803 4.83876 59.2166
499 1 17.0109 4.41449 59.7791
500 2 2.70793 4.00381 57.1515
501 1 8.05348 2.65634 61.9038
502 1 5.78869 3.9839 63.3961
503 1 5.08559 2.60628 61.0139
504 1 6.99182 3.27794 58.9983
505 2 6.48379 4.81921 61.1999
506 1 12.1631 4.41077 69.8719
507 1 9.15286 4.51434 65.1132
508 1 9.27335 4.45341 68.914
509 1 11.155 5.09406 67.0139
510 2 10.2376 4.11595 62.678
511 1 9.06387 4.83877 60.316
512 1 5.16186 3.13087 56.9979
513 2 8.65315 4.90738 57.7002
514 1 12.2245 4.8514 61.0901
515 2 13.8004 4.98029 58.9955
516 1 7.851 3.16257 56.0119
517 1 5.35072 0.0355673 56.1674
518 1 3.85324 5.95671 55.1289
519 2 3.27312 5.01506 52.9879
520 1 5.03838 5.07908 51.0162
521 1 8.16671 0.513764 51.272
522 1 8.08353 5.10301 51.7985
523 2 7.01877 5.81098 49.3286
524 1 5.85205 4.74065 44.9894
525 1 7.95401 5.30198 43.1223
526 1 8.0364 5.36563 46.816
527 1 5.06852 5.43012 42.1132
528 1 6.13003 -0.104822 53.1158
529 2 10.7807 5.11541 51.1349
530 1 12.6203 5.23596 53.0222
531 1 5.23898 0.381206 50.0673
532 1 11.5094 5.96945 48.8618
533 1 9.10559 6.50193 40.7258
534 1 15.5338 5.33944 52.2646
535 2 16.0849 5.4047 49.5983
536 1 13.4626 4.8388 50.3874
537 1 13.9286 6.36816 48.128
538 2 8.13235 0.909648 46.5278
539 1 10.0661 5.83087 45.1427
540 1 10.7548 5.29338 42.5878
541 1 13.1385 5.24021 45.7244
542 1 13.7277 4.66038 43.0802
543 1 8.01941 0.416465 54.9882
544 1 3.30479 1.3627 47.9295
545 2 14.49 5.84405 54.969
546 2 12.3027 2.91155 54.3798
547 1 10.1522 1.1306 53.1531
548 1 13.8793 0.0635535 51.1443
549 1 13.0089 0.469342 53.7199
550 1 12.7238 2.48861 51.8473
551 1 10.8412 0.762744 50.4346
552 1 10.5623 1.03629 45.7195
553 1 11.3058 0.407782 43.0452
554 1 8.60823 0.525991 43.7776
555 2 9.41776 -0.164575 41.1175
556 1 1.48623 1.70321 55.4016
557 1 15.3304 2.68275 50.819
558 1 14.7156 2.88376 53.5869
559 2 13.348 1.81267 49.1752
560 1 12.6675 2.63801 46.737
561 1 3.68651 3.02962 54.7845
562 1 4.63973 2.61769 52.1784
563 1 3.48395 5.33473 45.8573
564 1 16.6387 6.64861 47.3339
565 1 14.8953 1.4245 46.953
566 1 15.896 5.26329 44.9896
567 1 17.7191 5.6409 43.0369
568 2 13.1605 0.77654 45.0407
569 1 3.54546 0.400009 53.7991
570 1 2.50219 4.04391 50.9402
571 2 2.03422 2.69705 52.8457
572 1 0.533154 0.400302 49.101
573 1 0.741852 0.47877 52.9363
574 1 2.58505 1.10771 50.8221
575 2 1.72878 0.00603745 46.7297
576 1 0.439993 0.746357 44.0913
577 1 1.87506 2.69332 45.9181
578 1 15.1815 4.11114 47.4347
579 1 15.6543 5.12409 41.0548
580 1 13.5241 2.01214 42.9878
581 2 15.3442 1.07205 41.4342
582 1 16.1718 3.32623 42.9766
583 2 14.6345 3.05309 44.9863
584 1 14.1917 3.03703 40.6213
585 1 6.11345 1.68716 47.8292
586 1 3.54459 0.803993 45.1088
587 1 4.75079 2.68403 40.859
588 1 2.6867 0.90895 41.7104
589 2 5.25482 0.867432 42.9861
590 1 12.8466 0.757912 40.7408
591 1 16.7873 4.56558 54.7451
592 1 6.04909 4.58767 53.8467
593 2 5.88791 1.97018 54.5744
594 2 4.33658 2.84236 49.6434
595 1 2.61455 4.41148 48.3161
596 1 10.6568 4.13653 55.8009
597 1 7.74172 2.57372 53.0901
598 2 9.48153 2.75011 51.1772
599 1 6.86374 3.19264 50.2001
600 1 8.8901 1.99503 48.7391
601 1 5.53293 4.53407 47.926
602 1 9.15105 4.5139 49.2877
603 2 6.63422 3.25312 42.9144
604 1 3.75854 3.03473 43.3676
605 1 6.27243 1.89501 45.0658
606 1 7.21887 4.26846 40.6267
607 1 10.4652 3.68839 53.2094
608 2 8.66326 4.90336 54.5776
609 2 4.3891 3.02321 46.4311
610 2 2.42862 3.67966 40.8797
611 1 11.3498 3.289 49.3588
612 1 8.50926 3.39923 44.8974
613 1 9.40312 2.72118 42.3614
614 2 11.8271 2.96712 41.6841
615 1 10.128 4.02446 40.3537
616 2 10.41 3.96843 46.9647
617 1 11.2118 3.4458 44.4878
618 1 7.27722 1.24166 41.4679
ITEM: TIMESTEP
1000
ITEM: NUMBER OF ATOMS
618
ITEM: BOX BOUNDS xy xz yz pp pp ff
0.0000000000000000e+00 1.9317770367296919e+01 4.0025167278329121e+00
0.0000000000000000e+00 6.6702723500479264e+00 0.0000000000000000e+00
0.0000000000000000e+00 1.0921147561319708e+02 0.0000000000000000e+00
ITEM: ATOMS id type x y z
1 1 4.94366 5.84968 5.95391
2 1 6.36226 6.26914 8.4523
3 1 4.74741 5.97933 12.9767
4 1 5.77306 0.224121 5.81347
5 1 4.04565 0.109336 10.7737
6 1 6.30204 6.55487 15.2709
7 1 4.65561 6.33252 19.9827
8 1 12.3225 6.02914 5.79787
9 1 7.22657 0.607079 8.157
10 1 5.76868 0.460312 12.9867
11 1 4.09252 0.213511 17.4728
12 1 2.25482 -0.132378 22.3918
13 1 4.78773 6.29764 26.9566
14 1 10.6699 1.07932 5.78697
15 1 14.0238 6.36914 8.3289
16 1 9.08999 1.02229 10.657
17 1 12.3307 6.02614 12.9207
18 1 7.1671 0.860275 15.1526
19 1 5.58327 0.679902 19.9748
20 1 4.02768 0.298549 24.4916
21 1 2.18059 -0.281909 29.3003
22 1 4.5546 6.09908 34.0923
23 1 13.489 0.103671 5.69099
24 1 12.8229 3.1227 5.74955
25 1 12.2616 1.59898 8.26149
26 1 11.8046 0.0417061 10.763
27 1 11.1777 3.0334 10.6102
28 1 10.7432 1.30744 12.9288
29 1 14.0229 6.71997 15.3054
30 1 8.84989 1.24072 17.6192
31 1 12.2128 6.34279 20.0646
32 1 7.28159 1.01764 22.3697
33 1 5.52339 0.559033 26.9137
34 1 3.90595 0.200321 31.5547
35 1 5.95456 6.49394 36.4655
36 1 15.559 2.04987 5.84333
37 1 14.8399 0.632459 8.1975
38 1 14.4599 3.50896 8.26803
39 1 13.9592 2.01909 10.617
40 1 13.4346 0.355482 12.9166
41 1 12.9349 3.26659 12.9096
42 1 12.3862 1.71938 15.2576
43 1 11.4647 0.304576 17.7197
44 1 11.0954 3.03956 17.5028
45 1 10.5266 1.46248 19.9238
46 1 9.97906 0.0214784 22.4045
47 1 8.91576 1.49323 24.5584
48 1 12.4277 6.44606 26.9235
49 1 7.32613 0.930209 29.2691
50 1 5.51117 0.410824 33.9136
51 1 7.5249 6.38827 38.5407
52 1 2.88768 1.25735 5.9381
53 1 2.57036 4.03757 5.98955
54 1 1.71997 2.47533 8.25931
55 1 1.50959 0.78011 10.8298
56 1 16.0996 3.85585 10.639
57 1 15.718 2.44807 12.9927
58 1 14.9651 0.765718 15.1825
59 1 14.5091 3.64929 15.3295
60 1 13.7206 2.11054 17.5835
61 1 13.1745 0.493838 19.9502
62 1 12.7306 3.34198 19.9492
63 1 12.0715 1.93574 22.2425
64 1 11.6273 0.373818 24.6366
65 1 11.0645 3.22549 24.7167
66 1 10.6711 1.61394 26.8853
67 1 14.0452 6.80725 29.2742
68 1 8.82391 1.04019 31.5353
69 1 12.2011 6.27232 33.9201
70 1 7.03586 0.918988 36.2254
71 1 5.25926 3.11436 5.86735
72 1 4.61897 1.52472 8.27021
73 1 4.14272 4.49671 8.39633
74 1 3.57827 2.9727 10.5496
75 1 3.02561 1.30157 13.0593
76 1 17.6458 4.47754 13.0199
77 1 1.90526 2.77964 15.2355
78 1 1.19652 1.062 17.5601
79 1 15.9911 3.99646 17.7244
80 1 15.4888 2.42016 20.112
81 1 14.7559 0.95123 22.2981
82 1 14.2926 3.80795 22.3265
83 1 13.7621 2.35922 24.6186
84 1 13.2587 0.669495 26.8444
85 1 12.8944 3.47621 26.9753
86 1 12.2204 1.86243 29.1299
87 1 11.5576 0.268645 31.5339
88 1 11.0283 3.14862 31.3735
89 1 10.3584 1.35282 33.7479
90 1 13.677 6.27013 36.3214
91 1 8.70703 0.83336 38.6054
92 1 7.98345 2.14831 5.80818
93 1 7.58027 5.04653 5.82842
94 1 7.0193 3.4104 8.12061
95 1 6.31257 1.98999 10.5885
96 1 5.77306 4.76976 10.6449
97 1 5.0817 3.31518 13.0335
98 1 4.54087 1.71968 15.3662
99 1 4.04106 4.49378 15.403
100 1 3.46744 3.05235 17.6463
101 1 2.87649 1.52712 19.9073
102 1 17.7713 4.2675 20.1514
103 1 1.80253 2.80574 22.3692
104 1 1.26365 1.31586 24.6853
105 1 16.214 4.1231 24.7903
106 1 15.5273 2.55214 26.9494
107 1 14.851 0.930326 29.3045
108 1 14.4423 3.79697 29.3596
109 1 13.8372 2.07394 31.4792
110 1 13.0594 0.470585 33.8654
111 1 12.6451 3.19689 33.7756
112 1 11.8298 1.63301 36.2601
113 1 15.1613 6.50799 38.8561
114 1 10.992 2.70833 38.4789
115 1 10.1405 4.02413 5.76189
116 1 9.68881 2.32239 8.15894
117 1 9.28287 5.32869 8.10366
118 1 8.5674 3.91271 10.5516
119 1 8.04288 2.477 12.9672
120 1 7.36503 5.10715 13.0799
121 1 6.96122 3.59641 15.2816
122 1 6.24269 2.0749 17.549
123 1 5.68662 4.85795 17.5194
124 1 5.13431 3.35193 19.8915
125 1 4.52341 1.87336 22.2773
126 1 4.06209 4.81887 22.2768
127 1 3.46693 3.261 24.635
128 1 2.94575 1.50801 26.9685
129 1 17.7446 4.48495 26.9816
130 1 1.84605 2.69164 29.1787
131 1 1.27149 1.20937 31.6394
132 1 15.9651 4.0295 31.5949
133 1 15.3486 2.32713 33.7837
134 1 14.5622 0.759743 36.0961
135 1 14.2412 3.49612 36.0456
136 1 13.5351 1.88582 38.3902
137 1 11.8803 4.31617 8.32817
138 1 10.6858 5.81259 10.484
139 1 10.169 4.19044 13.0101
140 1 9.5601 2.72027 15.3671
141 1 9.09166 5.66616 15.1889
142 1 8.38464 4.10459 17.5898
143 1 7.86383 2.5321 20.0163
144 1 7.24679 5.32451 19.8348
145 1 6.73741 3.7812 22.251
146 1 6.23141 2.2129 24.7614
147 1 5.77032 5.06283 24.6535
148 1 5.10289 3.40832 26.9805
149 1 4.58578 1.7279 29.1479
150 1 3.98265 4.70499 29.2148
151 1 3.42066 3.00116 31.507
152 1 2.82897 1.31633 33.9433
153 1 17.5351 4.24805 33.834
154 1 16.9566 2.78024 36.3018
155 1 0.70366 0.991603 38.9978
156 1 15.9058 3.78321 38.7981
157 1 15.1899 5.04191 5.86736
158 1 13.4975 4.85842 10.7041
159 1 11.8651 4.76882 15.3681
160 1 10.6821 5.95454 17.7134
161 1 10.0122 4.43202 19.8301
162 1 9.43383 3.02621 22.1403
163 1 9.02339 5.77778 22.2045
164 1 8.46506 4.17816 24.6081
165 1 7.86854 2.50381 27.0869
166 1 7.34904 5.2132 26.8381
167 1 6.75365 3.69494 29.3776
168 1 5.97901 1.95676 31.6062
169 1 5.54063 4.92222 31.6734
170 1 4.84121 3.39283 34.1381
171 1 4.24741 1.71516 36.3819
172 1 3.75193 4.42465 36.7603
173 1 3.04074 2.5115 39.0899
174 1 16.7353 5.32655 8.32779
175 1 15.1441 5.21721 13.0208
176 1 13.2649 4.98588 17.6149
177 1 11.684 4.79415 22.2605
178 1 10.5629 6.07236 24.5992
179 1 9.97787 4.55467 26.9517
180 1 9.34991 2.94449 29.1874
181 1 8.91236 5.58606 29.306
182 1 8.38188 3.9279 31.6131
183 1 7.71764 2.40169 33.8578
184 1 7.17412 5.19588 34.0107
185 1 6.54904 3.53106 36.497
186 1 6.00746 2.02327 38.7992
187 1 5.19367 4.90041 39.0936
188 1 18.389 5.85723 10.5786
189 1 16.6015 5.56457 15.3952
190 1 15.0013 5.37009 20.0606
191 1 13.2928 5.05137 24.7835
192 1 11.6063 4.77777 29.2057
193 1 10.6029 5.94681 31.5251
194 1 9.94784 4.26753 33.8644
195 1 9.33506 2.63597 35.9389
196 1 8.67809 5.39426 36.2277
197 1 8.6084 3.56571 38.2373
198 1 18.091 5.7662 17.7035
199 1 16.5267 5.60469 22.3468
200 1 15.1493 5.4066 26.9932
201 1 13.3247 4.97057 31.5507
202 1 11.6483 4.54159 36.1329
203 1 10.4868 5.86991 38.2816
204 1 18.3068 6.11159 24.4941
205 1 16.5693 5.68957 29.2759
206 1 14.8255 5.28316 33.9576
207 1 13.1094 4.75233 38.8795
208 1 18.3123 5.9923 31.5981
209 1 16.4724 5.43921 36.326
210 1 17.8479 5.61883 38.9306
211 2 14.5733 1.61155 102.192
212 1 15.0639 1.161 99.5577
213 1 3.8208 0.484429 103.382
214 1 2.4689 1.17155 99.0074
215 1 1.64377 1.56985 101.73
216 2 0.742427 0.503743 96.9527
217 1 15.069 1.40881 94.7018
218 1 6.2603 1.77635 102.994
219 1 7.08519 1.314 100.29
220 1 1.84905 -0.117616 94.8115
221 1 4.7861 2.49485 98.8299
222 2 4.45878 1.19743 101.012
223 1 4.27929 1.40598 93.7377
224 1 2.15409 2.60801 95.2892
225 1 0.52965 0.794051 90.8072
226 1 3.1575 1.92527 90.8795
227 2 1.67874 1.69278 92.9553
228 1 0.44845 0.546321 88.1978
229 1 8.44606 0.465064 95.8137
230 1 7.21702 1.37396 89.1915
231 1 4.94936 -0.089664 90.2592
232 1 12.2451 4.88252 103.531
233 1 3.86018 3.24126 102.466
234 1 8.40295 3.20752 101.921
235 1 6.31789 4.58816 103.263
236 2 8.41644 0.613111 102.571
237 2 5.935 3.59446 100.94
238 1 7.41149 3.79161 98.8303
239 2 6.64864 1.4873 97.6213
240 1 4.92778 2.81435 96.1873
241 1 12.5119 1.86055 103.235
242 1 10.2063 1.3589 100.954
243 1 14.5745 6.00086 98.7897
244 2 11.8355 1.52015 98.8183
245 1 10.5007 3.96062 99.7753
246 1 9.16174 1.84512 98.102
247 1 11.2235 0.653798 96.4036
248 1 7.71463 3.23754 95.754
249 1 11.3798 3.28828 97.145
250 2 9.31907 4.52046 97.3219
251 1 8.49815 3.37067 93.0276
252 2 9.08488 1.85747 91.1264
253 1 10.2376 4.15687 91.0349
254 1 6.15255 1.97311 91.6549
255 1 8.69336 0.591885 93.1936
256 1 10.4683 4.23023 94.9179
257 1 7.38107 3.96918 90.2492
258 1 9.47315 2.8689 88.7795
259 1 12.831 2.56164 100.735
260 2 10.9365 3.3242 102.276
261 1 12.7165 5.39351 100.774
262 2 13.194 3.8511 98.7654
263 1 15.0542 3.93649 100.7
264 1 11.6464 5.88067 98.1094
265 1 13.7615 4.57856 96.5838
266 2 6.67004 1.57497 94.2958
267 2 5.0532 2.66648 89.3517
268 1 11.066 5.45308 88.4162
269 1 2.48572 4.00881 99.8112
270 1 13.7636 1.89127 97.1018
271 1 11.1124 2.08994 93.1695
272 1 11.6751 1.72017 90.4246
273 2 14.0562 1.81179 89.435
274 1 11.9684 2.94789 87.9157
275 2 3.11238 3.94891 97.4462
276 1 15.8415 3.32878 98.0708
277 1 16.3056 5.03235 95.9516
278 2 12.8458 2.7558 94.8886
279 1 13.8015 2.17952 92.228
280 2 14.1725 6.01217 94.3803
281 1 12.6131 4.48194 92.7672
282 1 13.1755 4.16255 90.0424
283 1 15.4507 3.9678 93.5044
284 1 16.1318 3.61194 90.9746
285 1 9.6498 0.153364 89.2207
286 1 14.688 5.85269 102.836
287 1 5.52435 -0.0101898 96.0081
288 2 16.9077 4.32327 102.324
289 1 16.5942 6.49344 100.857
290 1 4.8637 5.20612 99.1108
291 1 4.26307 5.75561 101.634
292 1 17.3637 6.18208 98.1772
293 1 16.9527 6.53618 93.7503
294 1 17.5193 6.18969 91.161
295 1 14.8594 5.90422 91.526
296 2 15.7675 5.6183 89.1043
297 1 5.72019 3.92301 93.8063
298 1 3.53084 5.16527 95.2228
299 1 2.83966 3.9763 92.7871
300 1 4.78507 4.6922 90.9522
301 2 4.30103 6.00398 92.9556
302 1 9.75831 5.62675 102.184
303 1 7.04518 5.83923 97.0793
304 1 7.11784 5.76401 100.912
305 1 9.03501 6.37958 98.9923
306 2 7.99975 5.38346 94.5567
307 1 6.80582 6.03214 92.2346
308 1 2.97524 4.36166 89.085
309 2 6.43148 6.33882 89.611
310 1 10.0665 6.17277 92.9952
311 2 11.5755 6.21136 90.9797
312 1 5.56657 4.53453 87.94
313 1 3.39598 1.35328 88.1163
314 1 13.1914 0.654516 87.2248
315 2 16.7049 6.36828 84.9072
316 1 18.3472 6.49803 82.8287
317 1 5.86461 2.10577 83.168
318 1 6.02429 6.5552 83.8179
319 2 0.745716 0.472511 81.3586
320 1 3.71061 5.93322 77.1792
321 1 1.58432 -0.0633045 75.2199
322 1 5.65201 6.38741 78.9594
323 1 17.9092 6.49061 74.1395
324 1 4.05281 1.30475 85.1995
325 2 8.71003 6.34285 83.0262
326 1 10.5707 6.61251 85.1041
327 1 3.05459 1.86907 82.157
328 1 5.12071 0.700986 80.7042
329 1 2.33675 1.12273 72.7078
330 1 9.2605 0.0291812 84.1831
331 2 13.5885 6.14635 81.4761
332 1 11.2532 6.30531 82.4729
333 1 7.673 0.761363 79.9804
334 2 5.61633 1.98844 78.4804
335 1 3.86055 0.378781 76.8287
336 1 8.62535 6.50822 74.2265
337 1 10.7342 6.43572 77.6904
338 1 11.4728 6.20916 75.0248
339 1 6.13715 2.05478 87.0133
340 1 16.6229 2.48892 79.9482
341 2 8.72612 0.85574 86.9108
342 2 9.98159 4.07218 86.4407
343 1 8.13459 2.47775 84.9242
344 1 11.893 1.35652 83.0307
345 1 10.9972 1.80395 85.6558
346 1 10.5937 3.77861 83.6579
347 1 8.95722 2.08986 82.1918
348 1 8.29913 2.18417 77.7198
349 1 8.93281 1.95026 75.0961
350 1 6.19166 1.89146 75.8127
351 2 7.1504 1.33551 73.11
352 1 14.6212 3.16625 87.3738
353 1 13.3017 4.03251 83.1992
354 1 12.4966 4.37218 85.6338
355 2 11.5635 3.37942 81.0666
356 1 10.3373 3.91096 78.8208
357 1 16.8757 4.56298 86.8742
358 1 2.64037 4.0473 84.1872
359 1 16.5148 6.43776 77.9946
360 1 10.3122 1.06012 79.4378
361 1 12.6601 2.50375 78.7573
362 1 13.5706 6.55544 76.8999
363 1 11.408 0.427789 74.9473
364 2 10.8678 2.07607 77.0011
365 1 1.47128 1.99389 85.8209
366 1 15.6682 5.33244 82.8871
367 2 15.2002 4.1104 85.0577
368 1 13.9431 2.13765 81.029
369 1 14.0429 1.84724 84.861
370 1 15.9066 2.52977 83.0162
371 2 14.8417 1.24188 78.6357
372 1 13.4624 1.90207 76.168
373 1 15.0116 3.8344 77.83
374 1 12.815 5.2251 79.2461
375 1 9.49775 -0.0458335 73.1061
376 1 11.2343 3.38751 74.8599
377 2 13.0348 2.11772 73.688
378 1 13.8013 4.53437 74.867
379 2 12.327 4.33834 76.9952
380 1 11.0649 3.05588 72.097
381 1 4.07127 3.34889 79.84
382 1 1.46788 1.8626 77.1482
383 1 2.58283 3.75517 73.1927
384 1 15.5449 2.49684 74.1628
385 2 3.02746 2.09651 75.0282
386 1 12.1399 0.34455 71.971
387 1 14.6425 5.91446 86.7009
388 1 3.95216 5.83694 85.8948
389 2 3.67659 3.35332 86.6219
390 2 17.528 4.21901 81.6443
391 1 15.4854 4.9143 80.1604
392 1 8.20595 5.21384 87.8849
393 1 5.63677 3.91033 85.077
394 2 7.32613 4.2028 83.104
395 1 4.63728 4.56624 82.2323
396 1 6.78352 3.27329 80.7549
397 1 18.3241 6.01187 80.0972
398 1 6.85964 5.79478 81.2935
399 2 4.22786 4.44779 75.1038
400 1 16.9066 4.40289 75.7417
401 1 3.93863 3.0764 77.1664
402 1 4.83619 5.39455 72.8505
403 1 8.28052 5.16308 85.2233
404 2 6.401 6.38586 86.4356
405 2 17.5013 4.17592 78.3916
406 2 15.7074 4.99986 73.388
407 1 9.23647 4.61894 81.2742
408 1 6.3161 4.45319 77.01
409 1 6.87703 4.17404 74.4172
410 2 9.28056 4.0546 73.5908
411 1 7.49036 5.44304 72.0317
412 2 8.12227 5.30067 78.946
413 1 8.9502 4.69575 76.2884
414 1 4.91 2.55951 73.2512
415 2 5.27553 6.49243 70.4973
416 1 5.84231 6.32698 67.8612
417 1 10.0726 5.62064 71.3837
418 1 8.54915 6.43381 66.9994
419 1 3.88538 0.0400813 69.6941
420 2 6.82913 5.77224 65.1715
421 1 1.87967 0.131502 62.6978
422 1 8.26805 0.455141 70.907
423 1 13.1545 6.56087 68.2518
424 1 8.11117 5.354 62.8809
425 1 7.04209 1.24787 67.0695
426 2 10.5797 6.56825 69.0775
427 1 6.42251 0.0904484 61.8922
428 1 4.3406 1.42846 63.4206
429 1 6.84869 6.14064 58.982
430 1 5.51211 0.727972 58.9372
431 2 3.97849 0.463946 60.9988
432 1 6.62346 5.69343 56.3815
433 1 14.6251 5.70507 63.7999
434 1 13.5685 6.72276 57.1237
435 1 11.2091 5.49712 58.1461
436 1 13.7943 3.84756 72.0231
437 1 5.81508 1.70168 70.7894
438 1 10.4806 1.64352 69.8985
439 1 8.3817 3.13056 71.3349
440 2 14.3002 5.77247 70.6561
441 2 7.89356 2.26131 69.0808
442 1 9.76166 2.44264 67.0429
443 2 8.89029 0.2513 65.6494
444 1 7.19026 1.53503 64.3181
445 1 14.9118 1.0708 71.7051
446 1 16.3316 6.52749 69.1627
447 1 16.6855 4.66465 67.1044
448 2 13.965 0.105453 66.9431
449 1 12.6626 2.3572 67.7911
450 1 11.4871 0.456817 66.2326
451 1 17.3878 5.88845 64.5177
452 1 10.0413 1.7757 63.8864
453 1 13.6897 1.79152 65.1175
454 2 11.5599 3.17054 65.3311
455 1 10.5571 2.15162 61.091
456 2 11.2366 0.716908 58.9209
457 1 12.4839 2.79576 59.2832
458 1 8.53975 0.587795 59.8241
459 1 14.6791 6.03351 61.1422
460 1 12.6772 2.6968 62.8563
461 1 9.72395 2.72082 58.1022
462 1 11.6562 1.6126 56.5594
463 1 15.0021 1.02248 69.0476
464 2 13.0857 2.12536 70.3457
465 1 14.6826 3.82949 69.1217
466 2 15.3948 2.54356 67.0841
467 1 2.05199 2.32788 68.9529
468 1 13.8183 4.54367 66.3579
469 1 15.9485 3.40916 64.712
470 2 8.78693 0.383035 62.4339
471 2 7.48157 1.33202 57.3444
472 1 13.3794 3.95261 56.9157
473 1 4.63697 2.55598 68.2935
474 1 0.694438 0.684163 65.3421
475 1 13.1628 0.607406 61.0655
476 1 13.7767 0.569948 58.4022
477 2 0.792726 0.177682 57.5303
478 1 14.2506 1.54087 56.0384
479 2 5.37349 2.60189 65.5384
480 1 2.82499 2.19004 66.4033
481 1 3.238 3.61556 64.0467
482 2 14.9938 1.28092 62.9668
483 1 15.9299 0.779349 60.2603
484 2 16.3982 4.58029 62.5043
485 1 14.9041 3.31327 60.8742
486 1 15.6373 2.83824 58.233
487 1 2.39676 2.61382 61.5561
488 1 2.96807 2.22015 59.0499
489 1 15.8852 5.45675 57.2418
490 1 16.6988 4.32448 71.0149
491 1 11.7866 5.28356 64.0839
492 2 3.85831 3.08235 70.9596
493 1 3.41674 4.91855 68.9254
494 1 7.09721 3.85035 67.1168
495 1 6.30184 4.31332 69.6699
496 1 4.23886 4.71536 66.2921
497 1 3.72731 5.221 61.8632
498 1 4.5451 4.71469 59.1203
499 1 17.1514 4.58134 59.8023
500 2 2.55735 3.97538 57.102
501 1 7.94828 2.74657 61.9224
502 1 5.86497 3.97601 63.2662
503 1 5.19883 2.60694 61.0394
504 1 7.15202 3.29669 58.9402
505 2 6.38225 4.78019 60.9788
506 1 12.0729 4.46489 69.8407
507 1 9.18503 4.25238 65.0394
508 1 9.43796 4.32895 69.0236
509 1 11.1461 5.14736 66.99
510 2 10.2417 4.10831 62.5889
511 1 9.26953 4.79781 60.2081
512 1 5.14419 2.97958 57.0622
513 2 8.69556 5.02488 57.562
514 1 12.2594 4.84541 61.1265
515 2 13.9386 4.8776 59.0581
516 1 7.91478 3.28987 55.9252
517 1 5.40538 0.123573 56.0559
518 1 3.8538 5.83681 55.2468
519 2 3.32652 4.85895 53.0322
520 1 5.06553 5.09219 50.9343
521 1 8.0637 0.571047 51.2331
522 1 8.15858 5.24671 51.861
523 2 7.05552 5.85147 49.4541
524 1 5.99036 4.68096 45.1534
525 1 7.83959 5.45342 42.9312
526 1 8.06517 5.57504 46.7793
527 1 5.09035 5.39484 42.1304
528 1 6.17497 -0.0574655 53.0719
529 2 10.8487 5.18303 50.8495
530 1 12.7492 5.05811 52.7876
531 1 5.29179 0.601669 50.1591
532 1 11.4123 5.92766 48.5194
533 1 8.95148 6.62842 40.6453
534 1 15.4595 5.29999 52.1901
535 2 16.1602 5.21424 49.5408
536 1 13.4487 4.78927 50.1099
537 1 14.0637 6.38676 48.0086
538 2 7.98242 0.957017 46.513
539 1 9.89031 5.60739 44.7951
540 1 10.8714 5.50658 42.4362
541 1 12.9926 5.23069 45.7636
542 1 13.662 4.79409 43.1407
543 1 8.09611 0.250725 54.9295
544 1 3.15479 1.31326 48.1204
545 2 14.447 5.74494 54.9361
546 2 12.4116 2.93986 54.5274
547 1 10.2111 1.06969 52.9417
548 1 13.7547 -0.0949525 51.1767
549 1 13.1745 0.348143 53.8694
550 1 12.6085 2.342 51.7436
551 1 10.8234 0.617254 50.4125
552 1 10.4777 0.903207 45.6896
553 1 11.2553 0.50544 43.1088
554 1 8.51751 0.512918 43.7549
555 2 13.4491 6.60159 41.0279
556 1 1.4173 1.57057 55.4636
557 1 15.3856 2.36044 50.9835
558 1 14.7504 2.79771 53.7014
559 2 13.6168 1.7395 49.1285
560 1 12.4199 2.52765 46.7235
561 1 3.55898 3.13091 54.8825
562 1 4.71073 2.73871 52.345
563 1 3.42069 5.24109 45.7443
564 1 16.6773 6.47965 47.3253
565 1 14.8978 1.29607 46.8506
566 1 15.7768 5.14948 45.0731
567 1 17.676 5.73035 42.9975
568 2 13.1914 0.444078 44.9848
569 1 3.62495 0.586414 53.7973
570 1 17.6915 3.91261 50.9894
571 2 2.0048 2.4735 53.0346
572 1 0.584405 0.242973 49.0147
573 1 0.805647 0.368343 52.9917
574 1 2.6759 1.13805 50.9704
575 2 5.62913 6.76363 46.5433
576 1 16.0223 0.64768 44.1029
577 1 1.75717 2.74082 45.7571
578 1 15.075 3.9041 47.6196
579 1 15.5811 5.13117 41.157
580 1 13.5048 2.03129 43.0235
581 2 15.3344 0.871591 41.5116
582 1 16.122 3.29756 43.1362
583 2 14.4883 2.93819 45.2781
584 1 14.3026 2.86876 40.6775
585 1 6.0815 1.73163 47.8252
586 1 3.58597 0.771272 45.064
587 1 4.88089 2.78193 40.9877
588 1 2.70577 1.20743 41.9168
589 2 5.07472 1.02748 43.0059
590 1 12.8597 0.815745 40.8269
591 1 16.6803 4.45922 54.7325
592 1 6.04778 4.72935 53.8843
593 2 5.88531 2.08065 54.7137
594 2 4.36474 2.94869 49.6199
595 1 2.56954 4.11502 48.1884
596 1 10.6666 4.25148 55.8323
597 1 7.86684 2.62871 53.1633
598 2 9.30764 2.92157 51.0814
599 1 6.89041 3.23358 50.2225
600 1 8.80341 1.98942 48.7839
601 1 5.5703 4.48986 47.8602
602 1 9.0778 4.66869 49.1729
603 2 6.42376 3.40069 43.1082
604 1 3.82623 3.31549 43.5915
605 1 6.20976 1.79084 44.9676
606 1 7.28256 4.11466 40.6555
607 1 10.4523 3.83321 53.0634
608 2 8.48293 5.02231 54.3355
609 2 4.29334 2.93827 46.3972
610 2 2.30319 3.6963 41.0866
611 1 11.2918 3.12415 49.277
612 1 8.41015 3.26626 44.9531
613 1 9.24823 2.94412 42.3262
614 2 11.8132 3.08135 41.5368
615 1 10.1401 4.22344 40.2655
616 2 10.2057 4.00525 46.9089
617 1 11.1902 3.34048 44.3051
618 1 7.25908 1.38172 41.3934
ITEM: TIMESTEP
1100
ITEM: NUMBER OF ATOMS
618
ITEM: BOX BOUNDS xy xz yz pp pp ff
0.0000000000000000e+00 1.9317770367296919e+01 4.0025167278329121e+00
0.0000000000000000e+00 6.6702723500479264e+00 0.0000000000000000e+00
0.0000000000000000e+00 1.0921147561319708e+02 0.0000000000000000e+00
ITEM: ATOMS id type x y z
1 1 4.48464 6.19493 5.60041
2 1 6.44856 6.36119 8.20199
3 1 4.79371 6.15836 12.8003
4 1 5.67893 0.160193 6.01629
5 1 4.04544 0.0492532 10.4873
6 1 6.55574 6.55855 15.1128
7 1 4.5542 6.22156 19.9592
8 1 12.4323 5.8801 5.83325
9 1 7.41012 0.593753 8.36357
10 1 5.6065 0.283767 12.9981
11 1 3.87974 0.206815 17.6088
12 1 2.22712 -0.0622925 22.1067
13 1 4.54437 6.26577 26.9683
14 1 10.6254 1.09692 5.91511
15 1 14.1248 6.30489 8.22031
16 1 9.02469 0.891858 10.5778
17 1 12.5715 6.18433 13.0587
18 1 7.42794 0.873618 15.3504
19 1 5.63525 0.495491 19.8125
20 1 3.84005 0.0497892 24.5547
21 1 2.43391 0.051258 29.2331
22 1 4.49646 6.19145 33.8896
23 1 13.2369 0.266484 5.81437
24 1 12.8461 2.89329 5.85781
25 1 12.2762 1.56198 8.24795
26 1 11.6858 -0.0112223 10.6402
27 1 11.3608 2.75101 10.5966
28 1 10.6465 1.42597 13.0119
29 1 14.1677 6.4256 15.257
30 1 9.14024 1.19618 17.5781
31 1 12.3939 6.41735 19.7362
32 1 7.20087 0.800634 22.0659
33 1 5.47479 0.535318 26.8154
34 1 3.8175 0.144431 31.6382
35 1 6.03026 6.31252 36.1751
36 1 15.6924 2.15967 5.73232
37 1 15.2076 0.575445 8.21738
38 1 14.635 3.32535 8.35678
39 1 13.8799 1.83248 10.6363
40 1 13.3155 0.306696 13
41 1 12.8843 3.32433 12.9498
42 1 12.1785 1.78294 15.312
43 1 11.9503 0.352968 17.5379
44 1 11.3002 3.16021 17.6288
45 1 10.6057 1.63719 19.8362
46 1 10.0901 -0.0481505 22.0118
47 1 8.88942 1.12958 24.5927
48 1 12.1698 6.33022 26.8765
49 1 7.00448 1.02257 29.1548
50 1 5.3788 0.45646 33.7659
51 1 7.29307 6.22278 38.4078
52 1 3.01758 1.23298 5.70287
53 1 2.44707 4.04235 5.63596
54 1 2.10309 2.63057 8.16878
55 1 1.28891 1.07374 10.4408
56 1 16.3079 3.9558 10.6682
57 1 15.4894 2.27595 13.0269
58 1 15.0142 0.947269 15.2622
59 1 14.6526 3.70045 15.1896
60 1 13.8952 2.23358 17.5787
61 1 13.158 0.74849 19.9367
62 1 12.8455 3.54866 19.8812
63 1 12.3571 1.85099 22.2838
64 1 11.7364 0.292357 24.628
65 1 11.195 3.09921 24.5276
66 1 10.5911 1.66209 26.8657
67 1 13.8917 6.60238 29.1914
68 1 8.84631 1.28059 31.5938
69 1 12.3002 6.23383 33.7932
70 1 7.15768 0.676167 36.1798
71 1 5.24625 3.11522 5.71705
72 1 4.76255 1.56552 8.22111
73 1 4.21518 4.50017 8.0387
74 1 3.70484 2.75836 10.6606
75 1 2.88512 1.2234 12.8315
76 1 17.9638 4.14806 12.8977
77 1 1.9756 2.59631 15.1598
78 1 1.38329 1.282 17.6166
79 1 16.3258 4.17754 17.4215
80 1 15.5138 2.50347 19.8051
81 1 15.01 0.89061 22.1423
82 1 14.5837 3.69916 22.1229
83 1 13.8757 2.09297 24.5858
84 1 13.14 0.635642 27.0372
85 1 12.7234 3.4327 26.7138
86 1 12.2253 1.95066 29.2323
87 1 11.6772 0.241035 31.5058
88 1 11.2326 3.15447 31.5712
89 1 10.5642 1.45892 33.8799
90 1 13.916 6.45571 36.2412
91 1 8.56945 0.985962 38.6808
92 1 7.94131 2.10675 5.90331
93 1 7.40206 5.00582 5.86701
94 1 6.80515 3.44172 8.36718
95 1 6.25591 1.8185 10.5209
96 1 5.8148 4.89972 10.5506
97 1 5.43224 3.28451 12.8458
98 1 4.71955 1.70162 15.1363
99 1 4.18539 4.59072 15.1129
100 1 3.5771 3.07367 17.569
101 1 2.88968 1.599 19.8834
102 1 17.732 4.49001 19.7773
103 1 1.80817 2.81567 22.0786
104 1 1.11677 1.1483 24.3813
105 1 16.0344 4.08197 24.4631
106 1 15.4242 2.61212 26.8634
107 1 14.9322 0.86558 29.2525
108 1 14.5177 3.79066 29.0801
109 1 13.9427 2.16563 31.6486
110 1 13.2691 0.443743 33.7776
111 1 12.7652 3.39547 33.8807
112 1 12.4082 1.5983 36.1189
113 1 15.0203 6.39589 38.8855
114 1 11.0455 2.55107 38.3454
115 1 10.2174 3.91362 5.95345
116 1 9.59823 2.54555 8.38994
117 1 9.08858 5.38339 8.25842
118 1 8.5883 3.78111 10.7603
119 1 7.921 2.15981 12.9916
120 1 7.55659 5.24874 12.8344
121 1 6.78623 3.6236 15.1421
122 1 6.20321 2.10154 17.576
123 1 5.71941 4.93754 17.6467
124 1 5.03814 3.38827 19.8516
125 1 4.51134 1.68223 22.0661
126 1 3.90351 4.55318 22.1399
127 1 3.33415 3.01807 24.4858
128 1 2.75263 1.49653 26.8928
129 1 17.6315 4.26744 26.8424
130 1 1.72997 2.88211 29.4062
131 1 1.15864 1.01241 31.5449
132 1 16.0394 4.00349 31.5867
133 1 15.5117 2.47429 33.9784
134 1 14.8622 0.665809 36.3772
135 1 14.2621 3.6639 36.2709
136 1 13.8118 2.06053 38.4806
137 1 11.7145 4.38628 8.38551
138 1 10.9114 5.64303 10.5908
139 1 10.1872 4.20454 12.8978
140 1 9.52977 2.70172 15.2231
141 1 9.04438 5.5023 15.3051
142 1 8.52143 4.05028 17.5437
143 1 7.83143 2.51894 19.8601
144 1 7.49021 5.25098 19.9793
145 1 6.79332 3.70187 22.1304
146 1 6.10634 2.09034 24.2992
147 1 5.57552 4.94045 24.4433
148 1 5.00593 3.40856 26.897
149 1 4.30849 1.95265 29.4445
150 1 4.04945 4.6593 29.4157
151 1 3.44413 2.9945 31.8502
152 1 2.65243 1.4107 34.0048
153 1 17.6944 4.23345 34.1495
154 1 17.0353 2.61756 36.6464
155 1 1.00592 0.845314 39.0262
156 1 15.9405 3.84125 38.8739
157 1 15.0986 4.95366 5.72583
158 1 13.539 4.60933 10.6106
159 1 11.7818 4.51039 15.2193
160 1 10.7117 5.97928 17.4568
161 1 10.1354 4.44701 19.9411
162 1 9.60048 2.64552 22.2681
163 1 8.96365 5.59888 22.3042
164 1 8.39602 4.09121 24.4781
165 1 7.6634 2.56786 26.807
166 1 7.28406 5.40704 26.9886
167 1 6.67314 3.7103 29.1207
168 1 6.16826 2.11234 31.5338
169 1 5.64611 4.95916 31.5686
170 1 4.98304 3.30278 33.9524
171 1 4.33306 1.70982 36.507
172 1 3.84419 4.63482 36.3524
173 1 3.18601 2.80638 39.0021
174 1 16.9024 5.27393 8.1255
175 1 15.3366 5.13906 12.8256
176 1 13.5667 5.01988 17.5242
177 1 11.804 4.70159 22.1434
178 1 10.5931 5.92276 24.412
179 1 9.99738 4.32685 26.8358
180 1 9.58482 2.83794 29.2268
181 1 8.98397 5.602 29.0899
182 1 8.30457 4.02502 31.431
183 1 7.69041 2.21568 34.0125
184 1 7.20677 5.24929 33.8734
185 1 6.4051 3.53642 36.2698
186 1 6.12178 2.18243 38.7518
187 1 5.09592 4.68111 38.9227
188 1 18.5052 5.66021 10.6226
189 1 16.8863 5.5121 15.0644
190 1 15.1944 5.41305 19.8159
191 1 13.4956 4.97691 24.3912
192 1 11.6354 4.71898 29.2791
193 1 10.4725 5.96282 31.5038
194 1 10.0066 4.1934 33.7916
195 1 9.4125 2.44661 36.1084
196 1 8.84953 5.37903 35.9845
197 1 8.46111 3.74683 38.1169
198 1 18.4745 5.99116 17.432
199 1 16.8432 5.68174 22.1459
200 1 14.9543 5.40889 26.8463
201 1 13.4246 5.10508 31.4268
202 1 11.5474 4.40539 36.1869
203 1 10.2432 5.89643 38.2831
204 1 18.1951 5.79714 24.5772
205 1 16.8426 5.76786 29.1781
206 1 15.0098 5.23674 33.9025
207 1 12.7876 4.76142 38.9323
208 1 18.2804 5.93644 31.5849
209 1 16.4517 5.30988 36.4361
210 1 17.8194 5.69196 39.0033
211 2 14.5737 1.36024 102.448
212 1 15.0456 1.12359 99.6039
213 1 3.64366 0.413618 103.292
214 1 2.46577 1.27103 98.949
215 1 1.67008 1.66894 101.615
216 2 0.573177 0.546564 97.0115
217 1 14.8252 1.44022 94.8062
218 1 6.09594 1.85797 102.943
219 1 6.97332 1.36655 100.293
220 1 1.8731 0.171744 94.8574
221 1 4.77501 2.7427 98.9371
222 2 4.42426 1.29842 100.983
223 1 4.26104 1.38253 93.8885
224 1 2.024 2.80509 95.2353
225 1 0.572297 0.870902 90.8863
226 1 3.08983 1.91491 90.8536
227 2 1.59528 1.84387 92.9085
228 1 0.481831 0.594601 88.2718
229 1 8.36202 0.404076 95.7586
230 1 7.21513 1.36874 89.203
231 1 4.92775 0.0998202 90.0076
232 1 12.1519 4.54155 103.41
233 1 3.77866 3.32162 102.792
234 1 8.42757 3.15177 101.886
235 1 6.10706 4.62396 103.458
236 2 8.05392 0.457135 102.546
237 2 5.75611 3.66564 101.133
238 1 7.34657 3.91337 98.9558
239 2 6.6403 1.69435 97.6314
240 1 4.82706 2.81445 96.2584
241 1 12.3937 1.7455 103.504
242 1 10.2918 1.49366 101.27
243 1 14.2623 6.12558 99.0391
244 2 11.5562 1.55553 98.9626
245 1 10.4098 3.81589 99.7567
246 1 9.04223 1.82391 98.069
247 1 11.1884 0.592478 96.5985
248 1 7.68591 3.20903 95.9611
249 1 11.447 3.25119 97.0606
250 2 9.34019 4.49412 97.3337
251 1 8.3406 3.43643 93.1438
252 2 8.90737 2.1025 90.9748
253 1 10.1575 4.20795 91.1878
254 1 6.4167 1.80537 91.6814
255 1 8.58953 0.604842 93.0837
256 1 10.2469 3.91735 94.9814
257 1 7.47934 4.05991 90.2222
258 1 9.50379 2.8109 88.7441
259 1 12.9081 2.46904 100.959
260 2 10.9047 3.37809 102.339
261 1 12.5742 5.2412 100.92
262 2 13.0097 3.91376 98.8693
263 1 15.1962 3.98472 100.699
264 1 11.4248 5.9369 98.2002
265 1 13.7251 4.77323 96.6787
266 2 6.52782 1.74139 94.4247
267 2 5.12837 2.57837 89.4221
268 1 11.0007 5.28124 88.6697
269 1 2.62189 4.1452 100.051
270 1 13.6995 1.86067 97.2634
271 1 10.8762 2.04444 92.8833
272 1 11.5187 1.46318 90.3259
273 2 13.9608 1.61456 89.5722
274 1 12.0971 3.00803 88.055
275 2 3.14082 3.81584 97.5186
276 1 15.7504 3.46624 98.1393
277 1 16.4323 5.02475 95.9275
278 2 12.7039 2.7481 94.8785
279 1 13.511 2.06064 92.1938
280 2 14.1488 5.89729 94.4621
281 1 12.2942 4.60016 92.9464
282 1 13.0778 4.21512 90.363
283 1 15.2282 3.82368 93.495
284 1 16.0263 3.55623 91.0079
285 1 9.52907 0.0928914 89.2019
286 1 14.8228 5.82378 102.879
287 1 5.55725 -0.0776439 95.9196
288 2 17.0239 4.50074 102.611
289 1 16.5332 6.50579 100.838
290 1 5.03752 5.49554 99.1048
291 1 4.39221 5.79912 101.683
292 1 17.1433 6.05525 98.2904
293 1 16.8316 6.47514 93.6762
294 1 17.6401 5.9522 91.1608
295 1 14.8826 5.90766 91.7568
296 2 15.8961 5.46109 89.1228
297 1 5.7509 4.16493 93.9277
298 1 3.63676 5.23145 95.208
299 1 3.03446 3.89531 92.8628
300 1 4.92855 4.52917 90.9937
301 2 4.14261 6.1958 92.9743
302 1 9.82028 5.73963 101.839
303 1 6.90065 5.77094 97.0827
304 1 7.25738 5.74417 100.996
305 1 8.84508 6.64307 98.7776
306 2 7.9661 5.36951 94.6623
307 1 6.92526 6.21157 92.2368
308 1 2.92162 3.99492 89.1699
309 2 6.45507 6.31684 89.5838
310 1 9.86874 6.12264 92.9775
311 2 11.4646 6.26892 90.9168
312 1 5.55906 4.57782 88.0686
313 1 3.22991 1.37216 88.048
314 1 13.1216 0.635762 87.241
315 2 16.5604 6.49044 84.9445
316 1 18.2181 6.49974 82.8477
317 1 6.02225 2.07039 83.3183
318 1 6.08544 6.52508 83.7345
319 2 0.873427 0.465996 81.4353
320 1 3.67582 5.99968 77.1818
321 1 1.63199 0.0956063 75.1909
322 1 5.7614 6.52794 78.9783
323 1 17.9959 6.63736 74.3456
324 1 4.05911 1.39783 85.1687
325 2 8.71492 6.60366 83.1187
326 1 10.7532 6.57019 85.0785
327 1 3.1903 1.89866 82.2486
328 1 5.41307 0.775572 81.0238
329 1 2.47221 1.33122 72.7891
330 1 9.38911 0.0677051 84.2528
331 2 13.7644 6.23892 81.7075
332 1 11.3156 6.03366 82.4664
333 1 7.70914 0.767786 80.1413
334 2 5.75037 1.85807 78.6508
335 1 3.8173 0.43398 77.0233
336 1 8.51562 6.68632 74.3405
337 1 10.8413 6.41639 77.6464
338 1 11.4639 6.04485 75.0136
339 1 5.92414 1.79695 86.9448
340 1 16.4737 2.42981 79.9728
341 2 8.51874 0.92224 86.9578
342 2 10.0444 3.86481 86.5709
343 1 8.19023 2.51617 84.9233
344 1 11.7202 1.50165 83.0715
345 1 11.047 1.88462 85.6829
346 1 10.5657 3.90044 83.8224
347 1 8.83884 1.97601 82.2119
348 1 8.26564 2.23383 77.895
349 1 8.85607 1.87275 75.2778
350 1 6.19696 1.87703 75.9337
351 2 7.16447 1.336 73.1689
352 1 14.6368 3.18644 87.3784
353 1 13.3368 4.01137 83.2151
354 1 12.7895 4.47631 85.8125
355 2 11.6246 3.56272 81.183
356 1 10.1967 3.95037 78.7888
357 1 17.0469 4.61965 86.7961
358 1 2.56592 4.14377 84.2388
359 1 16.4349 6.5402 77.8923
360 1 10.3611 1.05609 79.6361
361 1 12.5279 2.50125 78.9289
362 1 13.5877 6.48205 77.0186
363 1 11.4432 0.469079 75.019
364 2 10.907 1.85877 77.1313
365 1 1.4442 1.99578 85.9048
366 1 15.5582 5.41294 82.9371
367 2 15.3368 3.9408 84.9576
368 1 13.9116 2.12318 81.1882
369 1 13.7851 1.91443 84.7969
370 1 15.9203 2.57336 82.9621
371 2 14.6845 1.36192 78.7047
372 1 13.5828 1.92136 76.3612
373 1 14.7983 3.90652 77.9113
374 1 12.7478 5.25627 79.3324
375 1 9.60958 -0.0467466 73.1697
376 1 11.1507 3.24539 75.1197
377 2 13.1821 2.20916 73.64
378 1 13.8669 4.54744 74.9748
379 2 12.3054 4.30925 77.073
380 1 11.1077 3.13145 72.3227
381 1 3.94893 3.20618 79.7615
382 1 1.29857 2.04382 77.1826
383 1 2.61145 3.97987 73.3811
384 1 15.6471 2.51109 74.2753
385 2 3.00637 2.09721 75.1794
386 1 12.2595 0.430331 72.0467
387 1 14.663 6.01035 86.8223
388 1 3.923 6.10303 85.8118
389 2 3.82678 3.38967 86.6329
390 2 17.3972 4.19884 81.6741
391 1 15.4821 5.13169 80.2692
392 1 8.25169 5.32664 87.6395
393 1 5.70932 3.99553 85.1969
394 2 7.40776 4.16826 83.0246
395 1 4.65746 4.5476 82.124
396 1 6.83087 3.24715 80.686
397 1 18.3819 5.86161 80.084
398 1 6.88376 5.87363 81.1492
399 2 4.30162 4.61922 75.1191
400 1 17.0934 4.43471 75.8272
401 1 4.03812 3.13144 77.0998
402 1 4.82479 5.42616 72.8063
403 1 8.38756 5.18837 85.1314
404 2 6.43274 6.28202 86.3383
405 2 17.2755 4.26868 78.4702
406 2 15.8056 5.1109 73.4994
407 1 9.2686 4.56786 81.3601
408 1 6.29676 4.50691 77.0139
409 1 6.94192 4.23989 74.5422
410 2 9.28172 4.21738 73.6982
411 1 7.29401 5.35452 72.0263
412 2 8.13829 5.11413 78.9945
413 1 8.99172 4.79252 76.348
414 1 4.96625 2.62548 73.3872
415 2 5.4097 6.60584 70.4918
416 1 5.96195 6.44959 67.833
417 1 9.91784 5.5999 71.3303
418 1 8.5775 6.47674 67.0102
419 1 3.99401 0.387214 69.8751
420 2 6.80278 5.77259 65.1218
421 1 1.9089 0.143572 62.7518
422 1 8.25752 0.380394 70.9029
423 1 13.1679 6.46394 68.2572
424 1 8.07936 5.34227 62.9073
425 1 6.90513 1.24155 66.8796
426 2 10.5859 6.40114 68.9779
427 1 6.43699 0.110389 61.7641
428 1 4.53939 1.38381 63.277
429 1 6.84228 6.2141 58.8364
430 1 5.44171 0.503514 58.9489
431 2 3.90958 0.432055 60.9417
432 1 6.62678 5.76936 56.2168
433 1 14.5615 5.61518 63.7971
434 1 13.5218 6.9074 57.1049
435 1 11.2458 5.33225 58.2769
436 1 13.9747 3.91882 72.1137
437 1 6.05484 1.78118 70.7533
438 1 10.5449 1.9595 69.8512
439 1 8.54435 3.02622 71.1697
440 2 14.5261 5.85974 70.7044
441 2 8.05342 2.10027 68.8855
442 1 9.44822 2.35666 66.811
443 2 8.84435 0.142828 65.5672
444 1 7.22769 1.68327 64.2227
445 1 15.0843 1.19105 71.8673
446 1 16.3253 6.63633 69.2095
447 1 16.4409 4.66093 67.0841
448 2 13.8559 0.0973354 67.0929
449 1 12.6443 2.30501 67.8595
450 1 11.3285 0.560911 66.1428
451 1 17.3365 5.805 64.5943
452 1 9.98331 1.81887 63.9825
453 1 13.5793 1.83956 65.1385
454 2 11.5489 3.11242 65.4877
455 1 10.6232 2.0386 61.1976
456 2 11.1623 0.727644 59.0563
457 1 12.4393 2.85669 58.8943
458 1 8.51034 0.540609 59.7724
459 1 15.0891 5.9093 61.0511
460 1 12.6681 2.94158 62.9862
461 1 9.56612 2.68251 58.1546
462 1 11.7105 1.55295 56.57
463 1 15.1063 0.924244 69.2248
464 2 13.1423 2.13966 70.4936
465 1 14.6198 3.85017 69.0739
466 2 15.3172 2.36286 66.976
467 1 1.90604 2.60041 68.7516
468 1 13.7398 4.4709 66.1762
469 1 16.0792 3.35525 64.7721
470 2 8.95733 0.332281 62.3902
471 2 7.28575 1.24297 57.4162
472 1 13.3844 4.10175 56.6708
473 1 4.58652 2.61622 68.2484
474 1 0.527267 0.422425 65.2742
475 1 13.1343 0.83015 61.0231
476 1 13.6667 0.323188 58.2645
477 2 0.834602 0.387207 57.6038
478 1 14.2736 1.65869 55.9895
479 2 5.12505 2.50489 65.5174
480 1 2.58728 1.81419 66.3313
481 1 3.2206 3.50527 63.9458
482 2 14.9793 1.46398 62.8465
483 1 15.8387 0.836112 60.2124
484 2 16.4617 4.65135 62.5302
485 1 14.5791 3.30218 60.9889
486 1 15.3449 2.82866 58.2527
487 1 2.4363 2.52385 61.5908
488 1 3.08847 2.16553 58.9175
489 1 15.7348 5.38996 57.2648
490 1 16.6892 4.4746 70.9206
491 1 11.583 5.36893 64.0955
492 2 3.5339 2.97714 70.8826
493 1 3.55346 5.01573 68.9403
494 1 6.98965 3.84376 67.1083
495 1 6.49144 4.39549 69.6743
496 1 4.03635 4.54272 66.3682
497 1 3.78789 5.12904 61.7049
498 1 4.57541 4.73796 59.1697
499 1 17.0551 4.40951 59.7642
500 2 2.82301 4.29874 57.1399
501 1 8.0056 2.67064 61.6789
502 1 5.7817 3.81712 63.2202
503 1 5.24861 2.57588 60.7106
504 1 7.19606 3.43357 58.919
505 2 6.42979 4.80533 60.9678
506 1 12.0825 4.50334 70.0269
507 1 9.10534 4.27816 65.167
508 1 9.29058 4.32598 68.8242
509 1 11.2639 5.15003 66.8934
510 2 10.2794 3.97423 62.653
511 1 9.09494 4.82533 60.3864
512 1 5.26897 2.79934 57.0312
513 2 8.66535 4.96119 57.5596
514 1 12.3292 4.83329 61.1431
515 2 13.6967 5.06819 59.0476
516 1 7.92763 3.18461 55.8773
517 1 5.45408 0.104272 56.0792
518 1 3.83223 5.91333 55.3177
519 2 3.49105 4.90315 53.083
520 1 5.13428 5.06658 51.0062
521 1 8.01588 0.540795 50.962
522 1 8.12393 5.02732 51.8412
523 2 6.90373 5.81414 49.2654
524 1 5.90895 4.75501 44.9395
525 1 8.04263 5.38853 42.9668
526 1 7.94456 5.34918 46.8219
527 1 5.15852 5.40353 42.1832
528 1 6.20807 -0.0555195 53.1066
529 2 10.8031 5.09574 51.0009
530 1 12.7805 5.30104 52.8273
531 1 5.18741 0.486772 50.0552
532 1 11.3107 5.97581 48.4621
533 1 8.87084 6.75729 40.4264
534 1 15.5461 5.25874 52.188
535 2 15.9727 5.19317 49.627
536 1 13.5573 4.77227 50.1442
537 1 13.9801 6.25389 48.0306
538 2 8.09499 1.02318 46.3947
539 1 10.0747 5.93981 45.1008
540 1 10.7534 5.49538 42.4949
541 1 12.8821 5.04669 45.885
542 1 13.6988 4.85753 43.1547
543 1 8.1266 0.475333 54.9484
544 1 3.08679 1.29877 48.0704
545 2 14.6362 5.78145 54.891
546 2 12.3592 3.04516 54.4601
547 1 10.2109 0.95539 52.9516
548 1 13.8922 0.00873696 51.1221
549 1 13.0703 0.367168 53.8376
550 1 12.7239 2.55786 51.8878
551 1 11.007 0.722363 50.4796
552 1 10.474 1.14608 45.6712
553 1 11.1562 0.58859 43.1721
554 1 8.48604 0.51422 43.8826
555 2 13.3602 6.69506 41.2103
556 1 1.50969 1.71618 55.3259
557 1 15.3966 2.36891 50.9173
558 1 14.8568 2.98684 53.5818
559 2 13.4206 1.61739 49.1268
560 1 12.4249 2.52896 46.9152
561 1 3.8916 3.19584 54.86
562 1 4.68022 2.42521 52.2503
563 1 3.3385 5.18514 45.8591
564 1 16.505 6.46147 47.3913
565 1 14.7408 1.20332 46.8975
566 1 15.6162 5.23697 45.1063
567 1 17.6633 5.90115 43.1615
568 2 13.0094 0.716056 45.1455
569 1 3.71597 0.47771 53.851
570 1 17.6887 4.01885 51.005
571 2 2.11878 2.46628 52.9551
572 1 0.585759 0.402771 49.0652
573 1 0.767988 0.488134 52.9656
574 1 2.67553 0.980872 51.0258
575 2 5.57866 6.62444 46.6588
576 1 15.6232 0.766804 44.2862
577 1 1.64367 2.71568 45.9414
578 1 15.0399 3.85233 47.6324
579 1 15.7203 5.35981 41.1797
580 1 13.5125 2.13771 43.0152
581 2 15.2159 0.775695 41.3831
582 1 16.11 3.29128 43.2808
583 2 14.5141 3.08244 45.1842
584 1 14.3285 3.29038 40.7999
585 1 6.01869 1.62365 47.7331
586 1 3.41507 0.632172 44.8622
587 1 4.90666 2.81448 41.2419
588 1 2.66672 1.25855 41.8459
589 2 5.21419 0.917594 42.9699
590 1 12.8486 1.05705 40.6573
591 1 16.806 4.41777 54.8307
592 1 6.12836 4.57084 53.8145
593 2 5.93627 1.94198 54.5923
594 2 4.22183 2.84439 49.5743
595 1 2.47375 4.27611 48.3126
596 1 10.6627 4.09793 55.9001
597 1 8.03121 2.56193 52.9941
598 2 9.44534 2.69408 50.9929
599 1 6.82146 3.01454 50.0499
600 1 8.81254 1.85627 48.8069
601 1 5.28176 4.51562 47.8566
602 1 9.05393 4.57785 49.1247
603 2 6.79967 3.09527 43.0232
604 1 3.64475 3.3407 43.6167
605 1 6.24986 1.94471 44.9328
606 1 7.43517 4.21859 40.6892
607 1 10.4971 3.8251 53.0311
608 2 8.6334 4.97069 54.3716
609 2 4.27754 2.91387 46.1286
610 2 2.40605 3.83605 41.0783
611 1 11.2933 3.1039 49.2766
612 1 8.5795 3.36992 45.0524
613 1 9.36468 2.85484 42.4185
614 2 11.8199 3.13724 41.6931
615 1 10.2236 4.08711 40.2653
616 2 10.168 3.64437 47.0583
617 1 11.2948 3.4779 44.3367
618 1 7.32852 1.34348 41.3512
ITEM: TIMESTEP
1200
ITEM: NUMBER OF ATOMS
618
ITEM: BOX BOUNDS xy xz yz pp pp ff
0.0000000000000000e+00 1.9317770367296919e+01 4.0025167278329121e+00
0.0000000000000000e+00 6.6702723500479264e+00 0.0000000000000000e+00
0.0000000000000000e+00 1.0921147561319708e+02 0.0000000000000000e+00
ITEM: ATOMS id type x y z
1 1 4.98026 5.78842 5.76476
2 1 6.37268 6.42669 8.09897
3 1 4.92563 6.14706 12.7862
4 1 5.71529 0.358403 5.49113
5 1 4.14104 0.0363286 10.6812
6 1 6.47073 6.49861 15.0838
7 1 4.90851 6.2726 19.7751
8 1 12.3965 6.03786 5.85673
9 1 7.24804 0.515751 8.37108
10 1 5.79969 0.417164 12.8453
11 1 4.33797 0.250778 17.4059
12 1 2.42365 -0.115866 22.1939
13 1 4.61604 6.24163 26.7474
14 1 10.6421 1.34483 5.83258
15 1 14.0167 6.34685 8.26454
16 1 8.98642 0.909861 10.62
17 1 12.3262 5.97975 12.7341
18 1 7.45333 0.725867 15.1208
19 1 5.69269 0.525716 19.9253
20 1 4.05205 0.117808 24.4247
21 1 2.03724 -0.147958 29.1533
22 1 4.65658 6.14421 33.9749
23 1 13.2935 0.386576 5.65648
24 1 12.839 3.27135 5.74525
25 1 12.2307 1.592 8.30062
26 1 11.8223 -0.0196888 10.6454
27 1 11.1904 2.94233 10.6817
28 1 10.7435 1.17085 12.8028
29 1 14.1237 6.58852 15.1243
30 1 8.88888 1.01916 17.5566
31 1 12.4368 6.08577 19.9686
32 1 7.1568 0.853768 22.1511
33 1 5.50646 0.372347 26.8414
34 1 3.93192 0.321057 31.4587
35 1 6.13834 6.26762 36.2629
36 1 15.5505 2.10434 5.6806
37 1 14.9748 0.577179 8.07938
38 1 14.6165 3.45434 8.11155
39 1 14.0195 2.05685 10.3822
40 1 13.4794 0.43338 12.7568
41 1 12.9762 3.12359 12.763
42 1 12.484 1.70293 15.1741
43 1 11.6473 0.203022 17.4784
44 1 11.3401 2.91744 17.4075
45 1 10.8175 1.37589 19.8542
46 1 9.75826 -0.0748466 22.1408
47 1 8.84225 1.12539 24.3762
48 1 12.196 6.18701 26.7734
49 1 7.23405 0.68445 29.19
50 1 5.51055 0.561968 33.7877
51 1 7.55327 6.51659 38.5756
52 1 3.05357 1.14174 5.62714
53 1 2.56458 4.14196 5.73181
54 1 1.86049 2.46461 7.97524
55 1 1.61763 0.6929 10.5294
56 1 16.1828 3.68861 10.3491
57 1 15.8932 2.3298 12.77
58 1 15.1243 0.769199 14.9479
59 1 14.6057 3.54403 15.1073
60 1 14.0413 2.06624 17.4243
61 1 13.6792 0.473033 19.7104
62 1 12.9956 3.26596 19.6986
63 1 12.2366 1.87622 21.9945
64 1 11.4948 0.117532 24.3891
65 1 11.1272 3.0428 24.5204
66 1 10.4922 1.44753 26.7255
67 1 13.9992 6.47714 29.0845
68 1 8.81982 1.07753 31.5152
69 1 12.2452 6.11628 33.8662
70 1 7.28846 0.710285 36.0191
71 1 5.24297 3.00777 5.72578
72 1 4.71922 1.43367 8.24169
73 1 4.15283 4.35989 8.13761
74 1 3.63301 2.85868 10.4154
75 1 3.21052 1.386 12.8751
76 1 17.7527 4.35059 12.7958
77 1 1.85328 2.85652 15.137
78 1 1.49368 1.21692 17.3392
79 1 16.1959 3.93039 17.515
80 1 15.7647 2.54604 19.8599
81 1 15.0071 0.832533 22.1053
82 1 14.4625 3.73492 22.2073
83 1 13.7172 2.23811 24.4194
84 1 13.1726 0.537191 26.6125
85 1 12.7106 3.19898 26.8938
86 1 12.0029 1.75927 29.0607
87 1 11.5716 0.165567 31.6591
88 1 11.0019 2.99713 31.4697
89 1 10.4787 1.47107 33.9269
90 1 13.8865 6.54516 36.4325
91 1 8.57035 0.862013 38.7328
92 1 7.92228 2.13985 5.66607
93 1 7.59316 4.99759 5.53404
94 1 6.87534 3.4417 8.15188
95 1 6.34588 2.02569 10.4775
96 1 5.9912 4.75522 10.6364
97 1 5.2141 3.1549 12.9359
98 1 4.69059 1.7224 15.1226
99 1 4.21752 4.58939 15.1295
100 1 3.63496 3.06644 17.4686
101 1 3.13104 1.52455 19.7057
102 1 18.0007 4.25111 19.8188
103 1 1.85666 2.67787 22.1427
104 1 1.2915 1.09857 24.4487
105 1 16.073 4.00186 24.4804
106 1 15.4009 2.33276 26.8678
107 1 14.6784 0.849377 29.1602
108 1 14.2024 3.73153 29.3154
109 1 13.6068 2.05141 31.5771
110 1 13.2495 0.514796 33.9769
111 1 12.7448 3.3647 34.0425
112 1 11.9936 1.78095 36.2551
113 1 15.1071 6.4104 38.7936
114 1 11.094 2.39654 38.9104
115 1 10.1102 4.13838 5.72505
116 1 9.71129 2.3983 8.23011
117 1 9.20502 5.38527 8.30439
118 1 8.52213 3.72782 10.5221
119 1 8.1015 2.35932 12.9769
120 1 7.43778 5.11266 12.9116
121 1 7.06537 3.53408 15.2616
122 1 6.35899 2.10083 17.4975
123 1 5.93626 5.00608 17.4705
124 1 5.2681 3.38608 19.8129
125 1 4.56694 1.74981 22.1238
126 1 4.20525 4.77708 22.0839
127 1 3.41602 3.14948 24.4359
128 1 2.92738 1.45979 26.9169
129 1 17.6027 4.48358 26.7492
130 1 1.83506 2.68894 29.0484
131 1 1.10138 1.25413 31.6253
132 1 16.0266 4.12375 31.5406
133 1 15.4474 2.30129 33.9804
134 1 15.0598 0.700226 36.4446
135 1 14.4084 3.6503 36.449
136 1 13.77 2.05688 38.4685
137 1 11.8667 4.27696 8.37546
138 1 10.7607 5.6302 10.6263
139 1 10.2145 4.13038 12.962
140 1 9.76929 2.63532 15.0933
141 1 9.19662 5.56994 15.1227
142 1 8.71723 3.93598 17.6301
143 1 7.95578 2.30402 19.7821
144 1 7.47296 5.32213 19.829
145 1 6.8153 3.51225 22.2031
146 1 6.13928 2.01512 24.6005
147 1 5.70548 4.87152 24.4896
148 1 5.12687 3.39227 26.8648
149 1 4.64993 1.72557 29.0077
150 1 3.85893 4.68392 29.0177
151 1 3.43946 3.22799 31.1644
152 1 2.92624 1.57253 33.8034
153 1 17.8236 4.32245 33.9478
154 1 17.127 2.65689 36.3806
155 1 0.936238 1.13532 39.1304
156 1 16.1749 3.85376 38.8111
157 1 15.1714 5.21273 5.79413
158 1 13.527 4.7656 10.6455
159 1 11.9469 4.59304 15.1659
160 1 10.7829 5.93912 17.635
161 1 10.2066 4.23288 19.7933
162 1 9.46431 2.84068 22.0866
163 1 9.0471 5.59556 22.0702
164 1 8.32317 3.98009 24.4183
165 1 7.89298 2.34996 26.8052
166 1 7.42444 5.1927 26.7928
167 1 6.68463 3.81526 29.2045
168 1 6.04959 2.12096 31.4071
169 1 5.57761 5.04552 31.5338
170 1 5.0364 3.35061 33.9203
171 1 4.57521 1.56665 36.3843
172 1 4.20107 4.34387 36.5426
173 1 3.20307 2.72626 38.7789
174 1 16.8456 5.37414 8.20167
175 1 15.0702 5.11872 12.9918
176 1 13.4236 4.98802 17.5389
177 1 11.6358 4.6261 22.2578
178 1 10.5152 5.84722 24.5185
179 1 10.0304 4.32293 26.8789
180 1 9.31774 2.75982 29.0714
181 1 8.86114 5.66099 29.1867
182 1 8.39114 4.08493 31.4169
183 1 7.91997 2.27296 33.5873
184 1 7.31566 5.27793 33.7647
185 1 6.73594 3.45129 36.1705
186 1 6.02476 2.22233 38.8004
187 1 4.99208 5.0595 39.3707
188 1 18.5904 5.77496 10.523
189 1 16.7757 5.56828 15.165
190 1 15.1991 5.31778 19.8547
191 1 13.2991 4.86855 24.6024
192 1 11.676 4.63408 29.1321
193 1 10.7266 5.89055 31.4952
194 1 10.1577 4.3711 33.9491
195 1 9.56696 2.6755 36.0188
196 1 8.83273 5.32163 36.2033
197 1 8.69524 3.49765 38.2233
198 1 18.4939 5.94475 17.5279
199 1 16.8186 5.53784 22.043
200 1 15.0659 5.11229 26.7382
201 1 13.2302 4.85148 31.7167
202 1 11.709 4.60843 36.3578
203 1 10.2937 6.11283 38.4298
204 1 18.3209 5.94817 24.3682
205 1 16.4847 5.55244 29.2836
206 1 14.9866 5.24796 34.0731
207 1 12.9052 4.73225 38.9183
208 1 18.3004 6.05674 31.5193
209 1 16.7308 5.4912 36.2972
210 1 17.9623 5.79975 38.8098
211 2 14.4452 1.34644 102.42
212 1 15.0696 1.13609 99.7797
213 1 3.45815 0.552781 103.392
214 1 2.41924 1.18326 99.0176
215 1 1.39163 1.65221 101.913
216 2 0.541363 0.587291 97.1436
217 1 14.77 1.42633 94.7389
218 1 6.05937 1.89203 102.896
219 1 6.9107 1.22643 100.355
220 1 1.8402 0.0358676 94.8079
221 1 4.66458 2.7224 98.9307
222 2 4.25507 1.37289 101.11
223 1 4.10461 1.43888 93.8761
224 1 2.1312 2.62633 95.4773
225 1 0.635922 0.85018 90.9074
226 1 3.1133 2.06569 90.8861
227 2 1.55313 1.82334 92.9409
228 1 0.69131 0.642132 88.2261
229 1 8.31572 0.327833 95.7062
230 1 7.16013 1.2421 89.1711
231 1 4.94956 -0.113868 90.3028
232 1 11.7504 4.80258 103.746
233 1 3.81085 3.33847 102.555
234 1 8.31889 3.14647 102.398
235 1 6.18948 4.69068 103.29
236 2 8.08376 0.664104 102.494
237 2 5.95368 3.69489 101.061
238 1 7.27042 3.82068 98.9854
239 2 6.68047 1.63794 97.6529
240 1 4.93031 2.98921 96.2501
241 1 12.528 1.606 103.589
242 1 10.2791 1.74725 101.386
243 1 14.33 5.99826 99.1832
244 2 11.5944 1.4589 99.0448
245 1 10.3775 3.85247 99.7389
246 1 9.07062 1.81431 98.1895
247 1 11.0303 0.574848 96.787
248 1 7.74411 3.26193 96.0006
249 1 11.3557 3.19064 97.1585
250 2 9.21424 4.68026 97.3375
251 1 8.28539 3.60318 93.0557
252 2 8.83318 1.78225 91.0415
253 1 10.214 4.03692 91.0806
254 1 6.0847 2.04616 91.765
255 1 8.52231 0.537218 93.1527
256 1 10.2367 4.34404 94.9326
257 1 7.21405 3.90549 90.0966
258 1 9.39746 2.7099 88.7804
259 1 12.7474 2.43247 101.036
260 2 10.8742 3.4689 102.428
261 1 12.4533 5.19653 101.049
262 2 13.1819 3.82175 99.0086
263 1 14.9801 3.93311 101.021
264 1 11.5427 5.94122 98.2388
265 1 13.6166 4.69176 96.6441
266 2 6.69185 1.70084 94.4026
267 2 5.11456 2.5254 89.3073
268 1 11.0458 5.21601 88.6775
269 1 2.45038 3.98298 100.173
270 1 13.614 1.86165 97.2248
271 1 10.7742 2.05641 92.9967
272 1 11.5391 1.50671 90.4628
273 2 13.9879 1.53133 89.5152
274 1 11.9275 2.70612 88.0057
275 2 3.04224 4.14282 97.4297
276 1 15.7416 3.48934 98.3069
277 1 16.1471 5.02224 96.0697
278 2 12.542 2.74686 94.9092
279 1 13.5555 2.11085 92.3297
280 2 14.1784 6.0542 94.4017
281 1 12.4374 4.60055 92.8359
282 1 13.0696 4.03322 90.1966
283 1 15.3939 3.93689 93.696
284 1 15.9817 3.49178 91.0144
285 1 9.64941 -0.0369025 89.2916
286 1 14.2802 6.06585 102.951
287 1 5.37623 0.157707 96.0969
288 2 16.7008 4.56421 102.831
289 1 16.4168 6.4501 101.034
290 1 4.89488 5.35254 99.0567
291 1 4.27617 5.76102 101.739
292 1 17.1853 6.08683 98.4668
293 1 16.6466 6.51551 93.7734
294 1 17.4137 6.29506 91.2111
295 1 14.7842 5.76179 91.7682
296 2 15.7259 5.40464 89.1974
297 1 5.51117 4.04567 93.7229
298 1 3.3653 5.32451 95.2905
299 1 2.69276 3.96299 92.8805
300 1 4.67414 4.64592 90.8123
301 2 4.02169 6.02715 92.9617
302 1 9.67558 5.7671 102.247
303 1 6.86483 5.81296 97.2071
304 1 7.06275 5.92157 100.984
305 1 8.92694 6.4927 99.1339
306 2 7.94079 5.46106 94.5897
307 1 6.80691 6.04583 92.1233
308 1 2.82532 4.11852 89.078
309 2 6.49542 6.37826 89.6507
310 1 9.8374 6.14978 92.9265
311 2 11.5053 6.25181 91.0378
312 1 5.51246 4.68461 87.9295
313 1 3.63366 1.35355 88.0476
314 1 13.2675 0.533853 87.1459
315 2 16.6308 6.36714 84.961
316 1 18.1901 6.53113 83.0191
317 1 5.99213 2.0426 83.1448
318 1 5.85398 6.57515 83.8635
319 2 0.763876 0.567141 81.4537
320 1 3.63962 6.04865 77.1303
321 1 1.65396 0.111988 75.3158
322 1 5.71596 6.60465 79.0191
323 1 18.1477 6.6207 74.1726
324 1 4.08179 1.44359 85.2085
325 2 8.70612 6.62867 83.1341
326 1 10.6906 6.63471 85.1692
327 1 3.07917 1.9456 82.4171
328 1 5.15939 0.882799 80.9217
329 1 2.44683 1.33734 72.8905
330 1 9.43839 -0.00918162 84.3252
331 2 13.5837 6.18783 81.6453
332 1 11.2116 6.24436 82.5606
333 1 7.68147 0.843826 80.0809
334 2 5.63008 1.99389 78.4893
335 1 3.92195 0.374915 76.9817
336 1 8.64256 6.65652 74.4877
337 1 10.839 6.36415 77.7507
338 1 11.4612 6.14112 75.1709
339 1 6.22515 2.20178 86.8484
340 1 16.3868 2.56706 80.0869
341 2 8.51027 0.673681 87.0009
342 2 9.95788 4.06147 86.4783
343 1 8.21758 2.5288 84.9651
344 1 11.8273 1.4194 82.957
345 1 11.1746 1.85578 85.5025
346 1 10.6037 4.03621 83.7688
347 1 8.93624 2.16603 82.3052
348 1 8.16956 2.40025 77.8218
349 1 8.98439 1.92018 75.1897
350 1 6.34158 1.86944 75.8902
351 2 7.19821 1.39291 73.1243
352 1 14.6229 3.14589 87.6259
353 1 13.2723 3.9366 83.2798
354 1 12.6413 4.38686 85.8632
355 2 11.5348 3.59531 81.2684
356 1 10.264 3.83247 78.843
357 1 16.8977 4.67654 86.9748
358 1 2.57293 3.91167 84.2614
359 1 16.4511 6.61702 77.9506
360 1 10.2357 1.00189 79.5691
361 1 12.5538 2.53398 78.9981
362 1 13.7095 6.46623 76.9522
363 1 11.5791 0.395521 75.1353
364 2 10.8389 1.99008 77.1638
365 1 1.51221 1.9965 86.0288
366 1 15.5472 5.33091 82.9977
367 2 15.149 4.04882 85.242
368 1 13.9376 2.01506 81.2814
369 1 13.9516 1.87709 84.9695
370 1 15.7562 2.65787 83.0723
371 2 14.747 1.35872 78.7229
372 1 13.602 1.99549 76.4444
373 1 14.979 3.87154 77.9014
374 1 12.9339 5.18315 79.2615
375 1 9.58703 0.181582 73.2101
376 1 11.286 3.38453 75.0138
377 2 13.2011 2.20675 73.7563
378 1 13.9154 4.53907 74.8589
379 2 12.3684 4.24355 76.9619
380 1 11.3144 3.12779 72.2204
381 1 3.96925 3.38852 79.9664
382 1 1.43846 2.04373 77.2297
383 1 2.73673 4.00468 73.3347
384 1 15.6495 2.51952 74.2143
385 2 2.9771 2.28208 75.0808
386 1 12.3302 0.47015 72.0964
387 1 14.6213 5.98572 86.9656
388 1 3.88558 6.01132 85.7953
389 2 3.73252 3.44125 86.6409
390 2 17.5522 4.264 81.7391
391 1 15.6785 5.35948 80.3011
392 1 8.27876 5.2962 87.8589
393 1 5.66657 4.08163 85.0147
394 2 7.24875 4.22259 83.0314
395 1 4.69063 4.64087 82.2401
396 1 6.88836 3.2915 80.6524
397 1 18.3228 5.98669 80.1856
398 1 6.91731 5.96823 81.2802
399 2 4.38605 4.44975 75.1483
400 1 16.9605 4.54769 75.821
401 1 4.1206 3.17268 77.0971
402 1 5.01834 5.45694 72.8977
403 1 8.3401 5.19817 85.2456
404 2 6.47954 6.35919 86.5517
405 2 17.5307 4.29139 78.56
406 2 15.851 5.23929 73.4066
407 1 9.154 4.79472 81.3959
408 1 6.21704 4.69766 76.9894
409 1 7.03247 4.0423 74.3504
410 2 9.46694 4.21208 73.4937
411 1 7.53472 5.58795 72.0694
412 2 8.04882 5.22088 79.0772
413 1 9.0145 4.59669 76.3695
414 1 4.98672 2.49635 73.3597
415 2 5.48912 6.75134 70.5864
416 1 5.77846 6.36985 67.7221
417 1 10.096 5.60838 71.4081
418 1 8.54257 6.42273 67.0006
419 1 3.91329 0.0969545 69.7284
420 2 6.80886 5.98805 65.123
421 1 1.81437 0.128061 62.7326
422 1 8.2758 0.559568 70.9533
423 1 13.2944 6.52834 68.2847
424 1 8.07339 5.46915 62.8066
425 1 6.92883 1.18426 66.8932
426 2 10.5233 6.57782 68.9988
427 1 6.31299 0.165172 61.7852
428 1 4.30761 1.40061 63.1552
429 1 6.85275 6.18472 58.7879
430 1 5.29075 0.723701 58.8228
431 2 3.81142 0.42803 60.8355
432 1 6.73748 5.74597 56.1538
433 1 14.509 5.42942 63.7114
434 1 13.6531 6.75718 57.1252
435 1 11.26 5.44886 58.0719
436 1 13.8942 4.06226 72.1164
437 1 5.89085 1.74123 70.8489
438 1 10.5759 1.90206 69.9939
439 1 8.50631 3.13904 71.2367
440 2 14.4239 6.0584 70.7021
441 2 7.90134 2.28094 69.0962
442 1 9.43805 2.38119 66.8053
443 2 8.91328 0.137067 65.6966
444 1 7.2438 1.57569 64.26
445 1 15.1269 1.3697 71.7933
446 1 16.3 6.56685 69.2489
447 1 16.6811 4.44879 67.2039
448 2 13.8146 0.000369981 67.1092
449 1 12.6032 2.35722 67.813
450 1 11.1976 0.367445 66.2313
451 1 17.1221 5.61124 64.7362
452 1 10.2514 1.64282 63.8994
453 1 13.4899 1.56242 65.1211
454 2 11.5012 3.01379 65.3336
455 1 10.5195 2.16512 61.0993
456 2 11.2645 0.547318 59.0186
457 1 12.6017 2.71841 59.2217
458 1 8.45425 0.765981 59.793
459 1 14.8227 5.95004 61.0581
460 1 12.7981 2.91212 62.8988
461 1 9.71504 2.7963 58.0969
462 1 11.9001 1.50441 56.676
463 1 14.8877 0.957279 69.2516
464 2 13.0378 2.22978 70.4747
465 1 14.6399 3.87896 69.1195
466 2 15.293 2.36916 67.0308
467 1 2.00027 2.21947 68.9545
468 1 13.7486 4.40092 66.1264
469 1 15.881 3.10698 64.7491
470 2 8.86489 0.336303 62.4591
471 2 7.35057 1.08182 57.3147
472 1 13.2115 3.98474 56.8023
473 1 4.70241 2.52697 68.279
474 1 0.486768 0.369164 65.224
475 1 13.033 0.706462 61.1517
476 1 13.8495 0.378498 58.2898
477 2 1.02073 0.224348 57.4302
478 1 14.4287 1.56092 55.9216
479 2 5.24532 2.46349 65.5408
480 1 2.60172 2.02905 66.375
481 1 3.22674 3.65871 63.9383
482 2 14.9436 1.38356 62.8427
483 1 15.8667 0.820954 60.215
484 2 16.4558 4.60331 62.4747
485 1 14.7402 3.28411 60.8458
486 1 15.4595 2.77777 58.028
487 1 2.27786 2.69378 61.6419
488 1 2.91698 2.38427 59.0385
489 1 15.8071 5.3861 57.1583
490 1 16.6461 4.29186 70.9854
491 1 11.6222 5.37613 64.1195
492 2 3.67166 3.00363 70.9274
493 1 3.4259 4.9052 69.0849
494 1 7.17537 3.85092 67.197
495 1 6.39854 4.40802 69.815
496 1 4.17096 4.63875 66.4663
497 1 3.69418 5.08349 61.6937
498 1 4.47659 4.77235 59.2069
499 1 17.0106 4.70358 59.716
500 2 2.80627 4.20732 57.0003
501 1 8.04085 2.83653 61.9963
502 1 5.78284 3.86672 63.3754
503 1 5.11265 2.59605 60.9451
504 1 7.01963 3.14346 59.0147
505 2 6.43852 4.72463 60.9977
506 1 12.1396 4.50028 69.8384
507 1 8.92846 4.29417 65.0102
508 1 9.41962 4.30928 69.0857
509 1 11.1474 4.9692 66.942
510 2 10.1562 4.09187 62.715
511 1 9.01805 4.79851 60.1295
512 1 5.11662 2.82253 56.9779
513 2 8.65352 4.98383 57.6341
514 1 12.0715 4.80144 60.9945
515 2 13.8247 4.97345 58.9911
516 1 7.87774 3.04662 55.9277
517 1 5.27707 0.0692084 55.9619
518 1 3.96358 5.97689 55.1742
519 2 3.48288 5.00685 52.9736
520 1 4.98808 5.05234 50.9677
521 1 8.07436 0.529916 51.1138
522 1 8.03366 4.9679 51.7618
523 2 6.901 5.7521 49.3035
524 1 5.80899 4.54467 44.8542
525 1 7.89077 5.41839 43.2186
526 1 7.84995 5.05435 46.8478
527 1 5.27252 5.28874 42.066
528 1 6.106 -0.0482534 53.0478
529 2 10.7797 5.19901 50.9597
530 1 12.6751 5.00356 52.8079
531 1 5.22484 0.444327 50.1583
532 1 11.4263 5.9716 48.5767
533 1 8.85273 6.47594 40.8883
534 1 15.3819 5.36819 52.4117
535 2 16.08 5.48369 49.6262
536 1 13.5959 4.74909 50.2501
537 1 14.0552 6.49026 48.0812
538 2 8.09625 0.971616 46.4169
539 1 9.94951 5.79631 45.1123
540 1 10.7123 5.37533 42.6634
541 1 12.9494 5.2021 45.8875
542 1 13.6137 4.77837 43.3127
543 1 8.02791 0.204906 54.9843
544 1 3.06627 1.14617 47.9688
545 2 14.6013 5.86651 55.0318
546 2 12.4876 2.98206 54.4643
547 1 10.1603 0.919843 53.2345
548 1 13.806 -0.0371853 51.0746
549 1 13.2987 0.509964 53.8131
550 1 12.7342 2.36154 51.8149
551 1 10.7568 0.829999 50.5865
552 1 10.7518 1.06115 45.8275
553 1 11.1477 0.535868 43.2228
554 1 8.55343 0.550013 43.8664
555 2 13.4548 6.70691 41.1478
556 1 1.60334 1.75374 55.1978
557 1 15.3692 2.64181 50.9321
558 1 14.8293 2.83756 53.5749
559 2 13.6274 1.77546 49.1193
560 1 12.5539 2.7923 46.8081
561 1 3.75649 3.2671 54.8036
562 1 4.54555 2.40247 52.288
563 1 3.41132 5.41784 45.8129
564 1 16.7518 6.59942 47.438
565 1 14.8541 1.46143 46.8315
566 1 15.8755 5.24358 45.1766
567 1 17.7364 5.94438 42.9934
568 2 13.2797 0.703191 44.9851
569 1 3.63842 0.441669 53.6961
570 1 17.6578 4.11879 50.7828
571 2 2.04169 2.73282 52.9397
572 1 0.371402 0.165993 48.9014
573 1 0.924571 0.511833 52.6938
574 1 2.51604 1.26585 50.6467
575 2 5.55964 6.56368 46.4228
576 1 15.8082 0.748014 44.1316
577 1 1.74102 2.63946 45.6858
578 1 15.1268 4.09856 47.6704
579 1 15.6657 5.24787 41.2645
580 1 13.4488 2.15399 43.008
581 2 15.2212 0.779682 41.5915
582 1 15.9966 3.35271 43.1408
583 2 14.6117 3.07664 45.2033
584 1 14.4018 3.1398 40.7663
585 1 6.17993 1.69192 47.8086
586 1 3.70957 0.71228 45.2339
587 1 4.64802 2.67099 41.0672
588 1 2.46312 1.038 41.8484
589 2 5.20119 0.913529 43.1371
590 1 12.853 0.885765 40.6758
591 1 16.6949 4.59249 54.7014
592 1 6.02876 4.57213 53.8204
593 2 5.81997 1.93183 54.6406
594 2 4.31934 2.70646 49.4974
595 1 2.60038 4.05834 48.0239
596 1 10.654 4.03794 55.7064
597 1 7.75737 2.55362 53.2057
598 2 9.35886 2.78192 51.2178
599 1 6.76609 3.05399 50.2191
600 1 8.69266 1.90748 48.9051
601 1 5.36619 4.53059 47.8073
602 1 9.12595 4.61105 49.1576
603 2 6.73431 3.25434 42.8342
604 1 3.46299 3.32983 43.3965
605 1 6.19636 1.9736 44.9948
606 1 7.3558 4.12898 40.4729
607 1 10.4137 3.80362 53.0314
608 2 8.49416 4.80243 54.4194
609 2 4.15608 3.00301 46.4301
610 2 2.5593 4.00602 41.0206
611 1 11.3474 3.12889 49.3397
612 1 8.49648 3.12406 44.9461
613 1 9.30064 2.94338 42.2307
614 2 11.8968 3.15045 41.673
615 1 10.3257 4.28146 40.287
616 2 10.0536 3.66819 47.0639
617 1 11.2636 3.35929 44.3704
618 1 7.15463 1.29645 41.5627
ITEM: TIMESTEP
1300
ITEM: NUMBER OF ATOMS
618
ITEM: BOX BOUNDS xy xz yz pp pp ff
0.0000000000000000e+00 1.9317770367296919e+01 4.0025167278329121e+00
0.0000000000000000e+00 6.6702723500479264e+00 0.0000000000000000e+00
0.0000000000000000e+00 1.0921147561319708e+02 0.0000000000000000e+00
ITEM: ATOMS id type x y z
1 1 4.71388 6.01761 5.5999
2 1 6.36261 6.31204 8.19866
3 1 4.8797 6.1136 12.7813
4 1 5.74907 0.230671 5.77338
5 1 4.09436 0.0377492 10.4133
6 1 6.56557 6.47881 15.1473
7 1 4.71333 6.1043 19.8042
8 1 12.578 6.09996 5.43982
9 1 7.39793 0.804507 7.95956
10 1 5.82291 0.428183 12.9175
11 1 4.13362 0.0850591 17.5036
12 1 2.32731 -0.104358 22.1237
13 1 4.56056 6.17535 26.8104
14 1 10.7591 1.24546 5.57917
15 1 14.0831 6.57033 7.92592
16 1 9.10687 0.994341 10.4506
17 1 12.6515 6.13448 12.8164
18 1 7.43925 0.827373 15.2761
19 1 5.88382 0.435145 19.7206
20 1 3.97604 0.208185 24.4855
21 1 2.39399 -0.16956 29.0267
22 1 4.6198 6.24966 33.9718
23 1 13.5794 0.206293 5.74765
24 1 13.0204 3.19375 5.60716
25 1 12.4247 1.67662 7.90197
26 1 11.7276 0.114648 10.3427
27 1 11.4287 2.90549 10.2246
28 1 10.7543 1.46302 12.8252
29 1 14.2294 6.36013 15.2365
30 1 9.20668 1.02833 17.4036
31 1 12.4182 6.13053 19.6453
32 1 7.46229 0.700136 22.1412
33 1 5.60943 0.501823 26.8353
34 1 3.92898 0.122433 31.4209
35 1 6.25056 6.70981 36.3447
36 1 15.5938 2.33817 5.795
37 1 15.1654 0.607875 8.09942
38 1 14.5169 3.49224 8.16933
39 1 13.9553 1.88823 10.4629
40 1 13.3975 0.256646 12.8296
41 1 12.9357 3.37436 12.7645
42 1 12.3627 1.61345 15.0852
43 1 11.8296 0.00152366 17.4587
44 1 11.3353 2.85705 17.5201
45 1 10.4956 1.28003 19.8325
46 1 10.1645 -0.35308 22.096
47 1 8.88693 1.08208 24.5372
48 1 12.1528 6.05462 26.935
49 1 7.0552 0.777089 29.1917
50 1 5.60476 0.483814 33.831
51 1 7.37307 6.66721 38.7471
52 1 2.94717 1.2494 5.77143
53 1 2.46652 4.0319 5.69145
54 1 1.97968 2.62062 8.17507
55 1 1.30727 1.09095 10.5494
56 1 16.1341 3.90851 10.4765
57 1 15.5265 2.2211 12.8817
58 1 15.1944 0.802738 15.2307
59 1 14.7795 3.48911 15.116
60 1 14.0005 1.85448 17.4938
61 1 13.1102 0.376567 19.8381
62 1 12.8368 3.18432 19.88
63 1 12.2256 1.63719 22.1671
64 1 11.6426 0.09932 24.7127
65 1 11.1359 2.91067 24.4766
66 1 10.5027 1.30708 26.9622
67 1 13.8244 6.32937 29.2516
68 1 8.69956 0.983039 31.6246
69 1 12.3224 6.27521 33.8431
70 1 7.30892 0.962867 36.3726
71 1 5.25195 3.26009 5.564
72 1 4.60772 1.63342 7.96486
73 1 4.26433 4.39344 8.07483
74 1 3.67734 2.80117 10.5017
75 1 2.92483 1.2806 12.7202
76 1 18.0564 4.05944 12.8627
77 1 2.16866 2.48717 15.1846
78 1 1.32686 1.01862 17.5146
79 1 16.391 3.73652 17.4206
80 1 15.5215 2.16716 19.7541
81 1 15.0532 0.759369 22.0605
82 1 14.5424 3.45185 22.1024
83 1 13.8921 2.03604 24.5363
84 1 13.2705 0.34118 26.8974
85 1 12.7594 3.31825 26.6991
86 1 12.2154 1.59429 29.2852
87 1 11.5388 0.0163835 31.4444
88 1 11.2505 2.9506 31.6137
89 1 10.5888 1.28713 33.8625
90 1 13.8414 6.43951 36.3601
91 1 8.80779 1.06577 38.992
92 1 8.05362 2.32628 5.55647
93 1 7.3601 5.08309 5.60813
94 1 6.89485 3.33386 8.15109
95 1 6.34215 1.79833 10.5387
96 1 5.76747 4.76137 10.4486
97 1 5.45536 3.3583 12.704
98 1 4.81075 1.66954 15.2008
99 1 4.38209 4.53543 15.1478
100 1 3.674 2.93401 17.5313
101 1 3.13042 1.47023 19.8792
102 1 17.8756 4.29638 19.7945
103 1 2.00486 2.81688 22.062
104 1 1.22385 1.21305 24.4303
105 1 16.0465 4.01858 24.4942
106 1 15.4156 2.48766 26.6146
107 1 14.9354 0.624737 29.1326
108 1 14.2931 3.49805 29.0203
109 1 13.9317 1.89546 31.4526
110 1 13.2016 0.349719 33.8976
111 1 12.6623 3.26834 33.8052
112 1 12.0476 1.59893 36.2413
113 1 15.1574 6.48178 38.9432
114 1 11.2557 2.69529 39.0254
115 1 10.3919 4.07675 5.50701
116 1 9.66852 2.59691 8.08574
117 1 9.17656 5.44902 8.05444
118 1 8.63175 3.98632 10.4322
119 1 7.96106 2.23414 12.7646
120 1 7.63133 5.26291 12.7146
121 1 6.99898 3.73434 14.9752
122 1 6.47442 1.86644 17.5384
123 1 5.86598 4.79134 17.431
124 1 5.29569 3.24904 19.7166
125 1 4.8433 1.76308 22.1155
126 1 4.13428 4.66007 22.1462
127 1 3.64704 3.05854 24.4771
128 1 2.8494 1.44827 26.8486
129 1 17.7592 4.16621 26.839
130 1 1.80537 2.7741 29.1314
131 1 1.16986 0.970632 31.3577
132 1 16.0062 3.89735 31.4237
133 1 15.5224 2.32468 33.8771
134 1 14.9274 0.872281 36.1939
135 1 14.4341 3.4678 36.1558
136 1 13.9304 1.8996 38.5023
137 1 11.8278 4.59762 7.97163
138 1 10.9473 5.82287 10.3116
139 1 10.4983 4.21617 12.7576
140 1 9.5089 2.52832 15.152
141 1 9.28345 5.55946 15.096
142 1 8.53499 3.87936 17.3829
143 1 8.00067 2.3948 19.8977
144 1 7.59726 5.19309 19.71
145 1 7.01537 3.86743 22.0793
146 1 6.31535 2.14539 24.376
147 1 5.81613 5.03635 24.4075
148 1 5.06006 3.25903 26.7747
149 1 4.23753 1.8569 29.2168
150 1 4.12577 4.60425 29.2323
151 1 3.48541 2.97469 31.6481
152 1 2.88413 1.33833 33.8038
153 1 17.7802 4.406 33.857
154 1 17.2925 2.7424 36.164
155 1 1.0287 1.02107 39.0697
156 1 16.0102 3.67514 38.7319
157 1 15.1056 5.05762 5.58814
158 1 13.4596 4.73769 10.3519
159 1 11.9347 4.43106 15.1024
160 1 10.9887 5.67756 17.4259
161 1 10.2331 4.21699 19.8066
162 1 9.53812 2.53559 22.1086
163 1 9.27559 5.54614 22.2521
164 1 8.46321 3.99008 24.5691
165 1 7.80504 2.39088 26.8562
166 1 7.29412 5.28118 26.7773
167 1 6.68144 3.58539 29.0888
168 1 6.16722 2.00356 31.5581
169 1 5.63866 4.91766 31.4541
170 1 5.04627 3.55877 33.9433
171 1 4.51625 1.9418 36.319
172 1 4.01501 4.8623 36.3598
173 1 3.39905 3.07149 38.7829
174 1 16.7419 5.34089 7.9566
175 1 15.2877 5.20834 12.6659
176 1 13.6747 4.55768 17.4908
177 1 11.8849 4.53143 22.025
178 1 10.7738 5.88913 24.5031
179 1 9.9808 4.20936 26.7615
180 1 9.43891 2.61377 29.1628
181 1 9.02564 5.49012 29.0596
182 1 8.26492 3.78281 31.5039
183 1 7.64397 2.36747 33.8803
184 1 7.25344 5.44855 33.9135
185 1 6.74423 3.86683 36.3026
186 1 6.39937 2.36348 38.6742
187 1 5.34683 4.9138 39.0793
188 1 18.4767 5.74007 10.3282
189 1 16.8897 5.31115 15.0477
190 1 15.0581 5.00365 19.7267
191 1 13.4426 4.83708 24.3323
192 1 11.6422 4.41566 29.1487
193 1 10.5509 5.92468 31.4393
194 1 10.0576 4.20063 33.7049
195 1 9.496 2.67411 35.9279
196 1 9.02586 5.77121 36.0283
197 1 8.83293 3.9965 38.1381
198 1 18.5465 5.71523 17.5251
199 1 16.7617 5.4905 22.2743
200 1 14.9827 5.20754 26.8618
201 1 13.2595 4.83832 31.4798
202 1 11.6559 4.49 36.0655
203 1 10.4018 6.1979 38.4099
204 1 18.4455 5.78306 24.5189
205 1 16.5965 5.39481 29.0352
206 1 14.8909 5.21631 33.7904
207 1 12.9463 4.78267 38.871
208 1 18.209 5.79804 31.4881
209 1 16.4656 5.29564 36.3868
210 1 17.962 5.6417 39.0069
211 2 14.4076 1.35048 102.415
212 1 14.9364 1.01884 99.6583
213 1 3.58367 0.408991 103.392
214 1 2.26179 1.2032 98.9555
215 1 1.43721 1.65684 101.694
216 2 0.540058 0.528906 97.0285
217 1 14.8907 1.44278 94.8039
218 1 5.88632 1.89823 103.092
219 1 6.72059 1.41474 100.429
220 1 1.84668 0.0919769 94.9425
221 1 4.50255 2.78262 99.0482
222 2 4.24106 1.29521 101.11
223 1 4.01178 1.45421 93.9746
224 1 2.17122 2.70299 95.3913
225 1 0.377151 0.889132 90.9936
226 1 3.12676 1.8489 91.0533
227 2 1.51318 1.7539 93.0618
228 1 0.590021 0.880835 88.2967
229 1 8.17452 0.364445 95.896
230 1 7.21444 1.43459 89.2833
231 1 4.8845 -0.110566 90.1502
232 1 11.5438 5.27875 103.644
233 1 3.62902 3.3369 102.733
234 1 8.10458 3.37045 102.153
235 1 5.95497 4.70283 103.483
236 2 8.041 0.689955 102.836
237 2 5.5359 3.70717 101.23
238 1 7.20617 3.82784 98.946
239 2 6.4927 1.66382 97.6862
240 1 4.89266 2.98924 96.3592
241 1 12.2856 1.63915 103.599
242 1 10.1145 1.57599 101.592
243 1 14.0865 6.19312 99.1523
244 2 11.4247 1.58544 99.22
245 1 10.1587 3.75903 99.9264
246 1 8.93466 1.9237 98.2363
247 1 10.9439 0.527757 96.83
248 1 7.77443 3.03738 96.0737
249 1 11.316 3.27999 97.2003
250 2 9.31017 4.59621 97.4172
251 1 8.38254 3.38084 93.3959
252 2 8.95108 1.95359 91.1365
253 1 10.1127 4.17786 91.2621
254 1 6.25678 1.8166 91.8786
255 1 8.52715 0.559769 93.2133
256 1 10.4386 4.33184 95.047
257 1 7.38218 4.07474 90.3931
258 1 9.44218 2.73525 88.8029
259 1 12.715 2.55767 100.986
260 2 10.8995 3.66783 102.598
261 1 12.5594 5.49637 100.997
262 2 13.1049 3.86073 98.9382
263 1 14.9237 4.00879 100.791
264 1 11.3902 6.00587 98.341
265 1 13.6162 4.74609 96.7355
266 2 6.44488 1.61006 94.478
267 2 5.13674 2.57223 89.5643
268 1 10.8465 5.39697 88.6234
269 1 2.38833 4.1451 100.181
270 1 13.559 1.81308 97.4723
271 1 10.8682 2.09439 93.1819
272 1 11.4994 1.64986 90.5411
273 2 13.8335 1.66838 89.6957
274 1 11.9087 2.84693 88.0472
275 2 2.92932 3.98088 97.5944
276 1 15.7838 3.31051 98.0785
277 1 16.2703 5.10872 96.005
278 2 12.8082 2.80471 94.97
279 1 13.5092 2.01433 92.3412
280 2 14.0328 5.96796 94.6377
281 1 12.5187 4.57559 92.9721
282 1 13.0678 4.15355 90.3883
283 1 15.3841 4.01879 93.6972
284 1 15.9275 3.45993 91.1255
285 1 9.45257 -0.035065 89.2551
286 1 14.4997 5.75756 103.094
287 1 5.23151 0.0750521 96.0926
288 2 16.6007 4.39253 102.766
289 1 16.3113 6.44611 101.031
290 1 4.89037 5.3885 99.1138
291 1 4.11219 5.85502 101.83
292 1 16.9331 6.04662 98.403
293 1 16.7415 6.47436 93.7198
294 1 17.5277 5.91972 91.1537
295 1 14.6866 5.93216 91.8368
296 2 15.6912 5.54964 89.1476
297 1 5.69932 4.03503 93.851
298 1 3.51765 5.29913 95.2951
299 1 2.92042 3.86258 92.9494
300 1 4.76949 4.56616 91.1008
301 2 4.18296 6.11642 93.0557
302 1 9.7213 5.83628 101.755
303 1 6.73614 5.66278 97.1411
304 1 6.9294 5.79971 101.11
305 1 8.77396 6.6214 98.8757
306 2 7.93538 5.37812 94.7277
307 1 6.80101 6.06277 92.2658
308 1 2.75985 3.91835 89.2981
309 2 6.36749 6.27891 89.6818
310 1 9.78423 6.17243 93.2535
311 2 11.5117 6.20307 90.9646
312 1 5.14446 4.69983 88.2561
313 1 3.31332 1.35159 88.1174
314 1 13.1798 0.634219 87.3106
315 2 16.6673 6.41728 85.0497
316 1 18.0795 6.74978 82.8783
317 1 5.86685 2.19593 83.2596
318 1 6.02624 6.50966 83.7011
319 2 0.853489 0.52139 81.4776
320 1 3.80555 6.19057 77.1307
321 1 1.64034 0.0868212 75.1425
322 1 5.82129 6.39265 79.0757
323 1 18.1132 6.58768 74.1676
324 1 4.10353 1.41808 85.32
325 2 8.62196 6.62186 83.1005
326 1 10.5281 6.68434 85.111
327 1 3.08659 2.15602 82.277
328 1 5.27921 0.977913 80.8325
329 1 2.52531 1.27703 72.7332
330 1 9.21439 0.102079 84.1652
331 2 13.6397 6.2975 81.5848
332 1 11.0615 6.29436 82.4667
333 1 7.82942 0.834029 80.13
334 2 5.77509 1.96478 78.5389
335 1 3.78452 0.490061 77.0315
336 1 8.59788 6.8688 74.4182
337 1 10.9549 6.56126 77.6138
338 1 11.6075 6.18093 75.1198
339 1 6.12989 2.31177 87.047
340 1 16.5369 2.60007 80.0397
341 2 8.43096 0.787102 86.939
342 2 9.86181 3.73139 86.4656
343 1 8.09828 2.55162 84.9602
344 1 11.8008 1.46508 83.0921
345 1 11.2259 1.75849 85.7912
346 1 10.5571 3.86485 83.7284
347 1 8.80351 2.23551 82.3227
348 1 8.35174 2.50348 77.9133
349 1 8.90888 2.02785 75.3256
350 1 6.26154 1.89506 75.8565
351 2 7.33683 1.33844 73.2222
352 1 14.5543 3.20396 87.3109
353 1 13.1072 4.11951 83.224
354 1 12.3572 4.49202 85.8111
355 2 11.4863 3.32556 81.1726
356 1 10.3687 4.02155 78.6963
357 1 16.7748 4.61067 86.9517
358 1 2.60393 4.20802 84.3196
359 1 16.5541 6.68304 77.9099
360 1 10.3592 1.1436 79.4342
361 1 12.6215 2.60102 78.9519
362 1 13.7149 6.65925 77.0105
363 1 11.5681 0.529827 74.9245
364 2 11.0991 2.05505 77.0397
365 1 1.43614 2.00079 85.8651
366 1 15.5565 5.49689 82.9755
367 2 15.076 4.15282 84.9864
368 1 14.0096 2.17459 81.1746
369 1 13.968 1.9228 84.9521
370 1 15.8283 2.60686 83.0985
371 2 14.7742 1.4224 78.7205
372 1 13.6379 2.09013 76.2692
373 1 14.9775 4.03998 77.7846
374 1 12.8597 5.32422 79.3386
375 1 9.60635 0.106795 73.0813
376 1 11.3131 3.44532 75.0166
377 2 13.1199 2.21551 73.5894
378 1 14.0563 4.6371 75.0904
379 2 12.3873 4.49116 77.0105
380 1 11.0209 2.91577 72.2403
381 1 4.06283 3.42376 79.9396
382 1 1.40251 2.00768 77.1683
383 1 2.77374 3.85144 73.1898
384 1 15.773 2.61307 74.291
385 2 3.06164 2.22517 75.1736
386 1 12.3817 0.346605 71.9217
387 1 14.491 5.87617 86.7733
388 1 3.80652 5.95777 85.9327
389 2 3.62893 3.35874 86.7975
390 2 17.5041 4.39364 81.6614
391 1 15.4808 5.13728 80.2562
392 1 7.98673 4.96851 87.8588
393 1 5.74856 4.23655 85.2665
394 2 7.18873 4.30772 83.0333
395 1 4.65761 4.62634 82.3571
396 1 6.7677 3.33622 80.6521
397 1 18.3605 6.08017 80.1175
398 1 7.01329 6.01579 81.1941
399 2 4.33145 4.62217 75.0634
400 1 17.1305 4.57328 75.8805
401 1 4.01334 3.14288 77.211
402 1 4.79979 5.62915 72.563
403 1 8.39003 5.24076 85.1299
404 2 6.28594 6.32817 86.4498
405 2 17.3788 4.36692 78.4887
406 2 15.8669 5.14311 73.4497
407 1 9.25035 4.72186 81.3103
408 1 6.27015 4.66648 76.9863
409 1 6.98154 4.35393 74.4966
410 2 9.35634 4.33603 73.6893
411 1 7.4349 5.5278 72.04
412 2 8.21387 5.30289 78.9408
413 1 9.06234 4.76718 76.3399
414 1 5.10046 2.75557 73.364
415 2 5.73741 7.07203 70.4766
416 1 5.83758 6.35681 67.8016
417 1 10.0482 5.49297 71.4252
418 1 8.59847 6.4313 67.0052
419 1 4.02162 0.227667 69.6569
420 2 6.78954 5.79861 65.1988
421 1 1.88261 0.0904763 62.8185
422 1 8.3492 0.360585 70.8886
423 1 13.0737 6.59778 68.2462
424 1 8.16943 5.3033 62.835
425 1 6.88718 1.31173 66.9074
426 2 10.629 6.43788 69.0959
427 1 6.36128 -0.00584703 61.8456
428 1 4.47883 1.38471 63.3405
429 1 6.78224 6.09187 58.7485
430 1 5.37209 0.61316 58.9814
431 2 3.83041 0.503963 61.0751
432 1 6.53542 5.57559 56.256
433 1 14.4307 5.57483 63.9206
434 1 13.4267 6.66774 57.1548
435 1 11.1802 5.30404 58.2522
436 1 13.9134 3.92822 72.2303
437 1 5.94145 1.64629 70.9533
438 1 10.5828 1.6672 69.9004
439 1 8.29548 3.09804 71.2916
440 2 14.4077 5.73587 70.6573
441 2 7.74039 2.24275 69.0977
442 1 9.60713 2.33239 67.0386
443 2 8.80051 0.287067 65.5705
444 1 7.17202 1.61518 64.1821
445 1 15.1249 1.39389 71.8369
446 1 16.3453 6.48676 69.2326
447 1 16.4237 4.65947 67.1502
448 2 13.8244 -0.0105856 67.0486
449 1 12.6333 2.42585 67.8845
450 1 11.2579 0.432903 66.1174
451 1 17.4156 5.86503 64.6265
452 1 9.96698 1.86392 63.9558
453 1 13.6456 1.85521 65.325
454 2 11.5265 3.13908 65.4254
455 1 10.5981 1.89281 61.1955
456 2 11.1969 0.621402 58.9846
457 1 12.4756 2.85302 59.0746
458 1 8.58712 0.503448 59.7116
459 1 14.9801 5.91197 61.1522
460 1 12.6932 2.68272 63.0149
461 1 9.69875 2.72348 58.3959
462 1 11.6618 1.63154 56.6477
463 1 15.0294 0.975749 69.1883
464 2 13.144 2.15501 70.4039
465 1 14.6637 3.75197 69.2453
466 2 15.4248 2.31711 67.083
467 1 1.88584 2.37119 68.9582
468 1 13.6516 4.6493 66.388
469 1 15.9571 3.31479 64.7807
470 2 8.80692 0.255972 62.3946
471 2 7.18661 1.23731 57.3656
472 1 13.4036 3.98997 56.7057
473 1 4.53358 2.50689 68.2748
474 1 0.523748 0.320303 65.2547
475 1 13.1658 0.633919 60.8748
476 1 13.7247 0.45718 58.3822
477 2 0.72158 0.278195 57.5071
478 1 14.1211 1.64301 56.0155
479 2 5.31652 2.67885 65.556
480 1 2.64277 1.87257 66.2357
481 1 3.23108 3.63141 64.0164
482 2 14.8927 1.3456 62.9123
483 1 15.9748 0.651235 60.2907
484 2 16.3933 4.59615 62.5815
485 1 14.6352 3.23476 60.9613
486 1 15.3934 2.7869 58.3719
487 1 2.34648 2.52668 61.6777
488 1 3.0369 2.05249 58.8321
489 1 15.8444 5.51353 57.3032
490 1 16.6922 4.10192 71.0762
491 1 11.4891 5.43252 64.1013
492 2 3.82592 3.06955 71.0648
493 1 3.34183 4.96363 69.1223
494 1 6.8443 3.8697 67.3457
495 1 6.12729 4.33898 69.9221
496 1 3.9641 4.51087 66.5344
497 1 3.75598 5.02794 61.7878
498 1 4.51709 4.65987 59.2134
499 1 17.1622 4.53841 59.9013
500 2 2.56867 3.9839 57.0271
501 1 7.92326 2.6711 61.7648
502 1 5.83921 4.05124 63.3372
503 1 5.18751 2.53292 60.8712
504 1 7.1193 3.25681 58.9782
505 2 6.41832 4.77415 60.9462
506 1 12.0492 4.37609 69.9289
507 1 8.95805 4.16085 65.1306
508 1 9.21769 4.33627 68.9098
509 1 11.0565 5.1492 66.96
510 2 10.1632 4.00809 62.51
511 1 9.15681 4.74918 60.2357
512 1 5.186 2.89227 57.0307
513 2 8.70226 4.93472 57.5894
514 1 12.1875 4.73949 61.1185
515 2 13.9371 4.90276 59.0485
516 1 7.92907 3.05981 55.8276
517 1 5.21085 0.06765 56.1143
518 1 3.79944 5.78375 55.2594
519 2 3.41459 4.94315 53.0084
520 1 4.95584 5.11806 51.0314
521 1 7.85839 0.646612 51.0427
522 1 8.24352 5.16475 51.6449
523 2 6.97259 5.848 49.3383
524 1 6.08814 4.50322 45.2358
525 1 8.02484 5.18367 43.1001
526 1 8.09608 5.37298 46.9083
527 1 5.214 5.43338 42.3243
528 1 6.08124 0.029424 53.0619
529 2 10.7949 5.02628 51.0046
530 1 12.7242 5.22014 52.7558
531 1 5.2229 0.669103 50.1331
532 1 11.3846 6.12441 48.6029
533 1 8.87903 6.75482 40.806
534 1 15.4339 5.24128 52.1152
535 2 16.1686 5.3178 49.4937
536 1 13.4459 4.73788 50.1401
537 1 14.1573 6.32606 47.9544
538 2 8.16971 0.984405 46.5344
539 1 9.97693 5.72313 44.9579
540 1 10.8366 5.34062 42.5136
541 1 12.9751 5.23388 45.7073
542 1 13.828 4.8415 43.1109
543 1 8.03918 0.33005 54.8858
544 1 3.28751 1.3112 47.9473
545 2 14.4267 5.6707 54.7565
546 2 12.2945 3.03475 54.4752
547 1 10.4001 0.980438 52.951
548 1 13.8316 0.178275 51.1004
549 1 13.0768 0.483852 53.8153
550 1 12.6812 2.549 51.8129
551 1 10.7958 0.742686 50.293
552 1 10.6066 1.02915 45.5981
553 1 11.3064 0.5795 43.144
554 1 8.46709 0.472331 43.7716
555 2 13.5332 6.62168 41.1307
556 1 1.3754 1.58617 55.2465
557 1 15.299 2.63867 50.8014
558 1 14.7669 2.95098 53.6555
559 2 13.4475 1.96197 49.0816
560 1 12.5525 2.64006 46.8006
561 1 3.56424 3.10134 54.769
562 1 4.72025 2.49323 52.2299
563 1 3.49628 5.41537 45.9206
564 1 16.7675 6.52402 47.4785
565 1 14.9366 1.29022 46.8114
566 1 15.8487 5.25754 44.9879
567 1 17.8714 5.7367 43.1475
568 2 13.2516 0.62183 45.1804
569 1 3.61696 0.502485 53.8918
570 1 17.6209 4.07645 50.9346
571 2 1.85087 2.61105 52.8158
572 1 0.452455 0.520321 49.0315
573 1 0.720817 0.402966 52.9519
574 1 2.62929 1.19788 50.8475
575 2 5.70234 6.76609 46.4835
576 1 15.8638 0.868852 44.1919
577 1 1.97977 2.75067 45.8704
578 1 15.1576 3.99137 47.3512
579 1 15.7454 5.30086 41.28
580 1 13.4989 2.01167 43.0402
581 2 15.392 0.763087 41.5325
582 1 16.2753 3.32738 43.0812
583 2 14.5599 2.92694 45.0844
584 1 14.4847 3.04519 40.8197
585 1 6.18676 1.83903 47.7654
586 1 3.60009 0.69202 45.1426
587 1 5.0351 2.72467 40.9997
588 1 2.63971 1.02636 42.0645
589 2 5.15308 0.852317 43.048
590 1 12.9439 0.824734 40.7717
591 1 16.6613 4.4738 54.7134
592 1 5.98234 4.59453 53.7975
593 2 5.8953 1.9685 54.5836
594 2 4.27563 3.01066 49.6037
595 1 2.75711 4.08647 48.2212
596 1 10.5865 4.16792 55.8865
597 1 7.81229 2.60099 53.1097
598 2 9.28185 2.85241 51.0176
599 1 6.72938 3.28907 50.1558
600 1 8.86104 1.94243 48.7489
601 1 5.40793 4.74089 47.9271
602 1 9.15008 4.78832 49.1533
603 2 6.52956 3.19491 43.1575
604 1 3.83708 3.2331 43.5732
605 1 6.22066 1.66631 45.0165
606 1 7.30049 4.18006 40.808
607 1 10.4072 3.7348 53.1508
608 2 8.55602 4.92134 54.3805
609 2 4.40568 2.93267 46.3342
610 2 2.5058 3.66279 40.9687
611 1 11.2804 3.15888 49.1694
612 1 8.67341 3.24372 45.042
613 1 9.2423 2.91331 42.4418
614 2 11.8813 3.08875 41.5644
615 1 10.0584 4.42066 40.3301
616 2 10.2192 3.78842 46.8458
617 1 11.5083 3.48084 44.1522
618 1 7.15584 1.16606 41.3769
ITEM: TIMESTEP
1400
ITEM: NUMBER OF ATOMS
618
ITEM: BOX BOUNDS xy xz yz pp pp ff
0.0000000000000000e+00 1.9317770367296919e+01 4.0025167278329121e+00
0.0000000000000000e+00 6.6702723500479264e+00 0.0000000000000000e+00
0.0000000000000000e+00 1.0921147561319708e+02 0.0000000000000000e+00
ITEM: ATOMS id type x y z
1 1 4.71171 6.12387 5.64426
2 1 6.47099 6.55947 8.01678
3 1 4.90161 6.00829 12.7562
4 1 5.75065 0.486445 5.37889
5 1 4.2387 0.177115 10.3743
6 1 6.49791 6.29967 15.114
7 1 4.78599 6.02315 19.8676
8 1 12.4433 6.08227 5.51926
9 1 7.52745 0.62144 7.9611
10 1 5.91163 0.405015 12.521
11 1 4.13867 -0.0821045 17.3869
12 1 6.47704 6.27742 22.2569
13 1 4.87797 6.05488 26.8345
14 1 10.617 1.3466 5.36311
15 1 14.2219 6.31572 7.93822
16 1 9.10295 1.10606 10.1766
17 1 12.5509 6.06628 12.6414
18 1 7.60736 0.626469 14.8921
19 1 5.79818 0.385124 19.6927
20 1 4.08458 0.0123504 24.4607
21 1 6.24711 6.37043 29.343
22 1 4.5204 6.05722 33.978
23 1 13.3295 0.354983 5.30009
24 1 12.9859 3.14853 5.39649
25 1 12.2022 1.72853 8.201
26 1 11.7744 0.142707 10.4903
27 1 11.4322 3.02149 10.5535
28 1 10.7518 1.24608 12.6698
29 1 14.1022 6.45593 14.9408
30 1 8.95549 0.948893 17.3367
31 1 12.5456 5.90351 19.8736
32 1 7.38857 0.794016 22.1229
33 1 5.65565 0.384313 26.7777
34 1 3.99257 0.10587 31.762
35 1 2.07237 -0.160483 36.1626
36 1 15.7933 2.15003 5.39131
37 1 14.8823 0.698294 8.17201
38 1 14.7576 3.59635 7.95085
39 1 14.0035 2.1189 10.3755
40 1 13.435 0.456427 12.7613
41 1 12.9595 3.25325 12.7678
42 1 12.3991 1.54741 15.1145
43 1 15.6971 6.64095 17.4407
44 1 11.2244 2.81735 17.4287
45 1 10.8159 1.35049 19.7123
46 1 14 6.48389 22.1785
47 1 8.97332 1.05634 24.4749
48 1 12.4872 6.22003 26.7618
49 1 7.37273 0.637594 29.1602
50 1 5.42913 0.488587 33.9169
51 1 3.78245 -0.000967959 38.3035
52 1 3.10344 1.39862 5.43234
53 1 2.69098 4.21314 5.50123
54 1 2.03396 2.56329 8.00576
55 1 1.37122 0.979606 10.3975
56 1 16.2847 3.80414 10.3899
57 1 15.8653 2.13525 12.6915
58 1 15.0751 0.532414 15.1259
59 1 14.5708 3.424 15.1797
60 1 14.0594 1.90619 17.4725
61 1 13.6793 0.269373 19.7795
62 1 13.0162 3.28314 19.7101
63 1 12.3143 1.62376 22.0631
64 1 11.725 -0.0461408 24.3197
65 1 11.2504 3.03753 24.6194
66 1 10.5536 1.38747 26.6702
67 1 13.9903 6.38049 29.1147
68 1 8.81742 0.915696 31.4966
69 1 12.2654 6.0796 33.7958
70 1 7.09845 0.866224 36.184
71 1 5.24379 3.1314 5.73766
72 1 4.88549 1.73006 8.11415
73 1 4.1935 4.62731 8.09272
74 1 3.75076 2.97733 10.43
75 1 3.14744 1.20446 12.8333
76 1 2.55259 4.19998 12.8214
77 1 1.77033 2.45562 15.1247
78 1 1.42737 0.858387 17.3471
79 1 16.1377 3.72859 17.4305
80 1 15.6221 2.2359 19.7752
81 1 15.0332 0.481431 22.271
82 1 14.4647 3.72421 22.2478
83 1 14.1097 1.9555 24.5956
84 1 13.2009 0.302995 26.8349
85 1 12.877 3.30309 26.9589
86 1 12.1622 1.63418 29.105
87 1 11.5419 0.0427746 31.5813
88 1 11.012 2.81424 31.5152
89 1 10.418 1.3066 33.9427
90 1 13.9188 6.53555 36.1525
91 1 8.91866 1.12506 38.6065
92 1 7.94377 2.24154 5.60539
93 1 7.58437 5.20189 5.57312
94 1 6.87132 3.79364 7.8102
95 1 6.46271 2.23552 10.2384
96 1 5.95335 4.88338 10.4415
97 1 5.38548 3.18232 12.7473
98 1 4.90829 1.44953 15.1184
99 1 4.24332 4.2795 15.1187
100 1 3.67369 2.8523 17.4399
101 1 2.96088 1.21878 19.6882
102 1 2.59458 3.94564 19.7983
103 1 1.6906 2.40885 22.1418
104 1 1.31247 0.856274 24.5157
105 1 16.1236 3.77142 24.5525
106 1 15.6802 2.19757 26.8748
107 1 14.8609 0.7141 29.2965
108 1 14.5435 3.67463 29.2116
109 1 13.6212 2.02993 31.4998
110 1 13.1428 0.406813 33.7191
111 1 12.6074 3.29855 33.7761
112 1 12.0525 1.89956 36.0405
113 1 15.2969 6.28604 38.9235
114 1 11.4225 2.3351 38.9059
115 1 10.1717 4.29483 5.51437
116 1 9.6682 2.73878 7.72804
117 1 9.26645 5.54056 7.93466
118 1 8.63287 3.91109 10.3284
119 1 8.10012 2.26352 12.6915
120 1 7.38024 5.06383 12.8613
121 1 7.04533 3.28522 15.2005
122 1 6.3471 1.99498 17.4068
123 1 5.94603 4.74927 17.5173
124 1 5.3287 3.10743 19.8423
125 1 4.60848 1.67867 22.0963
126 1 4.23458 4.45403 22.2116
127 1 3.58146 2.87881 24.5226
128 1 3.03193 1.4122 26.7912
129 1 17.7633 4.21932 26.7747
130 1 1.96817 2.43034 29.2254
131 1 1.22706 1.00411 31.6368
132 1 16.0471 3.89351 31.5318
133 1 15.4081 2.32111 33.8759
134 1 14.8705 0.873607 35.9486
135 1 14.2365 3.74363 36.2096
136 1 13.8496 1.98378 38.2833
137 1 12.0178 4.40078 7.97774
138 1 10.891 5.81787 10.2205
139 1 10.245 4.32087 12.7158
140 1 9.87017 2.55451 15.0364
141 1 9.1197 5.32321 15.0949
142 1 8.64111 3.77172 17.4322
143 1 8.0374 2.15602 19.7384
144 1 7.51157 4.96525 19.843
145 1 6.88272 3.37233 22.1483
146 1 6.35061 2.00118 24.6142
147 1 5.76077 4.70787 24.4986
148 1 5.26012 3.33401 26.8311
149 1 4.69494 1.49942 29.122
150 1 3.98635 4.28793 29.099
151 1 3.48095 2.94663 31.4925
152 1 2.69988 1.57915 34.0683
153 1 17.6609 4.25667 34.0104
154 1 1.5168 2.74646 36.513
155 1 0.990646 1.04504 38.9491
156 1 16.1361 3.7768 38.9164
157 1 15.3559 5.02671 5.50219
158 1 13.658 4.93977 10.4775
159 1 11.953 4.50379 14.9531
160 1 10.813 5.90665 17.447
161 1 10.3383 4.06864 19.8147
162 1 9.72283 2.61324 22.0899
163 1 9.12183 5.41964 22.0876
164 1 8.5351 3.89916 24.4382
165 1 7.84525 2.31622 26.7497
166 1 7.5653 5.0976 26.8488
167 1 6.78441 3.53541 29.2434
168 1 6.24161 1.91018 31.6073
169 1 5.69188 4.75053 31.6895
170 1 5.06041 3.27769 33.9324
171 1 4.50571 1.87042 36.302
172 1 3.82823 4.66692 36.28
173 1 3.3167 2.82753 38.7489
174 1 16.8956 5.5363 8.19841
175 1 15.2009 4.99956 12.724
176 1 13.3905 4.91772 17.4136
177 1 11.9211 4.49921 22.2073
178 1 10.799 5.80012 24.4425
179 1 10.1109 4.30031 26.9134
180 1 9.47074 2.63717 29.0619
181 1 8.99633 5.45373 29.1895
182 1 8.40993 3.89256 31.5569
183 1 7.85348 2.21041 33.7337
184 1 7.34367 5.17989 34.0144
185 1 6.7862 3.74586 36.1861
186 1 6.30191 2.44396 38.6576
187 1 5.45 4.99597 38.801
188 1 18.5355 5.82949 10.5628
189 1 16.7716 5.33169 15.1258
190 1 15.1865 5.18934 19.8778
191 1 13.4956 4.77234 24.682
192 1 11.7255 4.66161 29.146
193 1 10.7233 5.80738 31.5911
194 1 10.1686 4.25495 33.9401
195 1 9.44119 2.5398 36.0302
196 1 8.84431 5.62048 36.0751
197 1 8.8999 3.84068 38.054
198 1 18.5838 5.62526 17.4583
199 1 16.8175 5.32293 22.0454
200 1 15.1048 5.06728 26.8915
201 1 13.42 4.89365 31.4715
202 1 11.3973 4.67783 36.4891
203 1 10.7083 6.39277 38.6048
204 1 18.3139 5.79927 24.5252
205 1 16.7734 5.5574 29.2259
206 1 14.9109 5.2814 33.9517
207 1 13.0487 4.953 38.8372
208 1 18.453 5.75733 31.6165
209 1 16.6833 5.70966 36.2083
210 1 18.1378 5.61229 38.9169
211 2 14.236 1.36364 102.542
212 1 14.6942 1.15901 99.8737
213 1 3.26754 0.499363 103.483
214 1 2.09699 1.1827 99.0181
215 1 1.22598 1.64131 101.89
216 2 0.417223 0.675647 97.2316
217 1 14.7993 1.3854 94.8639
218 1 5.73556 1.73838 102.932
219 1 6.7364 1.26571 100.39
220 1 1.84369 0.141306 94.9788
221 1 4.5322 2.60222 99.0358
222 2 4.00722 1.37353 101.147
223 1 4.0643 1.46596 94.0096
224 1 2.01859 2.77369 95.3949
225 1 15.7151 0.849587 91.0151
226 1 3.08121 1.99203 91.0267
227 2 1.57317 1.73601 93.1568
228 1 0.45326 0.879452 88.372
229 1 8.22542 0.24865 95.9857
230 1 7.09694 1.32865 89.2637
231 1 8.78832 6.59058 90.2951
232 1 11.583 5.18319 103.616
233 1 3.51943 3.29135 102.816
234 1 8.04478 3.19976 102.405
235 1 5.8914 4.62419 103.47
236 2 8.17149 0.69473 102.517
237 2 5.6375 3.56683 101.239
238 1 7.22577 3.76676 99.0813
239 2 6.55771 1.64791 97.7951
240 1 4.83802 2.81749 96.308
241 1 12.3133 1.62082 103.683
242 1 10.197 1.722 101.506
243 1 14.0868 6.1928 99.3433
244 2 11.368 1.63658 99.0972
245 1 9.90015 3.81406 100.028
246 1 8.9313 1.75216 98.3026
247 1 10.9427 0.637867 96.6673
248 1 7.83226 3.03921 96.0538
249 1 11.3092 3.32276 97.3181
250 2 9.04134 4.48099 97.6171
251 1 8.33117 3.51504 93.2091
252 2 8.73058 2.00895 91.2613
253 1 10.1991 4.04857 91.1168
254 1 6.22438 1.80403 91.8638
255 1 8.53179 0.654677 93.2807
256 1 10.1342 4.31835 95.1575
257 1 7.19851 4.03962 90.2101
258 1 9.3241 2.70058 88.9069
259 1 12.6255 2.52986 101.103
260 2 10.7508 3.649 102.56
261 1 12.2626 5.34711 101.064
262 2 13.1405 3.78646 98.9693
263 1 14.8833 4.05442 100.886
264 1 11.3846 5.86557 98.3654
265 1 13.6379 4.64581 96.8875
266 2 6.55836 1.6485 94.6409
267 2 4.91578 2.71663 89.4439
268 1 10.8818 5.23843 88.7517
269 1 17.5984 3.92829 100.087
270 1 13.4212 1.76478 97.2082
271 1 10.8548 1.95257 93.1176
272 1 11.5521 1.62682 90.4774
273 2 14.0206 1.80821 89.613
274 1 11.8384 2.89591 88.1009
275 2 3.0229 4.07326 97.6674
276 1 15.6394 3.25093 98.1731
277 1 16.1635 4.94696 96.0814
278 2 12.5063 2.74215 94.9918
279 1 13.4874 2.19101 92.2994
280 2 14.1295 5.95717 94.4813
281 1 12.3372 4.63209 93.0249
282 1 13.1239 4.14926 90.2814
283 1 15.1999 3.95032 93.745
284 1 16.0015 3.51327 91.2018
285 1 13.4187 6.66838 89.4772
286 1 14.3224 6.0073 102.946
287 1 5.23182 0.0168253 96.281
288 2 16.7298 4.49287 102.498
289 1 16.2467 6.48857 100.937
290 1 4.6224 5.33758 99.3756
291 1 3.95257 5.85178 101.865
292 1 17.0568 6.15015 98.4042
293 1 16.7611 6.44759 93.9667
294 1 17.5019 6.09181 91.1552
295 1 14.7784 5.88535 91.8104
296 2 15.7353 5.4338 89.1216
297 1 5.71606 4.04647 93.9433
298 1 3.57954 5.21038 95.4945
299 1 2.76471 4.01089 93.0071
300 1 4.5985 4.62483 91.0303
301 2 4.14827 6.13703 93.1305
302 1 9.34079 5.80916 102.18
303 1 6.5011 5.66917 97.2517
304 1 6.7209 5.79761 101.119
305 1 8.77197 6.47696 99.0397
306 2 7.87665 5.41009 94.7498
307 1 6.68391 6.13088 92.359
308 1 2.57668 3.80109 89.0769
309 2 6.39669 6.33987 89.7721
310 1 9.84266 6.15197 93.2253
311 2 11.327 6.23129 91.0549
312 1 5.13078 4.75235 88.0428
313 1 3.4452 1.22339 88.1148
314 1 12.9821 0.688552 87.2637
315 2 16.5446 6.51144 84.9977
316 1 14.261 -0.100574 83.0013
317 1 5.91258 2.20459 83.2166
318 1 5.88829 6.63131 83.8373
319 2 0.765219 0.695352 81.4151
320 1 3.79288 6.0747 77.1337
321 1 1.72569 0.162122 75.2516
322 1 5.75382 6.50091 78.9007
323 1 18.1693 6.62976 74.3082
324 1 3.98843 1.49027 85.2169
325 2 8.68379 6.57105 83.2791
326 1 6.56488 -0.0218765 85.2325
327 1 3.09309 2.1966 82.1464
328 1 5.418 0.883338 80.8987
329 1 2.53841 1.4279 72.7283
330 1 9.20154 0.10969 84.3796
331 2 13.8343 6.45656 81.5306
332 1 11.1774 6.31438 82.4753
333 1 7.84432 0.964467 79.9625
334 2 5.76937 2.18239 78.6389
335 1 3.97624 0.612013 76.9494
336 1 4.62109 0.0516979 74.3943
337 1 10.8037 6.58244 77.6244
338 1 11.5926 6.2971 75.1411
339 1 6.05991 2.1411 87.0064
340 1 16.6634 2.65349 79.9979
341 2 8.5152 0.932343 87.1061
342 2 9.80406 4.20892 86.6062
343 1 8.13019 2.61183 85.0037
344 1 11.8369 1.6126 83.0469
345 1 11.1212 2.05675 85.6718
346 1 10.5498 4.0505 83.8781
347 1 8.90278 2.10084 82.3606
348 1 8.29232 2.34889 77.668
349 1 9.11112 2.02983 75.081
350 1 6.35955 1.98094 75.78
351 2 7.16886 1.41269 73.1717
352 1 14.5451 3.40467 87.4744
353 1 13.2362 4.10534 83.218
354 1 12.5617 4.55323 85.9364
355 2 11.5241 3.6975 81.22
356 1 10.3629 4.03284 78.7942
357 1 16.8733 4.66106 86.838
358 1 2.54318 4.11047 84.3518
359 1 12.5301 -0.0559877 77.9881
360 1 10.3646 1.19874 79.3053
361 1 12.5498 2.6189 78.9292
362 1 13.7012 6.61097 76.7585
363 1 11.6471 0.60887 75.0367
364 2 10.8417 2.15795 77.0387
365 1 1.35969 2.02134 86.0577
366 1 15.653 5.4643 82.9951
367 2 15.2278 4.04546 85.1041
368 1 13.8397 2.12213 81.0062
369 1 13.8498 1.98112 84.9702
370 1 15.6652 2.64693 82.9453
371 2 14.7723 1.48476 78.6067
372 1 13.6326 2.05431 76.3131
373 1 14.9684 4.0536 77.9665
374 1 12.8251 5.39747 79.1681
375 1 9.64607 0.217435 73.1238
376 1 11.3265 3.46467 74.909
377 2 13.2614 2.21545 73.685
378 1 13.8261 4.50674 74.8942
379 2 12.4001 4.38224 76.962
380 1 11.0474 2.9153 72.3017
381 1 4.12278 3.34413 79.788
382 1 1.4624 2.14117 77.1079
383 1 2.73753 4.12302 73.1359
384 1 15.8592 2.70707 74.2744
385 2 2.98652 2.25932 75.0989
386 1 12.483 0.306002 72.0108
387 1 14.5546 6.1267 86.8946
388 1 3.67692 6.19048 85.9618
389 2 3.59956 3.46309 86.7176
390 2 17.4636 4.26882 81.6445
391 1 15.4622 5.26305 80.3638
392 1 8.04157 5.10724 87.9506
393 1 5.46721 4.10862 85.0791
394 2 7.26174 4.31661 83.1326
395 1 4.69396 4.66323 82.098
396 1 6.79217 3.32081 80.8187
397 1 18.3713 6.13766 80.1387
398 1 6.95708 6.19107 81.2983
399 2 4.46531 4.75734 75.0781
400 1 16.938 4.56855 75.8614
401 1 4.12491 3.29258 77.0421
402 1 5.00817 5.61661 72.7833
403 1 8.15362 5.3458 85.159
404 2 6.24407 6.34064 86.5923
405 2 17.4467 4.35644 78.3873
406 2 15.8076 5.1597 73.4786
407 1 9.26998 4.84118 81.3623
408 1 6.41647 4.77978 76.9059
409 1 7.0724 4.26446 74.3947
410 2 9.39606 4.1837 73.508
411 1 7.53613 5.68964 72.0356
412 2 7.97407 5.3031 78.9412
413 1 9.1356 4.83444 76.3801
414 1 5.03863 2.68804 73.3774
415 2 1.5609 0.201571 70.6238
416 1 5.91962 6.28167 67.8901
417 1 10.0601 5.4878 71.2786
418 1 8.58527 6.45193 66.9413
419 1 4.02231 0.154653 69.623
420 2 6.65069 5.81546 65.0827
421 1 1.84708 -0.0799797 62.7587
422 1 8.16034 0.393146 70.9264
423 1 13.2959 6.51905 68.22
424 1 8.09403 5.19759 62.8646
425 1 6.82077 1.22753 67.0412
426 2 10.5116 6.4418 68.9747
427 1 10.4136 6.78382 62.0262
428 1 4.26816 1.21898 63.46
429 1 6.59259 6.07725 58.8801
430 1 5.33858 0.566125 58.8386
431 2 3.90698 0.415866 61.0267
432 1 6.57037 5.78308 56.2012
433 1 14.6066 5.63596 63.8488
434 1 9.42948 -0.000795172 57.3004
435 1 10.9884 5.23579 58.1783
436 1 13.8561 4.04491 72.0611
437 1 5.91661 1.70162 70.768
438 1 10.5499 1.86298 69.878
439 1 8.24804 3.09919 71.3472
440 2 14.3509 6.00103 70.7003
441 2 7.84759 2.11762 69.0346
442 1 9.51699 2.23948 66.9225
443 2 8.91366 0.0526068 65.647
444 1 7.21337 1.41824 64.3682
445 1 15.1256 1.38282 71.9626
446 1 16.2094 6.5272 69.1429
447 1 16.6194 4.56988 67.1844
448 2 13.8304 0.115222 67.0817
449 1 12.7035 2.34811 67.8837
450 1 11.309 0.441654 66.2728
451 1 17.2688 5.85413 64.717
452 1 10.0731 1.78599 64.0508
453 1 13.6175 1.75813 65.2165
454 2 11.4846 3.1371 65.4347
455 1 10.5022 2.25736 61.1877
456 2 11.1306 0.596797 59.163
457 1 12.3535 2.74463 59.0359
458 1 8.42555 0.636345 59.7864
459 1 14.7224 5.90157 61.146
460 1 12.8181 2.88141 62.8745
461 1 9.60457 2.71167 58.1743
462 1 11.7275 1.53837 56.7474
463 1 15.0335 0.992198 69.2356
464 2 13.035 2.17045 70.4752
465 1 14.5891 3.83724 69.1131
466 2 15.3476 2.33781 67.0414
467 1 2.01149 2.39849 68.9659
468 1 13.7284 4.42542 66.1678
469 1 16.024 3.25658 64.7595
470 2 8.89033 0.320421 62.4738
471 2 7.3062 1.25399 57.3565
472 1 13.2266 3.97081 56.6844
473 1 4.7223 2.63871 68.3384
474 1 0.521765 0.438699 65.2508
475 1 13.0666 0.655549 61.0732
476 1 13.5697 0.219447 58.4648
477 2 0.765125 0.156685 57.5581
478 1 14.2739 1.62763 56.0432
479 2 5.29911 2.48729 65.5816
480 1 2.83981 1.96851 66.3213
481 1 3.19137 3.6236 64.0697
482 2 14.9428 1.4157 62.982
483 1 0.379465 0.76932 60.2132
484 2 16.363 4.6052 62.4935
485 1 14.659 3.21459 60.7191
486 1 15.4441 2.71842 58.1893
487 1 2.38945 2.51038 61.7212
488 1 3.06295 2.15786 59.0911
489 1 15.7172 5.31337 57.2956
490 1 16.6289 4.2025 70.9082
491 1 11.7773 5.35172 64.1989
492 2 3.76009 3.12727 70.8583
493 1 3.42334 5.01356 68.9732
494 1 7.08734 3.88892 67.1519
495 1 6.32149 4.3892 69.8603
496 1 4.15735 4.64097 66.4028
497 1 3.59518 5.1339 61.7882
498 1 4.42068 4.73525 59.2913
499 1 16.941 4.57721 59.9919
500 2 2.56888 3.94867 57.14
501 1 7.91326 2.67793 61.9907
502 1 5.81886 3.87626 63.3354
503 1 5.11798 2.48248 60.9919
504 1 6.9892 3.33484 59.0027
505 2 6.31218 4.69746 61.0707
506 1 12.0684 4.47675 69.7551
507 1 9.16584 4.42872 65.1578
508 1 9.20237 4.27697 68.8431
509 1 11.2006 5.04466 66.9884
510 2 10.2521 4.01258 62.8542
511 1 9.00662 4.75697 60.2872
512 1 5.12366 2.89496 57.1031
513 2 8.5142 4.98756 57.6018
514 1 12.0684 4.85624 61.0688
515 2 13.6734 4.85445 59.0122
516 1 7.79518 3.16985 55.8127
517 1 5.35195 0.16 56.0556
518 1 3.82242 5.842 55.3078
519 2 3.28956 5.02203 52.9793
520 1 5.04356 5.18052 50.9438
521 1 8.15806 0.628123 51.0229
522 1 8.25703 5.22972 51.77
523 2 7.09887 5.9341 49.4213
524 1 5.97295 4.79634 44.9998
525 1 8.19161 5.45212 43.0245
526 1 8.12533 5.51256 46.8402
527 1 5.27071 5.39725 41.9571
528 1 10.1279 6.73234 52.9984
529 2 10.7972 5.14852 50.976
530 1 12.7418 5.12681 52.8808
531 1 5.29091 0.521558 50.1365
532 1 11.3121 6.09661 48.4917
533 1 5.03902 -0.0868394 40.7755
534 1 15.4344 5.33773 52.3185
535 2 16.0376 5.22199 49.6243
536 1 13.5335 4.76356 50.2761
537 1 14.0099 6.36376 48.0271
538 2 8.03373 0.904219 46.4713
539 1 10.1991 5.89588 44.8782
540 1 11.1169 5.38691 42.4074
541 1 13.0587 5.13672 45.7619
542 1 13.7989 4.60963 43.0992
543 1 8.0337 0.307732 54.9236
544 1 3.25852 1.47583 47.9714
545 2 14.4343 5.91838 55.0743
546 2 12.3217 2.92153 54.5257
547 1 9.97263 1.01999 53.1448
548 1 13.8834 -0.133536 51.0645
549 1 12.8581 0.420474 53.8966
550 1 12.655 2.42027 51.7174
551 1 10.9847 0.62622 50.5024
552 1 10.5575 1.10253 45.5374
553 1 11.2912 0.559324 43.0692
554 1 8.67519 0.475151 43.7017
555 2 13.5495 6.55249 40.9885
556 1 1.49426 1.62878 55.4623
557 1 15.4105 2.49139 50.9999
558 1 14.7228 2.86827 53.7333
559 2 13.6339 1.64345 48.9918
560 1 12.7711 2.56759 46.7032
561 1 3.66639 3.0197 54.9035
562 1 4.62938 2.80957 52.2507
563 1 3.37098 5.33752 45.8179
564 1 16.6261 6.58026 47.363
565 1 14.9769 1.1657 46.7455
566 1 15.9559 5.23415 45.0309
567 1 17.788 5.72114 42.9825
568 2 13.2695 0.74903 45.0314
569 1 3.52675 0.498699 53.7794
570 1 17.6538 3.88702 50.882
571 2 2.00913 2.53542 53.1091
572 1 0.748773 0.566466 49.1699
573 1 0.513309 0.38793 53.0128
574 1 2.84574 1.22973 51.0206
575 2 1.78437 0.0889718 46.728
576 1 0.585756 0.662344 44.1148
577 1 1.84938 2.70441 45.8932
578 1 14.9825 3.88735 47.5511
579 1 15.7086 5.17385 41.2219
580 1 13.5847 1.99312 42.9744
581 2 15.4277 0.711828 41.3934
582 1 16.2245 3.23943 43.1123
583 2 14.6741 3.07134 45.1838
584 1 14.4086 2.94735 40.6586
585 1 6.13291 1.86733 47.8411
586 1 3.61942 0.776853 45.0087
587 1 4.91717 2.72883 41.0042
588 1 2.78617 1.12616 41.9745
589 2 5.39296 0.940206 43.0368
590 1 13.0495 0.790714 40.6925
591 1 16.6288 4.39597 54.8689
592 1 5.87918 4.68248 53.7978
593 2 5.83287 2.03745 54.6212
594 2 4.4096 2.96052 49.6107
595 1 2.52042 4.26985 48.2786
596 1 10.5299 4.3141 55.694
597 1 7.60741 2.66921 53.0467
598 2 9.44632 2.8184 50.9441
599 1 6.90371 3.22236 50.2127
600 1 9.10245 1.951 48.7149
601 1 5.35231 4.71758 47.9243
602 1 9.13189 4.65964 49.108
603 2 6.78537 3.31472 42.8115
604 1 4.01249 3.39535 43.6224
605 1 6.2734 1.9724 45.0269
606 1 7.40903 4.23475 40.4806
607 1 10.4464 3.71597 53.0629
608 2 8.51139 5.0212 54.4366
609 2 4.34794 3.03795 46.321
610 2 2.56902 3.72889 41.0004
611 1 11.361 3.2236 49.2223
612 1 8.61887 3.34992 44.9285
613 1 9.39383 2.98483 42.2127
614 2 11.857 2.93972 41.4547
615 1 10.3093 4.44363 40.1623
616 2 10.3985 3.84423 46.9551
617 1 11.3683 3.29428 44.2263
618 1 7.51281 1.11274 41.1925
ITEM: TIMESTEP
1500
ITEM: NUMBER OF ATOMS
618
ITEM: BOX BOUNDS xy xz yz pp pp ff
0.0000000000000000e+00 1.9317770367296919e+01 4.0025167278329121e+00
0.0000000000000000e+00 6.6702723500479264e+00 0.0000000000000000e+00
0.0000000000000000e+00 1.0921147561319708e+02 0.0000000000000000e+00
ITEM: ATOMS id type x y z
1 1 4.98805 6.22792 5.37271
2 1 6.54921 6.41578 7.90419
3 1 4.918 6.04843 12.635
4 1 5.803 0.418408 5.60965
5 1 4.16791 0.107261 10.377
6 1 6.4549 6.33035 15.0704
7 1 4.76162 5.86583 19.6682
8 1 12.5773 6.17811 5.5476
9 1 7.34152 0.771724 7.9797
10 1 5.80561 0.304624 12.8013
11 1 4.08504 -0.0942523 17.3871
12 1 6.26046 6.19167 22.1072
13 1 4.70078 5.88072 26.8112
14 1 10.7186 1.4389 5.65347
15 1 14.1518 6.51062 8.10648
16 1 9.16326 0.825259 10.5621
17 1 12.5455 6.01793 12.8217
18 1 7.31995 0.653226 15.1939
19 1 5.66755 0.247271 19.8346
20 1 4.05791 -0.18539 24.627
21 1 6.4157 6.47296 29.1533
22 1 4.51003 6.26167 33.8953
23 1 13.5764 0.440721 5.64176
24 1 12.8519 3.33929 5.54167
25 1 12.5783 1.55672 7.94241
26 1 11.9229 0.0295394 10.2428
27 1 11.4034 2.77351 10.2029
28 1 10.8502 1.20403 12.7675
29 1 14.0011 6.41316 15.0743
30 1 9.17102 0.928694 17.516
31 1 12.4736 6.07463 19.6927
32 1 7.40596 0.52571 22.1569
33 1 5.75989 0.282983 26.9559
34 1 3.87754 0.0433023 31.4914
35 1 2.10786 -0.343059 36.4178
36 1 15.5722 2.46612 5.55801
37 1 15.4078 0.746275 7.84519
38 1 14.5607 3.58631 8.09704
39 1 14.1548 1.79799 10.3349
40 1 13.4627 0.201739 12.6109
41 1 12.9604 3.14501 12.5476
42 1 12.2692 1.71725 14.9854
43 1 15.8161 6.7305 17.3488
44 1 11.3908 2.7642 17.4468
45 1 10.6534 1.30311 19.9351
46 1 14.2156 6.20127 22.0448
47 1 8.99461 0.881409 24.5382
48 1 12.5376 5.94854 26.8838
49 1 7.38752 0.668232 29.2481
50 1 5.54284 0.41046 33.676
51 1 3.56292 -0.127615 38.5746
52 1 3.08725 1.53319 5.55571
53 1 2.53632 4.31665 5.44528
54 1 2.07209 2.86084 7.98224
55 1 1.5076 1.07659 10.3062
56 1 16.3071 3.93457 10.2875
57 1 15.6469 2.39084 12.7644
58 1 15.1246 0.657605 15.082
59 1 14.6996 3.53925 15.0521
60 1 14.0419 1.90399 17.4225
61 1 13.3642 0.284997 19.8757
62 1 12.8427 3.17001 19.8248
63 1 12.3407 1.56188 22.1183
64 1 11.7983 -0.0478536 24.6517
65 1 11.2723 2.85209 24.3291
66 1 10.78 1.27972 26.9609
67 1 14.0781 6.35202 29.1085
68 1 9.02752 1.1103 31.5423
69 1 12.3735 6.19838 33.9558
70 1 7.22574 0.668404 36.1547
71 1 5.41522 3.49609 5.28581
72 1 4.69364 1.81471 7.93077
73 1 4.46154 4.55203 7.9833
74 1 3.79473 3.04483 10.1948
75 1 2.96266 1.34777 12.6832
76 1 2.56147 4.08909 12.5419
77 1 2.04637 2.56423 15.0677
78 1 1.36166 0.89198 17.5003
79 1 16.3145 3.71386 17.4164
80 1 15.7661 2.07261 19.8018
81 1 15.1393 0.550443 22.0447
82 1 14.7728 3.37718 22.0789
83 1 14.0578 1.8442 24.3958
84 1 13.5243 0.355775 26.861
85 1 12.9624 3.19877 26.6599
86 1 12.4813 1.50438 29.2019
87 1 11.6727 0.235393 31.5454
88 1 11.2672 3.06302 31.4967
89 1 10.617 1.44096 33.7113
90 1 13.903 6.42376 36.4679
91 1 8.68325 0.962455 38.7454
92 1 8.05645 2.4532 5.40206
93 1 7.71835 5.17524 5.3988
94 1 7.09557 3.53375 8.18222
95 1 6.32743 1.83134 10.4393
96 1 5.9286 4.89201 10.3604
97 1 5.30986 3.21347 12.6221
98 1 4.49561 1.60782 15.0521
99 1 4.29704 4.56591 15.1276
100 1 3.50041 2.63323 17.5245
101 1 3.03207 1.21453 19.8359
102 1 2.60272 4.16765 19.7416
103 1 2.11405 2.47139 22.2009
104 1 1.29269 0.938902 24.5705
105 1 16.2782 3.79316 24.545
106 1 15.6717 2.32525 26.7883
107 1 15.0317 0.652321 29.2154
108 1 14.4696 3.52898 29.2004
109 1 14.0193 1.93364 31.5505
110 1 13.1465 0.478267 33.9865
111 1 12.8124 3.38353 33.9547
112 1 11.9855 1.58134 36.2484
113 1 15.2821 6.44092 38.8777
114 1 11.4755 2.5117 38.9127
115 1 10.1912 4.1647 5.50176
116 1 9.78557 2.60996 8.15927
117 1 9.2267 5.50268 7.90997
118 1 8.63641 3.9123 10.3421
119 1 7.97697 2.28089 12.7645
120 1 7.64666 5.12055 12.5392
121 1 6.9053 3.55409 14.9811
122 1 6.40068 1.72405 17.4499
123 1 5.82867 4.54627 17.3385
124 1 5.23619 3.0635 19.733
125 1 4.62518 1.30055 22.2323
126 1 4.32334 4.30877 22.0626
127 1 3.56136 2.68322 24.6285
128 1 2.92358 1.14931 26.9911
129 1 17.8921 3.94529 27.0216
130 1 1.89612 2.61982 29.2316
131 1 1.229 1.00971 31.5436
132 1 16.0805 3.92715 31.5122
133 1 15.5016 2.27436 33.9478
134 1 14.8023 0.572943 36.2035
135 1 14.402 3.4894 36.2914
136 1 14.0515 1.80144 38.391
137 1 11.7981 4.64054 7.98147
138 1 10.9718 5.80447 10.5456
139 1 10.4217 4.03188 12.7051
140 1 9.42946 2.45085 15.0889
141 1 9.16521 5.41134 15.0178
142 1 8.52997 3.74552 17.368
143 1 7.88232 2.29018 19.8124
144 1 7.43839 4.9586 19.6835
145 1 6.84703 3.43654 22.0686
146 1 6.31191 1.85004 24.4644
147 1 5.83007 4.62035 24.5831
148 1 5.24841 2.97579 26.8804
149 1 4.56651 1.78576 29.2658
150 1 4.19262 4.57221 29.4003
151 1 3.43865 2.97294 31.5904
152 1 2.85768 1.176 33.8164
153 1 17.7371 4.30406 33.9523
154 1 1.86735 2.58141 36.113
155 1 1.22519 1.17749 38.8504
156 1 16.2273 3.86612 38.7579
157 1 15.1059 5.30866 5.51945
158 1 13.5762 4.7072 10.2509
159 1 11.9116 4.40133 15.0123
160 1 10.8273 5.57458 17.4834
161 1 10.2812 4.06506 19.7302
162 1 9.52633 2.51638 22.1431
163 1 9.04104 5.22358 22.2298
164 1 8.5198 3.65483 24.5768
165 1 8.14511 2.22518 26.7795
166 1 7.40351 4.9378 26.8419
167 1 6.91253 3.48011 29.1465
168 1 6.08474 1.96812 31.5055
169 1 5.611 4.95782 31.5449
170 1 4.90421 3.28814 33.8898
171 1 4.347 1.36619 36.0337
172 1 4.00869 4.5449 36.3285
173 1 3.46372 2.91982 38.6701
174 1 16.8339 5.49419 7.83932
175 1 15.157 5.26015 12.7253
176 1 13.787 4.66183 17.5339
177 1 11.927 4.38844 22.0358
178 1 10.8462 5.61367 24.5766
179 1 10.3377 4.0202 26.7895
180 1 9.61026 2.65983 29.227
181 1 9.22177 5.45034 29.0572
182 1 8.34541 3.86836 31.4695
183 1 7.6615 2.33753 33.7239
184 1 7.14377 5.10942 33.7715
185 1 6.65268 3.60526 36.1023
186 1 6.446 2.23452 38.6323
187 1 5.3779 4.84621 39.0142
188 1 18.6733 5.82185 10.2208
189 1 16.959 5.36372 15.0978
190 1 15.1435 4.94939 19.7872
191 1 13.6076 4.87095 24.3299
192 1 11.9204 4.56086 29.0422
193 1 10.7853 5.88233 31.5175
194 1 9.84537 4.32905 33.7766
195 1 9.46907 2.48176 35.7997
196 1 8.79552 5.43395 36.0945
197 1 8.95644 3.62369 37.9439
198 1 18.4088 5.75201 17.5223
199 1 16.7963 5.44375 22.304
200 1 15.2083 5.08156 26.782
201 1 13.3993 4.98883 31.6045
202 1 11.4786 4.39625 36.2829
203 1 10.4035 6.30253 38.4791
204 1 18.6651 5.62381 24.4299
205 1 16.6206 5.39393 29.0843
206 1 15.0125 5.41281 33.8371
207 1 13.0453 4.81625 38.8879
208 1 18.2455 5.83341 31.5514
209 1 16.527 5.31676 36.2978
210 1 18.2463 5.74342 38.6215
211 2 14.303 1.46653 102.447
212 1 14.8015 1.01053 99.7115
213 1 3.26465 0.336452 103.624
214 1 2.10592 1.19708 99.1683
215 1 1.38642 1.53011 101.824
216 2 0.417876 0.499715 97.1371
217 1 14.7084 1.49447 94.7911
218 1 5.59148 1.7853 103.209
219 1 6.46502 1.35626 100.52
220 1 1.65518 0.0224096 94.9377
221 1 4.4002 2.59412 99.0892
222 2 3.94565 1.27294 101.356
223 1 3.92316 1.35685 94.1027
224 1 2.10476 2.74415 95.5215
225 1 15.6222 0.858742 90.9463
226 1 3.12354 1.98796 91.0119
227 2 1.43492 1.91248 93.0823
228 1 0.519146 0.830897 88.2541
229 1 7.96574 0.297804 95.9029
230 1 7.15246 1.31893 89.31
231 1 8.83796 6.64756 90.2455
232 1 11.6667 5.0083 103.558
233 1 3.40235 3.21586 102.825
234 1 8.08956 2.89576 102.223
235 1 5.90522 4.518 103.604
236 2 7.93801 0.478151 102.723
237 2 5.50203 3.57533 101.284
238 1 7.08579 3.74475 99.0577
239 2 6.31662 1.50822 97.8068
240 1 4.75417 3.19742 96.4084
241 1 12.1414 1.60289 103.563
242 1 10.1749 1.59291 101.462
243 1 13.9985 6.17772 99.3736
244 2 11.3774 1.50117 99.2834
245 1 9.84407 3.86874 99.8894
246 1 8.85817 1.82497 98.2955
247 1 10.6995 0.56481 96.9201
248 1 7.63677 3.18201 95.9283
249 1 11.2102 3.21023 97.2943
250 2 9.00714 4.58333 97.3656
251 1 8.07775 3.39978 93.2526
252 2 8.80932 1.91143 91.0902
253 1 9.89277 4.28311 91.2861
254 1 5.96567 2.06069 91.8956
255 1 8.44599 0.543899 93.2631
256 1 10.1575 4.2539 95.1466
257 1 7.21968 4.17674 90.3299
258 1 9.37014 2.99835 88.8198
259 1 12.8027 2.55952 100.961
260 2 10.655 3.42809 102.486
261 1 12.1617 5.15061 100.952
262 2 13.1088 3.91695 98.9259
263 1 15.037 3.96917 100.809
264 1 11.1858 5.85223 98.1997
265 1 13.579 4.66618 96.7929
266 2 6.39974 1.69044 94.4803
267 2 5.04196 2.56889 89.5111
268 1 10.9383 5.3526 88.7339
269 1 17.6319 4.00711 100.274
270 1 13.5343 1.70876 97.3708
271 1 10.7127 2.1261 93.121
272 1 11.3725 1.70327 90.5081
273 2 13.8642 1.69311 89.6679
274 1 12.1463 3.06475 88.0936
275 2 2.87306 4.05644 97.5584
276 1 15.7962 3.27952 98.1432
277 1 16.0194 5.04835 96.1466
278 2 12.5235 2.71939 95.0893
279 1 13.37 2.20689 92.3819
280 2 14.0576 6.06094 94.6302
281 1 12.226 4.58778 93.1253
282 1 12.6977 4.14455 90.4759
283 1 15.2074 4.00998 93.8533
284 1 15.9034 3.59781 91.1556
285 1 13.4649 6.61058 89.3293
286 1 14.3546 5.74788 102.776
287 1 5.0963 0.141109 96.1924
288 2 16.7842 4.74723 102.892
289 1 16.3571 6.54328 101.004
290 1 4.63574 5.19209 99.2927
291 1 3.86772 5.78286 101.793
292 1 16.9977 6.02449 98.4423
293 1 16.5147 6.56103 93.7307
294 1 17.3326 6.04062 91.166
295 1 14.5822 5.9711 91.9125
296 2 15.5003 5.34659 89.2751
297 1 5.42849 4.09446 93.9426
298 1 3.29586 5.46395 95.2882
299 1 2.77477 3.89666 93.0756
300 1 4.69977 4.67022 91.0756
301 2 3.94657 6.14918 92.9928
302 1 9.41293 5.73476 102.119
303 1 6.5657 5.81685 97.2402
304 1 6.82154 5.64725 101.281
305 1 8.60714 6.44538 99.0669
306 2 7.69617 5.34191 94.7562
307 1 6.73078 6.11087 92.3756
308 1 2.75593 4.07682 89.2233
309 2 6.33179 6.47355 89.7338
310 1 9.65722 6.17165 93.1613
311 2 11.4239 6.40136 91.2351
312 1 5.29688 4.76271 88.0633
313 1 3.36699 1.42362 88.0422
314 1 13.2212 0.801319 87.3367
315 2 16.6575 6.57101 85.0627
316 1 14.132 0.0507116 82.9011
317 1 5.90897 2.25435 83.1844
318 1 5.97385 6.6739 83.9074
319 2 0.792876 0.603804 81.5399
320 1 3.71526 6.14559 77.1304
321 1 1.56094 0.1501 75.176
322 1 5.75464 6.68971 78.8701
323 1 18.0877 6.85381 74.0303
324 1 4.08971 1.5314 85.2375
325 2 8.65837 6.7302 83.0912
326 1 6.6661 0.217432 85.0628
327 1 3.15518 2.11777 82.297
328 1 5.14787 1.01464 80.7812
329 1 2.48218 1.33176 72.7283
330 1 9.38535 0.223486 84.4046
331 2 13.6278 6.37437 81.6303
332 1 11.2475 6.44388 82.5046
333 1 7.63308 1.08644 80.0491
334 2 5.79416 2.29958 78.5458
335 1 3.7855 0.390258 76.9595
336 1 4.48757 0.0570266 74.2904
337 1 10.7793 6.60617 77.6907
338 1 11.4389 6.20774 75.0616
339 1 6.13079 2.22131 87.1241
340 1 16.53 2.76844 80.2558
341 2 8.37374 0.790393 87.0281
342 2 9.89759 3.97055 86.6619
343 1 8.18902 2.71194 85.008
344 1 11.716 1.76531 83.1135
345 1 11.1931 1.9626 85.7706
346 1 10.616 4.00999 83.8668
347 1 8.77036 2.20526 82.3834
348 1 8.38467 2.29918 77.8212
349 1 8.91267 2.06514 75.1645
350 1 6.21537 1.81339 75.7125
351 2 7.20001 1.43525 73.0563
352 1 14.6553 3.41979 87.4452
353 1 13.2749 4.14361 83.1996
354 1 12.5831 4.61269 85.865
355 2 11.7032 3.70073 81.232
356 1 10.3517 4.04586 78.7973
357 1 16.9117 4.78178 86.9526
358 1 2.56398 4.32652 84.3862
359 1 12.5397 0.0382561 77.8133
360 1 10.3162 1.18216 79.6063
361 1 12.5976 2.66419 78.967
362 1 13.6116 6.69044 76.9388
363 1 11.5343 0.61263 74.9158
364 2 11.0005 2.04203 77.0217
365 1 1.42158 2.22047 85.8534
366 1 15.5925 5.4482 82.9125
367 2 15.0967 4.40048 85.1834
368 1 14.0051 2.37915 81.1384
369 1 13.919 2.12125 84.8009
370 1 15.8347 2.73558 83.0803
371 2 14.7068 1.52708 78.8209
372 1 13.5054 2.18223 76.2539
373 1 15.0088 4.07662 77.8347
374 1 12.8528 5.29316 79.3689
375 1 9.5496 0.203128 73.1155
376 1 11.1339 3.49655 74.9058
377 2 13.0687 2.38048 73.6211
378 1 13.8256 4.63114 74.9158
379 2 12.2486 4.469 77.0268
380 1 11.1452 3.2254 72.2376
381 1 3.96828 3.47237 80.0376
382 1 1.41978 2.12371 77.2404
383 1 2.68554 4.06654 73.2487
384 1 15.7111 2.67641 74.221
385 2 3.07068 2.28736 75.1008
386 1 12.299 0.605138 71.9316
387 1 14.5677 6.19114 86.9623
388 1 3.85736 6.12749 85.8931
389 2 3.70198 3.5868 86.6883
390 2 17.4865 4.47095 81.7483
391 1 15.525 5.51229 80.1849
392 1 8.10352 5.27714 87.9533
393 1 5.71689 4.22671 85.1853
394 2 7.24539 4.39876 83.058
395 1 4.57814 4.70725 82.3452
396 1 6.68533 3.43594 80.7576
397 1 18.4162 6.1081 80.182
398 1 6.91977 6.05686 81.2155
399 2 4.39311 4.53684 75.0993
400 1 17.1214 4.54571 75.7745
401 1 3.97328 3.2337 77.3019
402 1 4.7804 5.60127 72.7378
403 1 8.40177 5.36027 85.1081
404 2 6.45659 6.51906 86.4201
405 2 17.4714 4.44795 78.5135
406 2 15.8463 5.28263 73.2925
407 1 9.34753 4.98392 81.3617
408 1 6.11598 4.62785 77.1071
409 1 6.86695 4.34175 74.3766
410 2 9.38612 4.28409 73.4957
411 1 7.39123 5.52106 72.006
412 2 8.1925 5.29608 78.9428
413 1 8.88817 4.81046 76.2399
414 1 4.93847 2.64905 73.2032
415 2 1.42019 0.0627484 70.5082
416 1 5.80499 6.39661 67.7666
417 1 9.96649 5.76142 71.3703
418 1 8.60738 6.36962 67.0708
419 1 3.94225 0.0670969 69.6569
420 2 6.82911 5.7028 65.0998
421 1 1.86027 -0.0720735 62.9514
422 1 8.25107 0.462033 70.8828
423 1 13.1642 6.50412 68.2738
424 1 8.13096 5.3787 62.8759
425 1 6.89347 1.26737 66.9304
426 2 10.6506 6.58841 69.0247
427 1 10.3426 6.73754 61.8614
428 1 4.40001 1.33764 63.3099
429 1 6.68043 6.06449 58.9519
430 1 5.36147 0.620608 58.9269
431 2 3.55733 0.431622 61.0204
432 1 6.67002 5.8101 56.1958
433 1 14.5548 5.53792 63.7857
434 1 9.39611 0.00164528 57.2035
435 1 11.0649 5.33592 58.1113
436 1 13.9872 4.12275 72.1232
437 1 6.09355 1.84392 70.6761
438 1 10.6865 1.82707 69.8165
439 1 8.6314 3.17304 71.3005
440 2 14.5205 5.97113 70.6717
441 2 8.11969 2.27219 68.9587
442 1 9.68164 2.33522 67.0739
443 2 8.86521 0.250599 65.6737
444 1 7.14056 1.64261 64.1959
445 1 15.1666 1.48412 71.6839
446 1 16.3758 6.51687 69.1755
447 1 16.5389 4.54157 67.1327
448 2 13.9867 0.000301532 67.1445
449 1 12.7338 2.39541 67.8519
450 1 11.3947 0.363599 66.1969
451 1 17.3462 5.71992 64.7054
452 1 10.0445 1.65579 63.9878
453 1 13.5558 1.74909 65.2475
454 2 11.5469 3.07238 65.4439
455 1 10.4561 2.02071 61.1931
456 2 11.0577 0.716038 59.124
457 1 12.3425 2.80217 59.1801
458 1 8.38075 0.618 59.8958
459 1 14.7416 5.90779 61.267
460 1 12.5757 2.65255 62.9767
461 1 9.51078 2.61442 58.3211
462 1 11.6752 1.59409 56.6436
463 1 15.031 1.00685 69.0696
464 2 13.115 2.2867 70.3735
465 1 14.7228 3.93517 69.1887
466 2 15.2012 2.41727 67.0971
467 1 1.99926 2.47098 68.9401
468 1 13.7471 4.48266 66.2143
469 1 15.848 3.36301 64.8081
470 2 8.72394 0.206139 62.4918
471 2 7.23515 1.24007 57.4744
472 1 13.2375 4.03541 56.8559
473 1 4.67869 2.44135 68.4396
474 1 0.546783 0.394542 65.2333
475 1 12.9731 0.564793 61.1165
476 1 13.64 0.337917 58.4771
477 2 0.787067 0.231991 57.6379
478 1 14.1812 1.62213 56.1344
479 2 5.23648 2.59787 65.5283
480 1 2.71063 1.96677 66.2644
481 1 3.1067 3.47367 63.9633
482 2 14.9204 1.27247 63.0189
483 1 0.342001 0.764236 60.3397
484 2 16.4384 4.5352 62.4511
485 1 14.5772 3.12855 60.9089
486 1 15.3185 2.72049 58.3644
487 1 2.28654 2.54592 61.6705
488 1 2.66218 2.19079 59.0423
489 1 15.6442 5.39935 57.29
490 1 16.6959 4.28885 70.9056
491 1 11.5604 5.37678 64.0918
492 2 3.73705 3.04587 70.886
493 1 3.41789 5.00389 69.0874
494 1 7.04781 3.91806 67.0967
495 1 6.32999 4.39942 69.644
496 1 4.10268 4.61111 66.4699
497 1 3.58755 5.0807 61.7194
498 1 4.41203 4.69349 59.2201
499 1 16.8908 4.69506 59.889
500 2 2.69415 4.30161 57.1286
501 1 8.04133 2.80097 61.8638
502 1 5.70596 3.89629 63.3037
503 1 4.86957 2.63239 60.9563
504 1 6.88442 3.26351 59.0379
505 2 6.42383 4.7334 61.1076
506 1 12.2083 4.52249 69.9383
507 1 9.10818 4.13411 65.067
508 1 9.3455 4.45711 68.8934
509 1 11.1443 4.98495 66.8342
510 2 10.0671 3.99765 62.5973
511 1 9.0879 4.76363 60.1218
512 1 5.01108 2.84742 57.1508
513 2 8.70058 4.8923 57.7061
514 1 12.0429 4.77413 61.1922
515 2 13.6162 4.98356 59.1714
516 1 7.67451 3.1491 56.0826
517 1 5.42396 0.0536029 56.1559
518 1 3.95952 5.95472 55.351
519 2 3.44101 4.91044 53.1848
520 1 5.11387 5.04806 51.0229
521 1 8.08493 0.66455 51.332
522 1 8.07886 5.22225 51.786
523 2 7.15149 5.72828 49.2704
524 1 6.06591 4.83075 44.8424
525 1 8.07821 5.42382 42.9635
526 1 8.09871 5.32048 46.8051
527 1 5.47229 5.39995 41.9144
528 1 10.0857 6.5739 53.0755
529 2 10.839 5.12097 51.0046
530 1 12.733 5.18994 52.9013
531 1 5.28231 0.505358 50.147
532 1 11.4268 5.82782 48.4726
533 1 4.99273 -0.0138366 40.7833
534 1 15.4989 5.29272 52.2072
535 2 16.2149 5.28184 49.5182
536 1 13.6009 4.75958 50.2645
537 1 14.1904 6.41246 48.071
538 2 8.18934 1.001 46.48
539 1 10.0782 5.8632 45.1019
540 1 11.0548 5.47892 42.513
541 1 13.1151 5.18428 45.7826
542 1 13.8212 4.73065 43.2079
543 1 8.10021 0.402562 54.9215
544 1 3.25608 1.236 47.9198
545 2 14.4996 5.80692 54.9179
546 2 12.3184 2.99129 54.5206
547 1 10.3438 1.04756 53.0723
548 1 13.8823 -0.0467963 51.2419
549 1 13.1968 0.485498 53.7384
550 1 12.5711 2.5494 51.8765
551 1 10.9472 0.657882 50.4399
552 1 10.6381 1.1712 45.6801
553 1 11.3411 0.74053 43.176
554 1 8.67013 0.519996 43.8461
555 2 13.6649 6.62385 41.0606
556 1 1.43698 1.74331 55.5017
557 1 15.4622 2.54618 51.0379
558 1 14.7148 2.83806 53.6264
559 2 13.5878 1.78602 49.2362
560 1 12.7325 2.7104 46.686
561 1 3.71445 3.13293 54.9589
562 1 4.64667 2.58955 52.1181
563 1 3.61422 5.30428 45.6953
564 1 16.7884 6.47394 47.4416
565 1 15.0116 1.21228 46.7415
566 1 15.9223 5.11625 44.9894
567 1 17.8372 5.77445 42.9294
568 2 13.2515 0.549422 44.968
569 1 3.60677 0.540654 53.989
570 1 17.8408 3.9043 50.8286
571 2 2.06978 2.69837 53.1356
572 1 0.539291 0.0809153 49.0801
573 1 0.847955 0.356922 53.0264
574 1 2.62385 0.994877 50.959
575 2 1.65977 0.0324138 46.5028
576 1 0.674765 0.654436 44.092
577 1 1.97603 2.56207 45.7772
578 1 15.226 3.97898 47.457
579 1 15.7747 5.17428 41.1085
580 1 13.7329 2.09613 42.9897
581 2 15.5321 0.789937 41.3786
582 1 16.3738 3.35063 43.0563
583 2 14.5864 2.99761 45.0325
584 1 14.4077 3.08426 40.6925
585 1 6.14874 1.5764 47.6632
586 1 3.77261 0.789783 45.0338
587 1 4.93953 2.78875 40.8909
588 1 2.6772 1.13065 42.0381
589 2 5.35037 0.966932 42.9933
590 1 13.123 0.824618 40.8306
591 1 16.6215 4.47802 54.7662
592 1 6.10602 4.47219 53.804
593 2 5.9148 2.06864 54.7167
594 2 4.41146 2.9411 49.6135
595 1 2.73806 4.2216 48.1813
596 1 10.5124 4.04704 55.842
597 1 7.93633 2.53851 53.3718
598 2 9.33841 2.78893 51.1921
599 1 6.85402 3.16573 50.2558
600 1 8.72107 1.79139 48.8439
601 1 5.58667 4.45598 47.5732
602 1 9.19054 4.57168 49.2036
603 2 6.71585 3.30675 42.8385
604 1 3.87835 3.42595 43.3247
605 1 6.39618 1.96053 44.9309
606 1 7.48864 4.08284 40.5063
607 1 10.4628 3.83496 53.2027
608 2 8.48863 4.93656 54.4905
609 2 4.44632 3.04177 46.2111
610 2 2.68191 4.04285 40.9415
611 1 11.2257 3.07822 49.3948
612 1 8.69674 3.40688 44.8826
613 1 9.45117 2.99014 42.1614
614 2 12.0388 3.22436 41.5174
615 1 10.3131 4.35472 40.2584
616 2 10.3694 3.81005 47.024
617 1 11.3027 3.36196 44.2607
618 1 7.40045 1.33332 41.371
ITEM: TIMESTEP
1600
ITEM: NUMBER OF ATOMS
618
ITEM: BOX BOUNDS xy xz yz pp pp ff
0.0000000000000000e+00 1.9317770367296919e+01 4.0025167278329121e+00
0.0000000000000000e+00 6.6702723500479264e+00 0.0000000000000000e+00
0.0000000000000000e+00 1.0921147561319708e+02 0.0000000000000000e+00
ITEM: ATOMS id type x y z
1 1 4.92838 6.42046 5.51374
2 1 6.54981 6.45532 8.0173
3 1 4.86033 6.08227 12.6197
4 1 5.77049 0.423624 5.35775
5 1 4.1942 -0.0266678 10.4064
6 1 6.48444 6.46474 15.0457
7 1 4.79296 6.04575 19.98
8 1 12.5036 6.22548 5.55641
9 1 7.47659 0.651411 8.23789
10 1 5.68849 0.34368 12.6502
11 1 4.05702 0.0166677 17.4574
12 1 6.65591 6.23489 22.1115
13 1 4.96657 6.14478 26.7808
14 1 10.8508 1.41234 5.54982
15 1 14.2725 6.39332 8.04556
16 1 9.10594 1.00778 10.3781
17 1 12.4574 6.00352 12.6879
18 1 7.59579 0.528215 15.0143
19 1 5.84538 0.121656 19.6709
20 1 4.15565 -0.15731 24.3647
21 1 6.37518 6.28293 29.1599
22 1 4.63003 5.97971 33.8943
23 1 13.4421 0.551565 5.48682
24 1 13.1432 3.44343 5.66515
25 1 12.2784 1.73233 8.03973
26 1 11.717 0.0905219 10.5166
27 1 11.3206 2.91576 10.6004
28 1 10.6441 1.23417 12.7444
29 1 14.2967 6.3145 15.0471
30 1 8.90561 0.959461 17.256
31 1 12.4736 5.65039 19.8827
32 1 7.34549 0.463526 22.0814
33 1 5.711 0.134656 26.7319
34 1 3.95059 0.15478 31.483
35 1 2.40472 -0.361658 36.049
36 1 15.9117 2.48438 5.39468
37 1 14.9673 0.808653 7.96918
38 1 14.7904 3.679 8.00188
39 1 13.9617 2.06613 10.2994
40 1 13.3529 0.525576 12.5582
41 1 12.9696 3.28877 13.0036
42 1 12.46 1.47774 15.2239
43 1 15.8459 6.5107 17.47
44 1 11.1717 2.80542 17.5965
45 1 10.6848 1.12948 19.5724
46 1 14.1949 6.18902 22.1678
47 1 9.12365 0.824406 24.4514
48 1 12.4408 5.8607 26.8194
49 1 7.24081 0.555857 29.0679
50 1 5.46624 0.407969 33.858
51 1 3.57803 -0.11878 38.3934
52 1 3.16341 1.37375 5.29624
53 1 2.79494 4.41938 5.49873
54 1 2.17035 2.45013 7.90125
55 1 1.49435 0.882196 10.2111
56 1 16.3596 3.88244 10.2313
57 1 15.8292 2.13332 12.6158
58 1 15.2058 0.682501 15.0464
59 1 14.6388 3.47678 15.1181
60 1 13.956 1.81843 17.4254
61 1 13.4582 0.234858 19.6493
62 1 12.8794 3.07363 19.7662
63 1 12.4169 1.43842 22.0595
64 1 11.7934 -0.200924 24.32
65 1 11.2949 2.74067 24.5801
66 1 10.6157 1.10986 26.779
67 1 14.1508 6.36437 29.1728
68 1 8.90239 0.994613 31.4621
69 1 12.3035 6.08252 33.7645
70 1 7.28506 0.73816 36.0735
71 1 5.39417 3.24102 5.57117
72 1 4.90377 1.52774 8.0502
73 1 4.27285 4.58905 7.91717
74 1 3.6756 2.82313 10.4226
75 1 3.19093 1.28556 12.6415
76 1 2.70867 4.26002 12.7029
77 1 2.04549 2.57189 14.9877
78 1 1.44107 1.05253 17.3663
79 1 16.2697 3.80326 17.4211
80 1 15.585 2.14115 19.7768
81 1 15.0581 0.580969 22.1842
82 1 14.4314 3.48474 22.104
83 1 14.0798 1.76799 24.5663
84 1 13.3328 0.263065 26.8491
85 1 12.9093 3.14545 27.0038
86 1 12.3443 1.77002 29.1459
87 1 11.6471 0.0714198 31.5916
88 1 11.1644 2.83878 31.5974
89 1 10.6677 1.13677 33.9809
90 1 13.921 6.419 36.2444
91 1 8.73155 0.872069 38.7891
92 1 8.15417 2.39623 5.66317
93 1 7.63663 5.29777 5.55098
94 1 6.95577 3.67427 7.92506
95 1 6.35512 1.98082 10.3792
96 1 5.90271 4.72131 10.2609
97 1 5.42031 3.20839 12.5952
98 1 4.74791 1.51027 15.0395
99 1 4.15447 4.47081 14.951
100 1 3.65279 2.94353 17.3734
101 1 3.0095 1.16027 19.6684
102 1 2.6702 3.93095 19.7037
103 1 1.90765 2.33106 22.1036
104 1 1.44493 0.804203 24.3821
105 1 16.259 3.63591 24.4573
106 1 15.7533 2.06495 26.7578
107 1 14.9868 0.710426 29.1882
108 1 14.696 3.56853 29.1688
109 1 13.9363 1.97354 31.4272
110 1 13.3364 0.283944 33.9475
111 1 12.7106 3.10125 33.8906
112 1 12.0892 1.63693 36.3742
113 1 15.1478 6.55262 38.7799
114 1 11.4068 2.58917 38.993
115 1 10.4262 4.43059 5.71341
116 1 9.68926 2.69214 7.94486
117 1 9.27591 5.35249 8.15708
118 1 8.56189 3.84827 10.5145
119 1 7.97556 2.16238 12.8307
120 1 7.48895 5.05464 12.8106
121 1 6.98819 3.49981 15.1507
122 1 6.26963 1.92166 17.4989
123 1 5.91551 4.86847 17.472
124 1 5.28789 3.13672 19.8462
125 1 4.77303 1.57361 22.067
126 1 4.2319 4.39998 22.1618
127 1 3.75678 2.84353 24.3895
128 1 3.09885 1.28191 26.7656
129 1 17.7978 4.0891 26.6761
130 1 1.96491 2.58208 28.968
131 1 1.19949 0.972447 31.4998
132 1 16.2287 3.89106 31.4455
133 1 15.5077 2.17066 33.9038
134 1 15.0216 0.642012 36.2467
135 1 14.3307 3.49959 36.2015
136 1 14.0219 2.11474 38.3198
137 1 11.9607 4.44457 8.22616
138 1 10.801 5.73516 10.3903
139 1 10.1425 4.26329 12.8873
140 1 9.78043 2.45699 15.0189
141 1 9.14142 5.33967 15.1671
142 1 8.45061 3.77784 17.5729
143 1 8.02976 1.94075 19.7818
144 1 7.45549 4.94021 19.9055
145 1 7.06972 3.35557 22.1457
146 1 6.4878 1.70333 24.5465
147 1 5.99993 4.66633 24.4348
148 1 5.2463 3.19245 26.7625
149 1 4.5284 1.47273 29.0379
150 1 4.09366 4.29968 29.0076
151 1 3.57307 2.85247 31.3597
152 1 2.90409 1.41644 33.921
153 1 17.716 4.16947 33.8562
154 1 1.72187 2.59704 36.5504
155 1 1.06327 0.921772 39.0599
156 1 16.1588 3.81343 38.9228
157 1 15.2559 5.30813 5.64062
158 1 13.4934 4.95035 10.5132
159 1 11.8303 4.43193 15.1419
160 1 10.6932 5.68306 17.36
161 1 10.1258 3.82952 19.8056
162 1 9.69735 2.35155 22.0778
163 1 9.2938 5.25181 21.9949
164 1 8.59568 3.61906 24.4842
165 1 7.91021 2.15628 26.8821
166 1 7.52544 5.06111 26.7471
167 1 6.76571 3.44498 29.1343
168 1 6.3014 1.95083 31.431
169 1 5.84772 4.75783 31.4088
170 1 5.2166 3.16282 33.7659
171 1 4.49878 1.76228 36.4012
172 1 4.10344 4.583 36.345
173 1 3.36979 2.97282 38.8823
174 1 16.9526 5.60634 8.03145
175 1 15.3484 5.05557 12.7191
176 1 13.4372 4.66744 17.509
177 1 11.816 4.17932 22.1868
178 1 10.8554 5.49584 24.4262
179 1 10.1868 4.04149 26.8365
180 1 9.56716 2.56347 29.0505
181 1 9.1038 5.32844 29.1951
182 1 8.58085 3.84577 31.5707
183 1 7.87761 2.23128 33.7381
184 1 7.58088 5.13202 33.7156
185 1 6.87973 3.55872 36.3002
186 1 6.2756 1.94973 38.6514
187 1 5.36822 4.87835 38.8551
188 1 18.545 5.65944 10.3194
189 1 16.7783 5.38226 14.9932
190 1 15.1624 5.0679 19.7365
191 1 13.5035 4.52276 24.6054
192 1 11.7947 4.53228 29.1539
193 1 10.6949 5.86477 31.379
194 1 10.23 4.03725 33.8287
195 1 9.52683 2.44808 36.0113
196 1 8.99284 5.40103 35.9306
197 1 8.84236 3.83964 38.1792
198 1 18.4811 5.63386 17.2807
199 1 16.8326 5.27509 21.9488
200 1 15.1661 5.09083 26.8423
201 1 13.4519 4.86574 31.4393
202 1 11.6806 4.36964 36.2694
203 1 10.5439 5.91985 38.175
204 1 18.4282 5.68739 24.5073
205 1 16.8983 5.49493 29.2704
206 1 14.9247 4.99637 34.0296
207 1 13.0524 4.8072 38.9243
208 1 18.5641 5.86874 31.5022
209 1 16.7386 5.36927 36.3751
210 1 17.9472 5.78327 38.8277
211 2 14.3158 1.48116 102.38
212 1 14.7202 1.09263 99.9156
213 1 3.3427 0.217794 103.386
214 1 2.09749 0.985314 99.1398
215 1 1.43725 1.61862 101.725
216 2 0.312186 0.658758 97.1022
217 1 14.5286 1.48304 94.8815
218 1 5.76487 1.60399 103.033
219 1 6.74468 1.27091 100.376
220 1 1.7113 0.177346 94.8514
221 1 4.38836 2.62945 99.1053
222 2 4.15631 1.0393 101.151
223 1 3.96157 1.54851 93.8513
224 1 1.83594 2.77612 95.4559
225 1 15.6282 0.832364 90.9905
226 1 3.0619 2.07395 90.9684
227 2 1.3404 1.87485 93.0407
228 1 0.596928 1.07652 88.3767
229 1 7.92754 0.288772 95.9306
230 1 6.96764 1.27571 89.237
231 1 8.77538 6.82538 90.3255
232 1 11.5331 4.73939 103.714
233 1 3.52192 3.05705 102.823
234 1 8.01065 3.19316 102.329
235 1 5.84013 4.49542 103.593
236 2 7.77023 0.475374 102.668
237 2 5.44854 3.55897 101.224
238 1 6.98558 3.73434 99.1545
239 2 6.28319 1.53219 97.7123
240 1 4.47831 2.8227 96.353
241 1 12.5093 1.62526 103.6
242 1 9.88399 1.43755 101.466
243 1 14.0059 6.02393 99.2934
244 2 11.3488 1.49695 99.1957
245 1 9.87581 3.71404 100.022
246 1 8.80621 1.83145 98.212
247 1 10.6532 0.599961 96.7762
248 1 7.57829 3.26081 96.0064
249 1 11.1423 3.2243 97.3488
250 2 9.0461 4.50052 97.5263
251 1 8.09445 3.515 93.2529
252 2 8.66222 2.02864 91.2176
253 1 10.0157 4.15724 91.2335
254 1 6.13388 2.02545 91.8485
255 1 8.26975 0.578574 93.1797
256 1 10.0284 4.28204 95.095
257 1 7.22831 4.23844 90.3186
258 1 9.2683 2.80617 88.9014
259 1 12.5798 2.49007 101.002
260 2 10.626 3.27366 102.54
261 1 12.248 5.23286 101.095
262 2 13.0759 3.73301 99.0216
263 1 14.7377 3.96914 101.102
264 1 11.1501 5.7974 98.3875
265 1 13.3752 4.74777 96.8575
266 2 6.37509 1.74041 94.5445
267 2 4.95782 2.79363 89.4903
268 1 10.7825 5.36985 88.7074
269 1 17.4413 3.99831 100.191
270 1 13.3029 1.82271 97.2972
271 1 10.5581 2.17237 93.1417
272 1 11.3735 1.69297 90.6158
273 2 13.8899 1.90022 89.5898
274 1 11.8971 3.03542 88.0994
275 2 2.72302 3.94798 97.5294
276 1 15.5213 3.23944 98.1904
277 1 16.0373 5.09614 96.02
278 2 12.3932 2.82442 94.8872
279 1 13.4949 2.22328 92.3205
280 2 13.9539 6.14559 94.6647
281 1 12.298 4.55043 92.959
282 1 12.8082 4.17354 90.3513
283 1 15.0941 3.913 93.8312
284 1 15.8667 3.59129 91.1417
285 1 13.3349 6.67251 89.4033
286 1 14.2382 5.97879 103.215
287 1 5.11429 0.106376 96.2386
288 2 16.6914 4.64572 102.724
289 1 16.0781 6.55156 101.028
290 1 4.47759 5.36582 99.3396
291 1 3.77678 5.62467 101.992
292 1 16.8107 6.03521 98.478
293 1 16.5461 6.54096 93.8326
294 1 17.3559 6.18878 91.2099
295 1 14.7499 5.99993 91.8905
296 2 15.5603 5.38549 89.1673
297 1 5.49506 4.1198 93.8682
298 1 3.58654 5.15284 95.3625
299 1 2.58323 3.99944 92.9394
300 1 4.62161 4.86792 90.9743
301 2 3.8984 6.18975 93.113
302 1 9.39885 5.66164 102.105
303 1 6.40337 5.54182 97.1828
304 1 6.78756 5.64356 101.2
305 1 8.57591 6.41318 99.0524
306 2 7.73218 5.5795 94.7283
307 1 6.62573 6.15088 92.3319
308 1 2.49265 3.9922 89.2372
309 2 6.32898 6.41842 89.6074
310 1 9.64953 6.1724 93.1133
311 2 11.2147 6.33937 91.0984
312 1 5.25313 4.93595 88.1113
313 1 3.50168 1.34473 88.0459
314 1 13.2553 0.881647 87.3534
315 2 16.665 6.65894 84.969
316 1 14.3637 0.159587 83.0277
317 1 6.03609 2.19293 83.2991
318 1 6.06831 6.84292 83.9163
319 2 0.846619 0.869148 81.4041
320 1 3.64272 5.99279 77.3588
321 1 1.55973 0.0681745 75.2721
322 1 5.68089 6.60756 79.0053
323 1 18.0705 6.64765 74.3004
324 1 4.038 1.55623 85.2023
325 2 8.72243 6.82424 83.0486
326 1 6.60424 0.131796 85.0922
327 1 3.28506 2.28774 82.1501
328 1 5.27793 1.0471 80.7656
329 1 2.47135 1.30378 72.8051
330 1 9.2721 0.281519 84.3387
331 2 13.7179 6.33084 81.5837
332 1 11.2707 6.36357 82.3765
333 1 7.75925 1.22828 80.146
334 2 5.86126 2.43216 78.4974
335 1 3.61409 0.588841 76.9987
336 1 4.57562 0.171412 74.3487
337 1 10.7082 6.64238 77.786
338 1 11.4127 6.16446 75.075
339 1 6.06926 2.38981 87.016
340 1 16.6256 2.65131 79.8771
341 2 8.44809 0.89439 87.019
342 2 9.90632 4.23327 86.4966
343 1 8.11352 2.74787 85.0007
344 1 11.8146 1.90894 83.1082
345 1 11.0171 2.08858 85.6108
346 1 10.4115 4.08955 83.7103
347 1 8.8017 2.1426 82.4011
348 1 8.2925 2.34244 77.7993
349 1 9.01591 2.07589 75.212
350 1 6.21993 1.82914 75.8915
351 2 7.23657 1.4816 73.2936
352 1 14.5159 3.48647 87.435
353 1 13.1147 4.17876 83.3063
354 1 12.5904 4.6968 85.9322
355 2 11.4524 3.70106 81.1078
356 1 10.227 4.07522 78.8148
357 1 16.8687 4.91642 86.9309
358 1 2.55612 4.28174 84.3392
359 1 12.5388 0.19007 78.1138
360 1 10.3975 1.10542 79.4865
361 1 12.5855 2.82627 78.9156
362 1 13.6357 6.65584 76.9421
363 1 11.6174 0.621246 75.0679
364 2 10.8511 2.1404 77.2107
365 1 1.50559 2.32614 86.1083
366 1 15.5182 5.5995 83.0608
367 2 15.2544 4.33869 85.1389
368 1 13.8882 2.32499 81.1221
369 1 13.9403 2.1542 84.9537
370 1 15.7476 2.8429 83.01
371 2 14.73 1.47478 78.6303
372 1 13.602 2.05091 76.303
373 1 14.9015 4.07217 77.9143
374 1 12.7608 5.47786 79.3565
375 1 9.59796 0.161324 73.0919
376 1 11.2714 3.51441 74.9878
377 2 13.2141 2.23833 73.6919
378 1 13.9066 4.64154 74.9438
379 2 12.3401 4.49022 76.9764
380 1 11.1344 3.2027 72.2738
381 1 4.17619 3.60824 79.8166
382 1 1.28658 2.09431 77.0725
383 1 2.53444 4.00324 73.3093
384 1 15.6741 2.58758 74.2823
385 2 2.79406 2.28532 74.9892
386 1 12.2709 0.510711 72.0858
387 1 14.6697 6.29021 86.7887
388 1 3.9499 6.14496 85.9319
389 2 3.69962 3.60891 86.7754
390 2 17.5026 4.52807 81.7061
391 1 15.3968 5.18226 80.3308
392 1 8.19796 5.25739 87.9461
393 1 5.77422 4.31082 85.2415
394 2 7.31086 4.40714 83.1119
395 1 4.70234 4.8304 82.1655
396 1 6.83837 3.53237 80.8552
397 1 18.2432 6.17909 80.2041
398 1 6.98432 6.21202 81.2851
399 2 4.16858 4.62183 75.1118
400 1 16.9368 4.71459 75.9682
401 1 4.00201 3.25371 77.0986
402 1 4.82237 5.46813 72.7197
403 1 8.35345 5.3903 85.169
404 2 6.43178 6.50891 86.5436
405 2 17.3907 4.45752 78.4477
406 2 15.8201 5.21305 73.4929
407 1 9.24282 4.88343 81.2769
408 1 6.14115 4.76812 77.0198
409 1 6.82251 4.33849 74.3995
410 2 9.31263 4.22565 73.6436
411 1 7.48599 5.67904 72.1066
412 2 7.9687 5.4751 78.9773
413 1 8.96234 4.83026 76.4103
414 1 4.88328 2.70477 73.4413
415 2 1.65236 0.285294 70.5491
416 1 6.00151 6.41457 67.8015
417 1 10.0048 5.69354 71.4972
418 1 8.64546 6.62802 67.0499
419 1 4.01677 0.295706 69.6259
420 2 6.71165 5.82187 65.1437
421 1 1.74801 0.0317306 62.8417
422 1 8.22815 0.479316 70.9202
423 1 13.2957 6.66802 68.3298
424 1 7.95489 5.34408 62.8632
425 1 6.99314 1.28663 66.9395
426 2 10.4977 6.62992 69.0647
427 1 10.2854 6.57227 61.9314
428 1 4.35867 1.29535 63.245
429 1 6.5705 6.15934 59.0801
430 1 5.30287 0.495671 58.8914
431 2 3.78756 0.377389 60.976
432 1 6.4942 5.89238 56.4062
433 1 14.3939 5.49822 63.8319
434 1 9.42991 0.0251357 57.189
435 1 11.0401 5.2374 58.3625
436 1 13.9142 4.06089 72.0921
437 1 5.93607 1.87995 70.8237
438 1 10.5474 1.9584 69.9631
439 1 8.37428 3.17165 71.4348
440 2 14.4014 5.98681 70.5929
441 2 7.97725 2.27389 69.0461
442 1 9.49578 2.44818 66.8428
443 2 8.90764 0.201642 65.5839
444 1 7.05925 1.5832 64.2447
445 1 15.0882 1.28238 71.8839
446 1 16.3401 6.64521 69.1947
447 1 16.4907 4.57754 67.1378
448 2 13.7682 0.149512 66.9571
449 1 12.6198 2.32658 67.7971
450 1 11.2999 0.464311 66.0809
451 1 17.2415 5.82808 64.6079
452 1 10.0056 1.80827 63.821
453 1 13.5832 1.93281 65.2572
454 2 11.4112 3.1957 65.2809
455 1 10.4987 2.04029 61.0883
456 2 11.1667 0.502887 59.0002
457 1 12.4519 2.67361 59.2222
458 1 8.52386 0.565813 59.794
459 1 14.9023 5.94878 61.2988
460 1 12.6642 2.99532 63.0016
461 1 9.6555 2.60647 58.2126
462 1 11.77 1.52817 56.6138
463 1 14.9436 1.05248 69.0931
464 2 13.0869 2.27676 70.481
465 1 14.6852 3.99958 69.1208
466 2 15.4227 2.34731 67.1038
467 1 1.91125 2.48045 69.0058
468 1 13.7851 4.43458 66.2573
469 1 15.8787 3.18326 64.7941
470 2 8.85651 0.314204 62.3857
471 2 7.28783 1.15003 57.5148
472 1 13.2461 4.0776 56.8166
473 1 4.63551 2.69103 68.3017
474 1 0.553851 0.364189 65.3203
475 1 13.1306 0.718262 61.0184
476 1 13.7917 0.25363 58.5118
477 2 0.724612 0.302343 57.6112
478 1 14.1988 1.63329 56.0361
479 2 5.28433 2.51055 65.5428
480 1 2.81112 2.08231 66.2772
481 1 3.14672 3.50909 64.0388
482 2 14.8555 1.29923 62.9273
483 1 0.512663 0.881609 60.2708
484 2 16.3134 4.50185 62.6302
485 1 14.6049 3.29311 60.8993
486 1 15.2895 2.65856 58.4141
487 1 2.30205 2.47229 61.5898
488 1 2.95905 2.18873 58.9251
489 1 15.791 5.31951 57.328
490 1 16.6883 4.47281 70.9696
491 1 11.4741 5.45876 64.1024
492 2 3.61682 2.99114 70.8384
493 1 3.38923 5.1179 68.9456
494 1 7.08998 4.027 67.0771
495 1 6.42602 4.42058 69.6602
496 1 4.04415 4.69852 66.3515
497 1 3.54175 5.20737 62.0027
498 1 4.36098 4.72711 59.2748
499 1 16.9675 4.60099 59.9414
500 2 2.78175 4.29534 57.1849
501 1 7.97425 2.6515 61.863
502 1 5.6151 3.81441 63.2211
503 1 5.02083 2.58053 60.8389
504 1 6.99766 3.27897 58.9915
505 2 6.18468 4.8134 60.9827
506 1 12.1443 4.54827 69.8531
507 1 8.99599 4.40554 65.1488
508 1 9.29529 4.44013 68.9077
509 1 11.0834 5.00907 66.851
510 2 10.0673 3.97128 62.6617
511 1 8.8692 4.77736 60.3778
512 1 5.1993 2.893 57.1657
513 2 8.49266 4.99905 57.669
514 1 12.1361 4.82071 61.0958
515 2 13.7487 4.83874 59.0069
516 1 7.75002 3.07938 55.9259
517 1 5.28913 0.0241918 56.0974
518 1 3.92446 6.05063 55.2603
519 2 3.48291 4.96051 52.9828
520 1 5.0085 4.94067 50.8169
521 1 8.1731 0.568515 51.2253
522 1 8.11987 5.05263 51.7485
523 2 6.93775 5.78486 49.3876
524 1 6.22566 4.49982 45.2027
525 1 8.04911 5.39791 42.9759
526 1 8.28654 5.6126 46.9465
527 1 5.46141 5.45642 42.1912
528 1 10.2349 6.44598 53.099
529 2 10.8481 5.12082 50.9545
530 1 12.8573 5.02814 52.7606
531 1 5.16048 0.458486 50.1515
532 1 11.4365 5.86678 48.6003
533 1 5.20062 0.0872449 40.5656
534 1 15.5227 5.3542 52.307
535 2 16.1813 5.30518 49.6468
536 1 13.6107 4.4876 50.2077
537 1 14.224 6.34929 48.105
538 2 8.32556 0.807528 46.6071
539 1 10.0607 5.83709 44.8887
540 1 11.0188 5.39564 42.5194
541 1 13.2095 5.17479 45.7372
542 1 13.9699 4.85668 43.1448
543 1 8.10613 0.234835 54.9992
544 1 2.88707 1.3518 47.8857
545 2 14.4708 5.66389 55.0408
546 2 12.4171 2.97271 54.4498
547 1 10.2528 0.992837 53.112
548 1 13.9251 -0.0811261 51.1161
549 1 13.1901 0.458318 53.6923
550 1 12.8563 2.37961 51.7771
551 1 10.9862 0.610145 50.5465
552 1 10.7836 1.19482 45.7145
553 1 11.4375 0.575147 43.184
554 1 8.60994 0.523964 43.8244
555 2 13.5844 6.6538 41.0981
556 1 1.51159 1.73367 55.4276
557 1 15.515 2.46204 50.9064
558 1 14.9529 2.94819 53.7124
559 2 13.7131 1.85633 49.0704
560 1 12.8325 2.77013 46.8084
561 1 3.80604 3.20004 54.8423
562 1 4.82404 2.51174 52.1596
563 1 3.77717 5.35587 45.8681
564 1 16.9372 6.58175 47.4714
565 1 15.1372 1.43909 46.7812
566 1 15.9106 5.42642 44.9974
567 1 18.0959 5.89282 43.1114
568 2 13.3994 0.911769 45.129
569 1 3.56866 0.410192 53.87
570 1 17.7655 3.97293 50.8881
571 2 2.1167 2.56169 52.821
572 1 0.462724 0.0716814 48.9708
573 1 0.920852 0.490526 52.9381
574 1 2.61773 1.25217 50.8426
575 2 1.8362 -0.223613 46.556
576 1 0.672643 0.948074 44.1777
577 1 2.16181 2.88848 45.709
578 1 15.376 4.1438 47.5121
579 1 15.9272 5.31398 41.0519
580 1 13.6989 2.10555 43.0656
581 2 15.489 0.825535 41.4675
582 1 16.429 3.53446 43.0009
583 2 14.7919 3.17635 45.1249
584 1 14.2983 3.12703 40.7937
585 1 6.12869 1.44126 47.8078
586 1 3.56606 0.65049 44.9759
587 1 5.08291 3.04726 41.0619
588 1 2.83245 1.15424 41.8068
589 2 5.26378 0.912782 42.9334
590 1 13.0271 0.971125 40.7413
591 1 16.9162 4.47569 54.7959
592 1 6.08088 4.55153 53.9952
593 2 5.8439 1.93488 54.7024
594 2 4.31119 2.76662 49.5403
595 1 2.75689 4.21896 48.2992
596 1 10.4745 4.05115 55.9517
597 1 7.79897 2.50802 53.1827
598 2 9.42018 2.74565 51.16
599 1 6.8654 3.10698 50.2159
600 1 8.83709 1.93296 48.8109
601 1 5.65537 4.32361 47.848
602 1 9.11967 4.49858 49.1942
603 2 6.72351 3.20224 43.1486
604 1 3.93145 3.21159 43.3994
605 1 6.43622 1.73987 45.1205
606 1 7.52837 4.24557 40.6005
607 1 10.5664 3.62104 53.1079
608 2 8.60601 4.94449 54.4264
609 2 4.41733 2.78244 46.3174
610 2 2.64149 3.75664 40.9354
611 1 11.3405 3.05438 49.3961
612 1 8.73457 3.28045 45.0029
613 1 9.50606 2.95317 42.3939
614 2 12.018 3.03395 41.5909
615 1 10.1638 4.38002 40.3371
616 2 10.4816 3.8627 46.807
617 1 11.4972 3.37393 44.3314
618 1 7.46475 1.45001 41.3547
ITEM: TIMESTEP
1700
ITEM: NUMBER OF ATOMS
618
ITEM: BOX BOUNDS xy xz yz pp pp ff
0.0000000000000000e+00 1.9317770367296919e+01 4.0025167278329121e+00
0.0000000000000000e+00 6.6702723500479264e+00 0.0000000000000000e+00
0.0000000000000000e+00 1.0921147561319708e+02 0.0000000000000000e+00
ITEM: ATOMS id type x y z
1 1 4.83592 5.92018 5.68761
2 1 6.47898 6.46755 8.05323
3 1 4.79471 5.98411 12.8329
4 1 5.96548 0.457753 5.7338
5 1 4.06189 0.126997 10.4102
6 1 6.55982 6.33618 15.089
7 1 5.01578 5.98507 19.6519
8 1 12.8343 6.06294 5.61295
9 1 7.49132 0.724228 7.97528
10 1 5.86551 0.374171 12.7569
11 1 4.21657 -0.0906019 17.3736
12 1 6.4151 6.26115 22.0226
13 1 4.74222 5.91912 26.6726
14 1 10.8509 1.50237 5.67962
15 1 14.2589 6.49066 8.12372
16 1 9.08231 0.913042 10.5278
17 1 12.518 6.14155 12.8197
18 1 7.26285 0.624428 15.1932
19 1 5.63152 0.297371 19.8666
20 1 4.07601 -0.0925738 24.4797
21 1 6.53273 6.48151 29.0514
22 1 4.7402 6.23979 33.9587
23 1 13.5538 0.501846 5.69013
24 1 13.1298 3.24326 5.51636
25 1 12.5748 1.76156 8.14283
26 1 11.8578 0.0640282 10.4103
27 1 11.3837 2.98161 10.2685
28 1 10.854 1.24349 12.6954
29 1 14.0167 6.38447 15.0983
30 1 9.12633 0.863558 17.5788
31 1 12.4399 6.00776 19.7287
32 1 7.39944 0.484525 22.071
33 1 5.73359 0.359041 26.7865
34 1 4.19319 -0.206585 31.486
35 1 2.19886 -0.236882 36.2897
36 1 15.8079 2.15937 5.63383
37 1 15.2191 0.717388 8.09092
38 1 14.565 3.65565 8.06907
39 1 14.0703 1.86384 10.5274
40 1 13.4402 0.0352644 12.9446
41 1 12.9282 3.12158 12.5815
42 1 12.3026 1.55192 14.9088
43 1 15.817 6.58601 17.3775
44 1 11.3891 2.66001 17.3067
45 1 10.8058 1.07025 19.8978
46 1 14.0232 6.01913 22.0992
47 1 8.96723 0.781649 24.5084
48 1 12.4394 5.93244 26.8028
49 1 7.38684 0.501345 29.2204
50 1 5.76554 0.277302 33.8105
51 1 3.66167 -0.0213486 38.443
52 1 3.18621 1.34575 5.79611
53 1 2.67159 4.19269 5.59602
54 1 1.88599 2.78295 8.09721
55 1 1.49513 1.08936 10.6098
56 1 16.3588 3.93472 10.6168
57 1 15.6266 2.34396 12.917
58 1 15.0734 0.590605 15.1574
59 1 14.6394 3.47455 15.0402
60 1 13.9919 1.86867 17.3833
61 1 13.3545 0.272976 19.8355
62 1 12.9016 2.91599 19.671
63 1 12.2709 1.30924 22.1757
64 1 11.8057 -0.0716247 24.5591
65 1 11.2543 2.68537 24.4084
66 1 10.7545 1.26103 26.8561
67 1 13.8787 6.09313 29.1596
68 1 8.92128 0.65365 31.588
69 1 12.6059 5.91709 33.9034
70 1 7.30558 0.692172 36.3281
71 1 5.36318 3.31978 5.62962
72 1 4.64626 1.73251 8.05979
73 1 4.27402 4.55587 8.17428
74 1 3.70377 2.92397 10.4421
75 1 3.01975 1.24902 12.833
76 1 2.57692 4.05136 12.8531
77 1 1.98093 2.44716 15.2219
78 1 1.56044 0.794361 17.3168
79 1 16.2975 3.76624 17.3303
80 1 15.7666 2.0808 19.7581
81 1 15.1203 0.386013 21.9913
82 1 14.6461 3.18929 22.1273
83 1 13.9412 1.75792 24.2757
84 1 13.4036 0.239962 26.7527
85 1 12.823 3.10809 26.7167
86 1 12.2827 1.34683 29.1589
87 1 11.7586 -0.260187 31.3255
88 1 11.2401 2.70834 31.4772
89 1 10.5407 1.3325 33.8546
90 1 14.1584 6.1608 36.3306
91 1 9.08643 0.95781 38.7628
92 1 8.0341 2.35596 5.47754
93 1 7.58476 5.12898 5.60705
94 1 6.95844 3.45375 8.18727
95 1 6.32851 1.8892 10.4007
96 1 5.87173 4.83876 10.5767
97 1 5.16136 3.08123 12.7992
98 1 4.591 1.62149 15.1407
99 1 4.24351 4.40046 15.1654
100 1 3.59462 2.79389 17.479
101 1 3.0526 1.34897 19.8096
102 1 2.55392 4.07484 19.7459
103 1 2.12909 2.54221 22.0481
104 1 1.33108 0.908178 24.4543
105 1 16.2473 3.67368 24.515
106 1 15.6617 2.16941 26.7976
107 1 15.0181 0.639145 29.1709
108 1 14.3312 3.27535 29.2037
109 1 13.9952 1.60537 31.5211
110 1 13.4108 0.200888 33.8396
111 1 12.8493 3.02859 33.9005
112 1 12.3622 1.49257 36.0578
113 1 15.3845 6.35607 39.0554
114 1 11.4103 2.47229 38.8151
115 1 10.2911 4.1753 5.52551
116 1 9.77162 2.66227 8.16878
117 1 9.27309 5.61091 8.03712
118 1 8.67819 4.00989 10.325
119 1 8.09912 2.34867 12.682
120 1 7.62119 5.1778 12.6955
121 1 7.02914 3.50262 14.9999
122 1 6.45599 1.79704 17.4813
123 1 6.01259 4.5544 17.459
124 1 5.36574 3.1201 19.6757
125 1 4.72615 1.44413 22.0589
126 1 4.31109 4.32227 21.9239
127 1 3.48674 2.79509 24.3758
128 1 2.87311 1.18892 26.7434
129 1 17.9504 3.99048 26.8123
130 1 2.04487 2.47921 29.2151
131 1 1.4818 0.850504 31.4533
132 1 16.1521 3.6054 31.5015
133 1 15.7097 2.15541 33.8702
134 1 15.0673 0.706193 36.2813
135 1 14.6019 3.3941 36.1208
136 1 13.993 1.80543 38.5127
137 1 11.8925 4.60924 7.93074
138 1 10.9745 5.81223 10.4237
139 1 10.3146 4.06927 12.7351
140 1 9.57883 2.56655 15.1649
141 1 9.20614 5.3815 15.0379
142 1 8.8321 3.74944 17.388
143 1 8.07077 2.3729 19.7867
144 1 7.73713 5.08586 19.6712
145 1 6.9084 3.40097 22.0123
146 1 6.23393 1.9511 24.2788
147 1 5.85408 4.75958 24.3128
148 1 5.33202 3.093 26.6961
149 1 4.80072 1.66026 29.0831
150 1 4.2215 4.42544 29.1516
151 1 3.72722 2.81096 31.588
152 1 3.08332 1.17712 33.7446
153 1 17.992 4.15441 34.041
154 1 1.97739 2.57163 36.2752
155 1 1.16547 1.0661 39.0339
156 1 16.231 3.86816 38.7607
157 1 15.4173 5.13652 5.56818
158 1 13.6647 4.89979 10.4543
159 1 11.8315 4.494 14.9302
160 1 10.8779 5.64783 17.5151
161 1 10.334 4.09578 19.7629
162 1 9.68064 2.47509 22.0806
163 1 9.10469 5.26555 22.1127
164 1 8.65115 3.83102 24.2948
165 1 7.99878 2.15366 26.6133
166 1 7.54409 5.00957 26.6312
167 1 6.91263 3.50282 29.0543
168 1 6.34518 1.8113 31.5267
169 1 5.7804 4.76823 31.4841
170 1 5.25761 3.18015 33.931
171 1 4.67846 1.63949 36.1542
172 1 4.05719 4.46293 36.5465
173 1 3.36033 2.78191 38.7895
174 1 16.8291 5.51469 8.09656
175 1 15.1392 5.22676 12.8833
176 1 13.5217 4.64072 17.3985
177 1 11.9583 4.27175 21.9929
178 1 10.8307 5.6281 24.4553
179 1 10.2214 4.12577 26.8276
180 1 9.62519 2.37136 29.1077
181 1 9.18348 5.45708 28.9949
182 1 8.33878 3.68455 31.4531
183 1 7.9904 2.17249 33.8053
184 1 7.40996 5.10238 34.0209
185 1 6.79537 3.44864 36.1482
186 1 6.11218 2.05724 38.688
187 1 5.5621 4.91352 38.9704
188 1 18.4967 5.81665 10.5018
189 1 16.8877 5.39546 15.1784
190 1 15.1 4.90213 19.7409
191 1 13.4634 4.62312 24.3427
192 1 11.7216 4.24981 29.0658
193 1 10.7162 5.42639 31.4428
194 1 10.1107 4.07244 33.8486
195 1 9.749 2.68512 36.2763
196 1 8.91139 5.44236 36.1917
197 1 8.37467 3.71146 38.2984
198 1 18.3803 5.67992 17.4647
199 1 16.7788 5.32269 22.2405
200 1 15.0464 4.93813 26.8262
201 1 13.4815 4.49898 31.5114
202 1 11.8865 4.46138 36.2097
203 1 10.6569 6.1226 38.3357
204 1 18.488 5.60761 24.3015
205 1 16.8355 5.11503 29.0191
206 1 15.2332 5.04806 33.7684
207 1 13.0953 4.67466 38.924
208 1 18.4016 5.65362 31.5195
209 1 16.7792 5.36003 36.3141
210 1 18.3846 5.54885 38.8788
211 2 14.1143 1.25094 102.529
212 1 14.6352 0.980384 99.873
213 1 3.18766 0.476351 103.411
214 1 1.9383 1.06409 99.0665
215 1 1.23393 1.46128 101.81
216 2 0.184384 0.552076 97.1978
217 1 14.703 1.6417 94.8267
218 1 5.61283 1.85837 103.028
219 1 6.54703 1.17581 100.52
220 1 1.52733 0.131976 95.0232
221 1 4.39045 2.55742 98.8793
222 2 3.76122 1.27202 101.148
223 1 3.88131 1.38347 94.117
224 1 1.94617 2.78463 95.5468
225 1 15.5775 0.980791 90.931
226 1 3.03645 2.07234 90.9783
227 2 1.46492 1.83229 93.1225
228 1 0.556073 1.3071 88.3051
229 1 8.17678 0.180627 95.9027
230 1 7.03406 1.47645 89.1705
231 1 8.735 6.70016 90.1239
232 1 11.7599 4.69806 103.629
233 1 3.28977 3.29018 102.642
234 1 8.05778 3.16777 102.151
235 1 5.7867 4.66399 103.329
236 2 7.80119 0.4529 102.589
237 2 5.49421 3.43443 101.056
238 1 6.9742 3.77787 99.0295
239 2 6.36056 1.60147 97.7421
240 1 4.70935 3.0982 96.2887
241 1 12.166 1.74452 103.592
242 1 9.97634 1.49914 101.503
243 1 13.8744 6.03562 99.2473
244 2 11.2192 1.60181 99.1338
245 1 9.83712 3.83487 99.9503
246 1 8.76732 1.88251 98.2517
247 1 10.818 0.555281 96.6074
248 1 7.60622 2.98064 95.9772
249 1 11.0572 3.26153 97.3602
250 2 8.85902 4.54007 97.4452
251 1 8.15659 3.40075 93.2454
252 2 8.79829 2.12716 91.1666
253 1 10.0069 4.30139 91.2136
254 1 5.9793 1.85814 91.851
255 1 8.32096 0.67893 93.1028
256 1 10.1403 4.29542 95.0697
257 1 7.05994 4.13791 90.268
258 1 9.32821 2.99649 88.9651
259 1 12.554 2.43593 101.048
260 2 10.4683 3.35052 102.659
261 1 12.0862 5.13646 100.945
262 2 12.9025 3.73381 98.939
263 1 14.8041 3.71869 100.8
264 1 11.1695 5.83963 98.3421
265 1 13.4206 4.5292 96.828
266 2 6.296 1.64691 94.4929
267 2 4.9827 2.74724 89.409
268 1 10.7521 5.51139 88.5955
269 1 17.5206 3.84835 100.215
270 1 13.316 1.8214 97.3869
271 1 10.6898 2.02666 92.9993
272 1 11.4216 1.65852 90.3329
273 2 13.9251 1.9109 89.6232
274 1 11.9659 3.21271 88.1454
275 2 2.78353 4.00633 97.558
276 1 15.5566 3.28751 98.1462
277 1 16.1354 5.03997 96.1171
278 2 12.469 2.77617 95.0708
279 1 13.3281 2.3055 92.3374
280 2 13.9087 5.91991 94.5331
281 1 12.0441 4.56704 93.0132
282 1 13.0045 4.2746 90.4123
283 1 15.056 3.94147 93.6009
284 1 15.895 3.59655 91.1269
285 1 13.3153 6.81511 89.2909
286 1 14.277 5.71302 102.787
287 1 5.14664 0.0556831 96.228
288 2 16.4911 4.34855 102.723
289 1 16.0941 6.36893 100.976
290 1 4.6197 5.27929 99.1427
291 1 3.94744 5.68702 101.694
292 1 16.7502 6.00817 98.4851
293 1 16.5327 6.52065 93.6752
294 1 17.2516 6.07077 91.2387
295 1 14.5634 6.08097 91.8077
296 2 15.6715 5.54202 89.1853
297 1 5.50393 4.11969 93.9109
298 1 3.23937 5.49077 95.3759
299 1 2.68783 4.04526 92.9532
300 1 4.6109 4.75978 91.034
301 2 4.06606 6.27066 93.0422
302 1 9.41912 5.74041 102.48
303 1 6.60527 5.60296 97.2386
304 1 6.84472 5.68686 100.982
305 1 8.61345 6.55556 99.0315
306 2 7.6363 5.30107 94.6917
307 1 6.5244 6.20867 92.3689
308 1 2.43493 3.82257 89.0924
309 2 6.23214 6.55532 89.8112
310 1 9.54319 6.25293 93.1833
311 2 11.3366 6.32919 91.0167
312 1 4.90474 5.14956 88.2285
313 1 3.46732 1.27485 87.9278
314 1 13.1563 1.01937 87.3167
315 2 16.5885 6.72031 84.9276
316 1 14.1589 0.123861 82.8543
317 1 5.84288 2.38434 83.1867
318 1 5.897 6.79066 83.9113
319 2 0.801546 0.705766 81.4959
320 1 3.63452 6.28382 76.9766
321 1 1.57045 0.193884 75.177
322 1 5.4987 6.47529 78.9633
323 1 17.9687 6.67875 74.1457
324 1 3.9964 1.5991 85.173
325 2 8.54789 6.85073 83.2054
326 1 6.60166 0.368095 85.1979
327 1 3.12391 2.20212 82.3103
328 1 5.25511 1.14249 80.88
329 1 2.53509 1.45827 72.8525
330 1 9.29126 0.430425 84.3507
331 2 13.6218 6.60662 81.5626
332 1 11.2682 6.55193 82.5338
333 1 7.6664 1.1115 80.1301
334 2 5.86225 2.5403 78.672
335 1 3.73778 0.546888 77.112
336 1 4.49014 0.120971 74.3547
337 1 10.6583 6.71259 77.6899
338 1 11.3437 6.27522 75.0999
339 1 6.03455 2.61511 86.9651
340 1 16.828 2.51252 80.0586
341 2 8.43961 1.09305 87.0393
342 2 9.80818 4.15457 86.533
343 1 8.11069 2.89564 84.8642
344 1 11.7375 1.74206 83.0105
345 1 11.0712 2.09393 85.7009
346 1 10.6314 4.27116 83.8765
347 1 8.95639 2.38785 82.2949
348 1 8.39617 2.43917 77.8286
349 1 8.97522 2.05436 75.1144
350 1 6.22998 2.02173 75.8071
351 2 7.14298 1.40019 73.1502
352 1 14.5703 3.54615 87.3469
353 1 13.2686 4.36684 83.2318
354 1 12.6065 4.71787 85.9163
355 2 11.606 3.83976 81.2748
356 1 10.3548 4.0972 78.8695
357 1 16.796 4.95645 86.8809
358 1 2.434 4.42025 84.3703
359 1 12.3184 -0.0923113 77.7212
360 1 10.2429 1.26733 79.4038
361 1 12.5704 2.54482 79.0301
362 1 13.5467 6.59606 77.0479
363 1 11.5887 0.551272 74.9471
364 2 10.863 2.05321 77.0592
365 1 1.3262 2.26125 85.7952
366 1 15.6825 5.64878 82.9133
367 2 15.2027 4.39789 85.0355
368 1 14.0016 2.41697 81.1271
369 1 13.8451 2.16621 84.7817
370 1 15.8792 2.75337 83.0802
371 2 14.7498 1.59691 78.7323
372 1 13.4871 2.03178 76.3705
373 1 14.7858 4.07322 77.8887
374 1 12.8086 5.37525 79.3759
375 1 9.47119 0.209123 73.1988
376 1 11.2354 3.63083 74.9464
377 2 13.0227 2.29535 73.691
378 1 13.7155 4.67024 74.8792
379 2 12.2333 4.45394 77.0603
380 1 10.9812 3.03753 72.2795
381 1 4.12377 3.79205 79.9041
382 1 1.31242 2.06389 77.1749
383 1 2.65107 4.08531 73.2952
384 1 15.5008 2.67033 74.1924
385 2 2.97183 2.30208 75.2003
386 1 12.2748 0.384564 71.8935
387 1 14.6202 6.32587 86.7609
388 1 3.7526 6.38746 85.8823
389 2 3.55405 3.67698 86.7085
390 2 17.5861 4.42105 81.7052
391 1 15.385 5.36266 80.2513
392 1 7.77604 5.12476 87.8296
393 1 5.52956 4.36609 85.1101
394 2 7.16684 4.58777 83.1129
395 1 4.6378 4.9631 82.1491
396 1 6.84302 3.57749 80.9299
397 1 18.006 6.2928 80.0796
398 1 7.00959 6.24595 81.1343
399 2 4.39594 4.63526 75.0326
400 1 16.9997 4.49121 75.8506
401 1 3.99048 3.35845 77.284
402 1 4.88116 5.57345 72.7313
403 1 8.22758 5.48786 85.2216
404 2 6.19102 6.59582 86.4546
405 2 17.363 4.44102 78.3938
406 2 15.7521 5.2112 73.4104
407 1 9.32099 4.90602 81.4849
408 1 6.27794 4.65398 77.0415
409 1 6.91869 4.32746 74.4187
410 2 9.35132 4.38257 73.5771
411 1 7.53712 5.74567 72.1056
412 2 8.0362 5.22627 78.9955
413 1 9.12106 4.71589 76.3329
414 1 4.89732 2.7119 73.3333
415 2 1.56675 0.436338 70.5998
416 1 5.87651 6.35845 67.8905
417 1 10.0743 5.59808 71.284
418 1 8.43405 6.47853 67.1247
419 1 3.89662 0.30096 69.7028
420 2 6.72872 5.85112 65.255
421 1 1.80994 0.0952612 62.8235
422 1 8.23265 0.627029 70.979
423 1 13.2423 6.64279 68.4448
424 1 8.13846 5.3253 62.9168
425 1 6.80903 1.29217 67.0473
426 2 10.5731 6.56344 69.0055
427 1 10.3787 6.82031 61.8801
428 1 4.43537 1.36603 63.5758
429 1 6.82659 6.13095 58.8664
430 1 5.40511 0.560297 58.9247
431 2 3.83525 0.484872 61.0256
432 1 6.70688 5.55042 56.1099
433 1 14.6096 5.72895 63.6876
434 1 9.44767 0.0390986 57.1633
435 1 11.2382 5.45621 58.1795
436 1 13.7623 4.09331 72.1677
437 1 5.90726 1.70155 70.9202
438 1 10.5014 1.94926 69.9392
439 1 8.37768 3.29606 71.3052
440 2 14.2639 6.01833 70.8067
441 2 7.73225 2.28792 69.0895
442 1 9.55176 2.51838 67.0423
443 2 8.75564 0.242674 65.6711
444 1 7.07766 1.58067 64.3007
445 1 15.0412 1.44641 71.9386
446 1 16.188 6.5882 69.1299
447 1 16.512 4.59128 67.2151
448 2 13.9312 0.104714 67.1672
449 1 12.6043 2.47268 67.8029
450 1 11.2587 0.44621 66.2887
451 1 17.2351 5.99789 64.6734
452 1 10.009 1.89134 64.0737
453 1 13.5127 1.91305 65.218
454 2 11.5646 3.19031 65.5106
455 1 10.4883 2.07011 61.0268
456 2 11.1214 0.66565 59.0249
457 1 12.3948 2.794 58.9783
458 1 8.443 0.631274 59.7609
459 1 14.6817 5.91403 61.114
460 1 12.5161 2.92073 62.9663
461 1 9.69741 2.64881 58.0355
462 1 11.6285 1.51525 56.4908
463 1 14.8292 1.14232 69.204
464 2 12.9629 2.17003 70.4326
465 1 14.5524 3.98455 69.1573
466 2 15.0955 2.56415 67.0451
467 1 1.80624 2.46306 68.9787
468 1 13.6776 4.60141 66.1179
469 1 15.8422 3.36581 64.6736
470 2 8.83576 0.296397 62.4731
471 2 7.27564 1.18413 57.2589
472 1 13.3799 3.93049 56.7756
473 1 4.3976 2.66405 68.3927
474 1 0.488412 0.47395 65.3401
475 1 13.0497 0.62698 60.9742
476 1 13.7351 0.352322 58.2832
477 2 0.998564 0.11855 57.3954
478 1 14.2769 1.41416 56.0207
479 2 5.2298 2.62569 65.7844
480 1 2.61703 2.05098 66.3259
481 1 3.09344 3.63265 64.0807
482 2 15.0573 1.62938 62.8754
483 1 0.461235 0.701569 60.1828
484 2 16.3277 4.67266 62.4242
485 1 14.5893 3.22811 60.7384
486 1 15.5397 2.71911 58.1713
487 1 2.19948 2.51133 61.5701
488 1 3.07206 2.09472 58.9737
489 1 15.736 5.45673 57.2868
490 1 16.6591 4.31109 70.9889
491 1 11.7058 5.32455 64.0512
492 2 3.80546 3.2793 71.0247
493 1 3.40047 5.05439 69.1334
494 1 6.853 3.98193 67.2625
495 1 6.21042 4.27717 69.9555
496 1 3.99078 4.67216 66.5039
497 1 3.72064 5.04963 61.8242
498 1 4.60282 4.72273 59.1277
499 1 17.0974 4.6682 59.6776
500 2 2.60096 3.78811 56.9482
501 1 7.99729 2.69322 61.832
502 1 5.72502 4.03345 63.3839
503 1 5.09531 2.68968 61.0804
504 1 7.03766 3.25846 58.8742
505 2 6.51353 4.7944 60.9051
506 1 12.0821 4.46429 70.0171
507 1 9.12055 4.32617 65.1317
508 1 9.14106 4.37377 68.9724
509 1 11.0037 5.1577 66.8759
510 2 10.1913 4.13314 62.7191
511 1 9.15631 4.79375 60.3147
512 1 5.08302 2.75511 57.0317
513 2 8.77439 4.84735 57.5151
514 1 12.1119 4.7216 60.9421
515 2 13.8398 4.9196 58.9831
516 1 7.87518 3.00989 55.823
517 1 5.25227 0.0323528 55.9442
518 1 3.94512 5.63121 55.3048
519 2 3.45884 4.92256 53.0644
520 1 5.17502 4.92655 50.947
521 1 8.16421 0.468193 51.3003
522 1 8.26429 5.01347 51.6714
523 2 7.20169 5.70637 49.3928
524 1 6.21526 4.87014 45.0764
525 1 8.15407 5.54981 43.1524
526 1 8.32727 5.53243 46.8281
527 1 5.34269 5.41101 42.1628
528 1 10.13 6.62846 52.9844
529 2 10.8686 4.86987 50.9879
530 1 12.7393 5.12791 52.8643
531 1 5.4058 0.32503 50.1324
532 1 11.6428 5.8578 48.8382
533 1 5.07641 -0.101356 40.7265
534 1 15.468 5.17943 52.1676
535 2 16.2233 5.44911 49.5344
536 1 13.6357 4.55618 50.3174
537 1 14.2364 6.58993 48.0064
538 2 8.02722 0.719407 46.5277
539 1 10.3807 5.9538 44.8441
540 1 11.0453 5.51637 42.395
541 1 13.1329 5.21421 45.6707
542 1 13.878 4.84984 43.2055
543 1 8.11223 0.21139 54.8948
544 1 3.07898 1.41734 48.0806
545 2 14.4914 5.625 54.9772
546 2 12.4032 2.87542 54.5261
547 1 10.2738 1.02136 53.1455
548 1 13.7355 -0.0504215 51.1934
549 1 13.1443 0.246527 53.8752
550 1 12.664 2.47915 51.9048
551 1 10.9436 0.609842 50.4701
552 1 10.8623 1.25187 45.7196
553 1 11.4245 0.735811 43.2466
554 1 8.76327 0.566754 43.8613
555 2 13.5895 6.67866 41.1081
556 1 1.52484 1.37745 55.3389
557 1 15.5403 2.3965 50.9315
558 1 14.7668 2.83641 53.6336
559 2 13.7887 1.96384 49.1797
560 1 12.8515 2.73961 46.6964
561 1 3.79353 3.00916 54.7837
562 1 4.57809 2.50624 52.2451
563 1 3.65012 5.47534 45.8398
564 1 16.9642 6.71423 47.3973
565 1 15.2092 1.52988 46.9836
566 1 15.9902 5.3823 45.0926
567 1 17.8793 6.00699 43.0306
568 2 13.5622 0.747892 45.1509
569 1 3.64751 0.45524 53.8224
570 1 17.7875 3.95922 51.0235
571 2 1.99338 2.41726 52.9556
572 1 0.595673 0.0683288 49.0738
573 1 0.745139 0.397299 52.9453
574 1 2.75231 1.1596 50.9756
575 2 1.88217 -0.0873673 46.7793
576 1 0.656312 0.753273 44.1987
577 1 2.14734 2.79153 45.7423
578 1 15.2627 4.16539 47.4403
579 1 15.9521 5.35993 41.3205
580 1 13.7635 2.18009 43.0446
581 2 15.5146 0.820739 41.5645
582 1 16.3938 3.41048 43.1847
583 2 14.8155 3.07575 45.1667
584 1 14.6775 3.10555 40.7842
585 1 5.98153 1.38189 47.7906
586 1 3.76107 0.872216 45.0515
587 1 4.91383 2.81239 41.0763
588 1 2.70346 1.20755 41.8319
589 2 5.36137 1.01577 43.079
590 1 13.0487 0.950236 40.7574
591 1 16.6411 4.27892 54.8037
592 1 6.09653 4.45962 53.7288
593 2 5.90003 1.92301 54.6324
594 2 4.4467 2.7939 49.5828
595 1 2.78869 4.29373 48.2581
596 1 10.7123 4.12006 55.7037
597 1 7.89386 2.43957 53.1228
598 2 9.49908 2.6053 51.1317
599 1 6.87729 2.84724 50.371
600 1 8.78769 1.79561 48.8542
601 1 5.84698 4.28866 47.885
602 1 9.15918 4.30228 49.0842
603 2 6.80212 3.39491 43.0137
604 1 3.96949 3.35148 43.6047
605 1 6.41243 1.95996 45.0939
606 1 7.45763 4.121 40.7136
607 1 10.4071 3.70919 53.0976
608 2 8.56254 4.8782 54.3398
609 2 4.4362 3.01434 46.4934
610 2 2.57008 3.86471 41.1937
611 1 11.5111 3.07734 49.2076
612 1 8.77073 3.43939 45.0278
613 1 9.45091 3.01565 42.4889
614 2 11.9777 3.15787 41.3478
615 1 10.1441 4.22729 40.1576
616 2 10.5949 4.13027 46.9687
617 1 11.5303 3.50359 44.2424
618 1 7.52573 1.37722 41.2473
ITEM: TIMESTEP
1800
ITEM: NUMBER OF ATOMS
618
ITEM: BOX BOUNDS xy xz yz pp pp ff
0.0000000000000000e+00 1.9317770367296919e+01 4.0025167278329121e+00
0.0000000000000000e+00 6.6702723500479264e+00 0.0000000000000000e+00
0.0000000000000000e+00 1.0921147561319708e+02 0.0000000000000000e+00
ITEM: ATOMS id type x y z
1 1 4.96094 6.04982 5.8006
2 1 6.53307 6.44115 8.29731
3 1 4.86273 6.0521 12.8615
4 1 5.69138 0.429782 5.68683
5 1 4.28898 0.142162 10.5349
6 1 6.4961 6.38231 15.178
7 1 4.7336 5.7745 19.9691
8 1 12.2916 6.17574 5.60019
9 1 7.35457 0.735535 8.06724
10 1 5.72627 0.321472 12.8567
11 1 4.21464 -0.0961147 17.4237
12 1 6.44517 6.31092 22.0231
13 1 4.79565 5.95283 26.7985
14 1 10.856 1.17655 5.52317
15 1 14.1409 6.39828 8.10906
16 1 9.24679 1.15541 10.3326
17 1 12.6281 6.03406 12.6572
18 1 7.69554 0.603056 14.877
19 1 5.93956 0.199719 19.6662
20 1 4.11844 -0.0822163 24.4247
21 1 6.49034 6.07641 29.3078
22 1 4.8087 5.88276 33.8452
23 1 13.5737 0.0496777 5.71128
24 1 12.9675 3.19804 5.78748
25 1 12.3757 1.58433 8.0414
26 1 11.8165 0.0306096 10.452
27 1 11.3643 2.89818 10.4714
28 1 10.703 1.29069 12.7677
29 1 14.2708 6.27185 15.0085
30 1 9.16847 1.06866 17.2689
31 1 12.6387 6.0169 19.8051
32 1 7.4721 0.682124 22.0936
33 1 5.70054 0.0611682 26.8345
34 1 4.12366 -0.020263 31.5806
35 1 2.4983 -0.552176 36.2329
36 1 15.5306 2.26798 5.85173
37 1 15.1162 0.630352 8.16346
38 1 14.7032 3.52097 8.19877
39 1 13.9788 2.04525 10.3998
40 1 13.3385 0.558597 12.8221
41 1 12.9184 3.23958 12.9159
42 1 12.4624 1.51403 15.298
43 1 15.8102 6.63624 17.4874
44 1 11.2647 2.97753 17.4721
45 1 10.7852 1.30623 19.7155
46 1 14.253 6.45707 21.9961
47 1 9.03669 0.937448 24.4566
48 1 12.3177 5.8732 26.6944
49 1 7.38725 0.379041 29.0648
50 1 5.66969 0.239668 33.8892
51 1 3.84832 0.0536244 38.3628
52 1 3.01961 1.29959 5.74419
53 1 2.65998 3.94779 5.94237
54 1 2.26796 2.43512 8.23173
55 1 1.37661 0.94246 10.5384
56 1 16.2373 3.88848 10.5424
57 1 15.7532 2.17772 12.8698
58 1 14.9592 0.507321 15.035
59 1 14.7199 3.38272 15.2454
60 1 13.9635 1.75809 17.5663
61 1 13.38 0.284016 19.7632
62 1 12.9702 3.17171 19.8118
63 1 12.4611 1.65872 22.0397
64 1 11.7228 -0.0614125 24.3056
65 1 11.3077 2.72703 24.3775
66 1 10.5038 1.06992 26.6169
67 1 14.1012 6.19768 29.0559
68 1 9.06165 0.904744 31.4408
69 1 12.4189 5.9323 33.8422
70 1 7.31322 0.50997 36.1539
71 1 5.36181 3.08957 5.80285
72 1 4.8998 1.56338 8.21033
73 1 4.3554 4.39423 8.11373
74 1 3.60719 2.84778 10.7066
75 1 3.12351 1.28963 12.9428
76 1 2.51792 4.23499 12.8136
77 1 2.03575 2.50839 15.1536
78 1 1.37725 0.940713 17.538
79 1 16.3296 3.66091 17.4768
80 1 15.6101 2.10577 19.9177
81 1 14.8195 0.611669 22.1541
82 1 14.5136 3.60285 22.1499
83 1 13.869 1.76411 24.4512
84 1 13.2641 0.0643632 26.782
85 1 12.7822 2.93455 26.7991
86 1 12.3357 1.46699 29.088
87 1 11.8387 -0.190614 31.7461
88 1 11.3991 2.72626 31.4481
89 1 10.7416 1.05047 33.9728
90 1 14.111 6.37814 36.4774
91 1 8.84485 1.01454 38.9535
92 1 8.08959 2.23383 5.77464
93 1 7.50766 5.13347 5.7621
94 1 7.12238 3.62501 8.03011
95 1 6.41837 2.02053 10.4898
96 1 5.96522 4.84005 10.5431
97 1 5.38804 3.35339 12.8611
98 1 4.88442 1.48953 15.051
99 1 4.17558 4.31948 15.1352
100 1 3.73577 2.64823 17.407
101 1 3.22639 1.14681 19.7772
102 1 2.59069 3.78532 19.8017
103 1 1.87767 2.39165 22.0581
104 1 1.43893 0.813624 24.536
105 1 16.1709 3.67885 24.2851
106 1 15.6392 1.97378 26.7596
107 1 15.018 0.323211 29.2292
108 1 14.6495 3.27442 29.1231
109 1 13.9355 1.84547 31.3495
110 1 13.4742 0.220574 33.8857
111 1 13.0243 3.10268 33.9381
112 1 12.4421 1.63486 36.354
113 1 15.4012 6.58552 38.7971
114 1 11.5192 2.62028 39.1
115 1 10.4115 4.21052 5.64715
116 1 9.8608 2.63995 7.99491
117 1 9.32917 5.49881 8.10763
118 1 8.68405 3.81349 10.4911
119 1 7.95166 2.15153 12.7914
120 1 7.58055 5.11025 12.9159
121 1 7.09283 3.33249 15.1782
122 1 6.41923 1.83271 17.3263
123 1 5.90437 4.81795 17.4338
124 1 5.32742 3.01795 19.8366
125 1 4.60571 1.59585 22.0367
126 1 4.12819 4.46645 22.3405
127 1 3.63134 2.79342 24.4862
128 1 3.19265 1.18847 26.8412
129 1 17.7771 3.9594 26.8923
130 1 1.93684 2.24912 28.9837
131 1 1.25146 0.817901 31.6254
132 1 16.2368 3.74634 31.4431
133 1 15.7127 2.05182 33.853
134 1 15.0254 0.494227 35.995
135 1 14.6293 3.57144 36.2488
136 1 14.1828 1.84208 38.3598
137 1 12.0667 4.56508 8.13763
138 1 10.9453 5.88566 10.3824
139 1 10.4114 4.25353 12.7247
140 1 9.7436 2.6311 15.0172
141 1 9.26904 5.34523 15.1761
142 1 8.53392 3.75236 17.3551
143 1 7.96135 2.09391 19.717
144 1 7.43597 4.84444 19.7867
145 1 6.93386 3.56681 22.1927
146 1 6.42627 1.78929 24.502
147 1 5.86112 4.66799 24.537
148 1 5.22216 3.04976 26.9978
149 1 4.60758 1.29965 29.2165
150 1 4.21973 4.18861 29.221
151 1 3.60498 2.65266 31.3937
152 1 2.92446 1.1425 34.1011
153 1 17.7546 3.93133 33.7506
154 1 1.97632 2.5701 36.4004
155 1 1.36116 1.03292 38.8726
156 1 16.3218 3.74118 38.8311
157 1 15.1356 4.93029 5.76963
158 1 13.4546 4.82188 10.3757
159 1 11.9394 4.42815 15.2162
160 1 10.9057 5.74091 17.2733
161 1 10.1838 4.13834 19.7609
162 1 9.57819 2.56495 22.0544
163 1 9.24515 5.49256 21.9663
164 1 8.35995 3.81265 24.5029
165 1 7.98235 2.11737 26.9077
166 1 7.48543 5.04484 26.9097
167 1 6.9036 3.19174 29.2451
168 1 6.34724 1.68889 31.4952
169 1 6.04452 4.46986 31.4926
170 1 5.23701 2.8618 33.8789
171 1 4.66658 1.4823 36.2662
172 1 4.31329 4.45984 36.2286
173 1 3.76108 3.15078 38.6711
174 1 17.0166 5.38442 8.29892
175 1 15.2663 5.06881 12.7172
176 1 13.6397 4.81147 17.556
177 1 11.8234 4.55234 22.2365
178 1 10.6992 5.74614 24.4137
179 1 10.2199 3.90472 26.741
180 1 9.68196 2.36674 29.1351
181 1 9.34156 5.20518 29.2254
182 1 8.81819 3.64757 31.6085
183 1 8.03207 2.07083 33.7975
184 1 7.62668 4.891 33.6468
185 1 6.83605 3.23926 36.1201
186 1 6.31812 2.04751 38.7187
187 1 5.48656 4.97534 39.0635
188 1 18.4734 5.75149 10.6953
189 1 16.7919 5.3581 15.1593
190 1 15.2375 5.12246 19.7857
191 1 13.4522 4.71187 24.4459
192 1 11.9832 4.29229 29.1142
193 1 10.9895 5.76943 31.5246
194 1 10.3493 3.89447 33.9712
195 1 9.64206 2.40018 36.2061
196 1 9.23755 5.19368 36.0815
197 1 8.50393 3.78772 38.2237
198 1 18.5421 5.51481 17.3688
199 1 16.914 5.31414 22.1046
200 1 15.2248 4.85764 26.7097
201 1 13.4832 4.67218 31.4658
202 1 11.9702 4.30214 36.4035
203 1 10.6819 5.85661 38.2209
204 1 18.4045 5.62211 24.5203
205 1 16.7317 5.29434 29.2928
206 1 15.1106 4.92943 34.0086
207 1 13.4103 4.91621 38.8855
208 1 18.4242 5.55534 31.4176
209 1 16.9434 5.22137 36.2894
210 1 18.1599 5.6785 38.9321
211 2 13.9903 1.18684 102.405
212 1 14.7231 1.05708 99.7352
213 1 3.2238 0.405746 103.47
214 1 2.04501 1.16803 99.0815
215 1 1.19932 1.63619 101.824
216 2 0.42005 0.48159 97.0177
217 1 14.7575 1.40519 94.8048
218 1 5.52559 1.7419 103.064
219 1 6.31532 1.3611 100.408
220 1 1.56141 -0.0638941 94.8398
221 1 4.30277 2.64359 98.9085
222 2 3.88651 1.39495 101.143
223 1 3.9628 1.42562 93.8362
224 1 1.96646 2.67283 95.4589
225 1 15.6203 0.958449 90.9809
226 1 2.98558 1.99365 91.0166
227 2 1.36433 1.81978 93.0529
228 1 0.486881 1.20906 88.2921
229 1 7.96088 0.127107 95.878
230 1 7.00872 1.55969 89.2408
231 1 8.74811 6.7513 90.2337
232 1 11.4703 4.65642 103.621
233 1 3.1759 3.34599 102.752
234 1 7.91152 2.94261 102.391
235 1 5.75938 4.53387 103.518
236 2 7.71021 0.498689 102.4
237 2 5.40796 3.75462 101.25
238 1 6.87645 3.74965 98.8856
239 2 6.27803 1.48022 97.7342
240 1 4.76087 2.9736 96.3017
241 1 11.9391 1.30135 103.611
242 1 9.87748 1.53236 101.513
243 1 13.7233 6.21095 99.2895
244 2 11.2608 1.46025 99.0825
245 1 9.67964 3.74518 99.9615
246 1 8.73943 1.89428 98.0117
247 1 10.6875 0.355367 96.7888
248 1 7.48433 3.0277 95.9291
249 1 11.0917 3.25243 97.2382
250 2 9.04382 4.49562 97.4207
251 1 8.19334 3.55238 93.1584
252 2 8.66265 1.89576 91.0553
253 1 10.0367 4.22523 91.0284
254 1 6.00416 2.00731 91.8744
255 1 8.45004 0.73948 93.173
256 1 10.2874 4.36191 94.9174
257 1 7.22189 4.19385 90.3105
258 1 9.34195 2.76999 88.8697
259 1 12.424 2.49633 100.957
260 2 10.4791 3.32894 102.487
261 1 11.9853 5.00183 101.015
262 2 12.9101 3.84814 98.8527
263 1 14.6528 3.89111 100.753
264 1 11.0434 5.8517 98.2648
265 1 13.3964 4.53933 96.5886
266 2 6.3914 1.72166 94.3838
267 2 4.93444 2.87025 89.5122
268 1 10.7141 5.50203 88.5711
269 1 17.3883 4.00642 99.9683
270 1 13.281 1.75587 97.2537
271 1 10.6482 2.29506 92.9153
272 1 11.2977 1.63427 90.4591
273 2 13.9473 2.15711 89.5365
274 1 11.8588 3.12173 88.0006
275 2 2.85562 4.03522 97.4649
276 1 15.5627 3.18457 98.0413
277 1 16.1223 4.95768 96.0333
278 2 12.4526 2.66819 94.9818
279 1 13.3816 2.20931 92.2029
280 2 13.9573 6.01145 94.5802
281 1 12.336 4.65221 92.81
282 1 12.8112 4.26095 90.1877
283 1 15.1535 3.89949 93.7833
284 1 15.7395 3.55858 91.1564
285 1 13.2781 6.75143 89.3871
286 1 14.0444 5.88873 102.935
287 1 5.00324 0.10066 96.1609
288 2 16.2182 4.28198 102.659
289 1 16.1146 6.42568 100.923
290 1 4.64563 5.34757 99.1754
291 1 4.04336 5.8314 101.824
292 1 16.9074 6.07324 98.3427
293 1 16.514 6.63738 93.8332
294 1 17.1639 6.13654 91.0852
295 1 14.5934 6.02928 91.8049
296 2 15.3971 5.55902 89.238
297 1 5.56382 4.02569 93.9193
298 1 3.29872 5.1741 95.2524
299 1 2.74216 3.9091 92.9098
300 1 4.54857 4.68136 91.0017
301 2 3.76476 6.15894 92.9328
302 1 9.54345 5.73214 102.069
303 1 6.61694 5.6508 97.0489
304 1 6.91493 5.76888 101.062
305 1 8.4333 6.4728 98.892
306 2 7.65671 5.40199 94.6707
307 1 6.46577 6.07615 92.2443
308 1 2.36871 3.96202 89.1723
309 2 6.31075 6.49139 89.5411
310 1 9.68795 6.25765 93.0725
311 2 11.2442 6.37852 91.0991
312 1 4.95895 5.03094 88.0923
313 1 3.42975 1.42231 87.9778
314 1 13.2862 1.05781 87.2683
315 2 16.5759 6.77858 84.9973
316 1 14.1486 0.349037 82.854
317 1 5.9322 2.40206 83.32
318 1 5.96743 6.95903 83.8305
319 2 0.703125 0.835198 81.4389
320 1 3.69464 6.18231 77.2881
321 1 1.54568 0.297808 75.2814
322 1 5.65811 6.451 79.0436
323 1 18.0428 6.82467 74.3432
324 1 4.0957 1.70668 85.1711
325 2 8.63081 6.94162 83.0911
326 1 6.53042 0.331349 85.2547
327 1 3.04581 2.42127 82.2182
328 1 5.12045 1.27078 80.6187
329 1 2.43329 1.50831 72.853
330 1 9.19225 0.48856 84.3726
331 2 13.5203 6.52393 81.663
332 1 11.1233 6.61768 82.4593
333 1 7.76078 1.28776 80.0471
334 2 5.95013 2.4 78.458
335 1 3.73808 0.537707 77.1799
336 1 4.46534 0.144688 74.3221
337 1 10.5929 6.49005 77.8888
338 1 11.3143 6.20595 75.1547
339 1 6.07182 2.53039 87.1197
340 1 16.6887 2.77106 80.006
341 2 8.3704 1.03048 87.0496
342 2 9.74812 4.27469 86.5578
343 1 8.07806 2.86103 85.0008
344 1 11.7661 1.74397 82.9022
345 1 11.061 2.18645 85.6377
346 1 10.417 4.29206 83.7123
347 1 8.93357 2.37328 82.3172
348 1 8.27714 2.35181 77.7277
349 1 8.89082 2.12462 75.1451
350 1 6.11175 1.90616 75.8168
351 2 7.13515 1.44895 73.2242
352 1 14.4091 3.737 87.4028
353 1 13.1496 4.44184 83.2393
354 1 12.2114 4.90309 85.8333
355 2 11.4499 3.80018 81.1149
356 1 10.1737 3.86954 78.8601
357 1 16.7372 5.06094 86.9398
358 1 2.5573 4.39905 84.3185
359 1 12.35 -0.0436532 77.8696
360 1 10.4076 1.05104 79.4929
361 1 12.5643 2.69596 78.864
362 1 13.4946 6.62006 77.0338
363 1 11.3947 0.578815 75.0227
364 2 10.7834 2.14363 77.0236
365 1 1.40502 2.29047 85.9616
366 1 15.5311 5.72794 82.9993
367 2 15.0804 4.49591 85.1654
368 1 13.8543 2.69006 81.058
369 1 13.8506 2.24471 84.9003
370 1 15.7857 2.9097 83.1181
371 2 14.888 1.57186 78.725
372 1 13.372 2.0476 76.4262
373 1 14.9574 4.07888 77.7169
374 1 12.6747 5.35184 79.3307
375 1 9.38378 0.150953 73.198
376 1 11.111 3.59525 74.9236
377 2 13.0195 2.36886 73.6756
378 1 13.7867 4.57571 74.8919
379 2 12.1623 4.50393 77.1428
380 1 10.9403 3.27299 72.1931
381 1 4.06409 3.76342 79.8397
382 1 1.55398 2.09774 77.3216
383 1 2.6231 4.15169 73.2198
384 1 15.6363 2.63753 74.2807
385 2 3.12597 2.27898 75.1835
386 1 12.2388 0.531312 72.004
387 1 14.4907 6.46292 86.8367
388 1 3.8279 6.39246 85.7658
389 2 3.54274 3.71556 86.6246
390 2 17.2927 4.70844 81.6108
391 1 15.2626 5.27557 80.2995
392 1 7.83635 5.11989 87.911
393 1 5.71472 4.45632 85.2165
394 2 7.26141 4.60063 83.1092
395 1 4.48535 4.89537 82.4024
396 1 6.74278 3.7334 80.8059
397 1 18.191 6.35879 80.1265
398 1 7.00146 6.35056 81.2729
399 2 4.29438 4.85553 75.1128
400 1 17.0152 4.6536 75.8248
401 1 4.02152 3.32052 77.3208
402 1 4.70707 5.68077 72.7701
403 1 8.16048 5.60889 85.2633
404 2 6.2558 6.7126 86.4953
405 2 17.446 4.53051 78.4483
406 2 15.7868 5.29162 73.5076
407 1 9.24415 4.974 81.2373
408 1 6.26015 4.69257 77.0039
409 1 6.7996 4.46621 74.4442
410 2 9.3273 4.46823 73.5779
411 1 7.43142 5.78002 72.1629
412 2 8.02548 5.36312 78.9819
413 1 8.85036 4.79141 76.244
414 1 4.99167 2.75973 73.2333
415 2 1.42549 0.402859 70.5652
416 1 5.75625 6.59483 67.6776
417 1 9.85918 5.53718 71.2143
418 1 8.4065 6.52972 66.9702
419 1 3.8391 0.203983 69.6465
420 2 6.65452 5.86153 65.0704
421 1 1.76411 -0.017664 62.798
422 1 8.09855 0.444068 70.9153
423 1 13.0965 6.57016 68.369
424 1 8.0259 5.36498 62.9422
425 1 6.78337 1.39893 67.0353
426 2 10.392 6.59763 68.9847
427 1 10.3703 6.81165 61.9438
428 1 4.39233 1.48621 63.3259
429 1 6.69692 6.12876 58.9262
430 1 5.61678 0.60494 58.9545
431 2 3.85533 0.426327 61.0444
432 1 6.72668 5.69992 56.2473
433 1 14.7123 5.69306 63.8207
434 1 9.5871 -0.018297 57.1526
435 1 11.2799 5.25968 58.273
436 1 13.7133 4.21069 72.1448
437 1 5.85526 1.74543 70.8314
438 1 10.4789 1.7601 69.9485
439 1 8.15618 3.26719 71.3262
440 2 14.3902 5.94213 70.643
441 2 7.7602 2.37266 69.1193
442 1 9.47174 2.44601 67.0058
443 2 8.84119 0.283503 65.6731
444 1 7.08366 1.5583 64.1897
445 1 14.9744 1.58461 71.8832
446 1 16.3347 6.68328 69.2975
447 1 16.3841 4.7193 67.2394
448 2 13.7807 0.191458 67.1254
449 1 12.547 2.47306 67.8392
450 1 11.3013 0.609291 66.1749
451 1 17.4073 5.94434 64.8515
452 1 9.98735 1.90569 63.9204
453 1 13.5912 1.92134 65.1445
454 2 11.4377 3.18515 65.4014
455 1 10.5938 1.98495 61.0869
456 2 11.2564 0.599267 59.0032
457 1 12.4468 2.84516 59.2107
458 1 8.52186 0.52802 59.8176
459 1 14.9057 5.99945 61.0748
460 1 12.5451 2.76555 62.9854
461 1 9.72427 2.61344 58.1853
462 1 11.7967 1.46851 56.6127
463 1 14.9491 1.16816 69.1255
464 2 12.9004 2.37787 70.522
465 1 14.5924 3.86684 69.1906
466 2 15.3657 2.40394 67.1128
467 1 1.91389 2.48062 68.9786
468 1 13.6878 4.44773 66.3103
469 1 15.9699 3.48062 64.7689
470 2 8.764 0.448123 62.4294
471 2 7.47177 1.16023 57.437
472 1 13.4089 3.92335 56.7325
473 1 4.56695 2.68062 68.3227
474 1 0.57395 0.602568 65.2658
475 1 13.2086 0.751127 60.9765
476 1 13.6883 0.329421 58.3329
477 2 0.813633 0.14498 57.5423
478 1 14.3604 1.56766 56.0401
479 2 5.23626 2.70501 65.4888
480 1 2.69856 2.30693 66.2824
481 1 3.17636 3.77185 63.9162
482 2 14.9204 1.28185 62.9582
483 1 0.554294 0.8922 60.2915
484 2 16.5782 4.76882 62.5397
485 1 14.7793 3.2127 60.9066
486 1 15.4132 2.72297 58.2768
487 1 2.54011 2.63987 61.7239
488 1 3.11947 2.10215 59.1784
489 1 15.7956 5.32847 57.2535
490 1 16.4308 4.22065 71.135
491 1 11.6771 5.34065 64.095
492 2 3.56634 3.09082 70.9382
493 1 3.16852 4.95936 69.0094
494 1 6.8524 4.12793 67.1548
495 1 5.98168 4.46411 69.9697
496 1 4.10205 4.80651 66.4844
497 1 3.79161 5.13106 61.5423
498 1 4.52368 4.62817 59.131
499 1 17.0302 4.587 59.8601
500 2 2.64689 3.87893 57.1947
501 1 8.07502 2.73399 61.7866
502 1 5.7758 3.91091 63.1768
503 1 5.30496 2.50803 60.8492
504 1 7.01687 3.34164 58.8842
505 2 6.44365 4.74189 61.0441
506 1 11.9967 4.47115 69.9016
507 1 8.97652 4.29571 65.0699
508 1 9.20323 4.3057 68.8784
509 1 10.9617 5.1176 66.9002
510 2 10.195 4.18408 62.6513
511 1 9.11995 4.73867 60.2932
512 1 5.17437 2.91371 56.8984
513 2 8.65486 4.9608 57.7303
514 1 12.3095 4.81299 61.3202
515 2 13.771 4.95078 59.0207
516 1 8.07456 2.98179 55.917
517 1 5.38459 0.119715 56.0875
518 1 3.87647 5.66954 55.3436
519 2 3.34608 4.66829 52.9918
520 1 5.08817 4.91538 51.0263
521 1 8.17455 0.488059 50.9705
522 1 8.30343 5.0067 51.8248
523 2 7.07318 5.79129 49.4418
524 1 6.23481 4.94279 45.0117
525 1 8.28243 5.47892 43.0784
526 1 8.33139 5.65436 46.9547
527 1 5.51889 5.53806 42.2535
528 1 10.2772 6.4639 53.0899
529 2 10.998 5.03277 51.0008
530 1 12.907 5.03951 52.7168
531 1 5.32516 0.545404 50.2585
532 1 11.5037 5.79389 48.8154
533 1 5.11873 0.0578186 40.7038
534 1 15.6848 5.12186 52.2007
535 2 16.2548 5.17212 49.5871
536 1 13.7058 4.48716 50.1133
537 1 14.1687 6.17907 48.033
538 2 8.06855 0.62913 46.3689
539 1 10.1631 6.05519 45.0265
540 1 11.056 5.40767 42.5307
541 1 13.3058 5.21388 45.5914
542 1 13.9533 4.74532 43.0358
543 1 8.14383 0.213835 54.8614
544 1 3.17577 1.45842 48.2138
545 2 14.5384 5.59253 54.8018
546 2 12.4415 2.83912 54.4713
547 1 10.1394 0.873044 52.9465
548 1 13.9541 -0.273077 51.1051
549 1 13.2645 0.324386 53.7345
550 1 12.7786 2.27831 51.7094
551 1 11.0392 0.595992 50.5316
552 1 10.7234 1.29002 45.8338
553 1 11.4771 0.554983 43.191
554 1 8.82684 0.510618 43.7514
555 2 13.6835 6.69484 41.0781
556 1 1.56382 1.43498 55.4246
557 1 15.4012 2.31265 50.9754
558 1 14.8013 2.68068 53.6058
559 2 13.6324 1.69371 49.0479
560 1 12.8104 2.79748 46.713
561 1 3.60109 2.94212 54.89
562 1 4.75482 2.30092 52.3324
563 1 3.5286 5.53686 45.8376
564 1 16.6753 6.65486 47.3297
565 1 14.9651 1.32813 46.8362
566 1 16.1646 5.19124 45.0867
567 1 17.964 5.89318 43.0508
568 2 13.2645 0.850071 45.074
569 1 3.75673 0.279971 53.8558
570 1 17.7594 3.64326 50.8517
571 2 2.1543 2.39185 52.9704
572 1 0.534963 0.230205 48.9686
573 1 0.742102 0.146863 53.0369
574 1 2.61599 0.860699 51.1247
575 2 1.79091 0.200407 46.5105
576 1 0.669912 0.803682 44.1821
577 1 2.0378 2.76266 45.9245
578 1 15.4857 3.82767 47.6625
579 1 15.943 5.26345 41.131
580 1 13.6818 2.11787 43.0053
581 2 15.6153 0.767798 41.4777
582 1 16.4286 3.4504 43.072
583 2 14.8069 3.16097 45.0667
584 1 14.6112 2.98585 40.699
585 1 6.06864 1.44214 47.7208
586 1 3.88657 1.07291 45.2501
587 1 5.11344 2.86178 41.0569
588 1 2.85504 1.32769 42.3818
589 2 5.44285 1.05971 43.1859
590 1 13.0857 0.855208 40.7111
591 1 16.6447 4.30012 54.7717
592 1 5.99072 4.2649 53.9199
593 2 5.99833 1.81991 54.5407
594 2 4.45122 2.92042 49.6286
595 1 3.01785 4.4118 48.317
596 1 10.7245 4.01103 55.6518
597 1 7.76272 2.39641 53.0313
598 2 9.37482 2.71974 51.0625
599 1 6.84561 3.10377 49.989
600 1 8.91443 1.80729 48.7205
601 1 5.66615 4.50736 47.6421
602 1 9.19934 4.53699 49.218
603 2 6.76664 3.39533 43.0239
604 1 4.05674 3.38624 43.5017
605 1 6.68475 1.98511 45.1149
606 1 7.56736 4.40752 40.7255
607 1 10.5632 3.6254 53.024
608 2 8.63842 4.67987 54.5083
609 2 4.55147 3.12564 46.3444
610 2 2.79681 3.89846 40.9548
611 1 11.4389 3.06211 49.2359
612 1 8.94865 3.56866 44.9037
613 1 9.59685 2.92406 42.4309
614 2 12.0291 3.12691 41.4975
615 1 10.3391 4.41886 40.2547
616 2 10.5672 4.00303 46.8758
617 1 11.5414 3.52772 44.2644
618 1 7.48192 1.28626 41.4575
ITEM: TIMESTEP
1900
ITEM: NUMBER OF ATOMS
618
ITEM: BOX BOUNDS xy xz yz pp pp ff
0.0000000000000000e+00 1.9317770367296919e+01 4.0025167278329121e+00
0.0000000000000000e+00 6.6702723500479264e+00 0.0000000000000000e+00
0.0000000000000000e+00 1.0921147561319708e+02 0.0000000000000000e+00
ITEM: ATOMS id type x y z
1 1 4.77611 5.94176 5.76447
2 1 6.56071 6.319 8.11003
3 1 4.93952 6.08951 12.8883
4 1 6.03634 0.209731 5.78201
5 1 4.11408 -0.0301298 10.5719
6 1 6.56879 6.28967 15.0817
7 1 4.89916 6.08994 19.9145
8 1 12.5612 5.77308 5.76834
9 1 7.52496 0.547387 8.17196
10 1 5.99736 0.467364 12.95
11 1 4.04859 0.0012395 17.5029
12 1 6.54325 6.14064 22.3927
13 1 4.76259 5.75302 27.0158
14 1 10.5598 1.31694 5.83916
15 1 14.1538 6.20896 8.22359
16 1 9.10045 0.912354 10.6276
17 1 12.4938 6.14961 13.061
18 1 7.32442 0.788686 15.3993
19 1 5.60663 0.440655 19.9657
20 1 4.0417 -0.224479 24.7353
21 1 6.32973 6.0606 29.1106
22 1 4.78208 5.98377 33.9969
23 1 13.2552 0.437611 5.78755
24 1 13.006 3.01657 5.69674
25 1 12.4575 1.63002 8.33111
26 1 11.8185 -0.0250643 10.5867
27 1 11.3704 2.87684 10.5548
28 1 10.8948 1.24838 12.7996
29 1 14.2589 6.48883 15.2947
30 1 9.06912 0.895455 17.5709
31 1 12.4531 6.10974 19.8689
32 1 7.27621 0.567374 22.2122
33 1 5.73244 0.130711 26.8935
34 1 4.07977 -0.375511 31.4289
35 1 2.42471 -0.452053 36.3138
36 1 15.9146 2.03528 5.65983
37 1 15.0611 0.628335 8.2448
38 1 14.449 3.42727 8.11503
39 1 14.086 1.81845 10.6404
40 1 13.633 0.167108 12.8572
41 1 13.0522 3.17856 12.7752
42 1 12.5578 1.54374 15.09
43 1 15.9026 6.69734 17.5275
44 1 11.4147 2.70721 17.4252
45 1 10.7486 1.13216 19.8448
46 1 13.9526 6.40877 22.2201
47 1 9.01598 0.854775 24.475
48 1 12.5273 6.04753 26.9955
49 1 7.47348 0.544032 29.3176
50 1 5.84456 0.0881174 33.7916
51 1 3.92393 -0.205236 38.5468
52 1 3.14461 1.21166 5.78352
53 1 2.61386 4.13312 5.62353
54 1 1.87782 2.51871 8.11348
55 1 1.5637 0.898781 10.5253
56 1 16.4637 3.81585 10.5709
57 1 15.7549 2.19489 12.8409
58 1 15.2078 0.718713 15.2523
59 1 14.6865 3.5181 15.0709
60 1 14.1459 1.98715 17.504
61 1 13.3731 0.471879 19.967
62 1 13.1214 3.16806 19.7587
63 1 12.2843 1.44291 22.2107
64 1 11.6785 -0.00879621 24.5843
65 1 11.4388 2.76654 24.6385
66 1 10.812 1.27312 26.8512
67 1 14.2147 6.19042 29.2784
68 1 9.07756 0.786278 31.5646
69 1 12.6448 5.8018 33.9077
70 1 7.38847 0.624393 36.1731
71 1 5.32607 3.22231 5.77359
72 1 4.72132 1.54737 8.0552
73 1 4.16645 4.44008 8.1523
74 1 3.75351 2.80126 10.5087
75 1 3.162 1.26873 12.8392
76 1 2.83163 4.00223 12.8596
77 1 2.11316 2.55646 15.1678
78 1 1.47279 0.893592 17.5177
79 1 16.2892 3.82752 17.5048
80 1 15.6556 2.28171 19.8164
81 1 15.1104 0.596456 22.2329
82 1 14.664 3.30952 22.077
83 1 14.0034 1.88706 24.3749
84 1 13.5508 0.249489 26.8388
85 1 12.9948 3.11785 26.822
86 1 12.5719 1.56701 29.2857
87 1 11.9711 -0.16963 31.3064
88 1 11.4389 2.65581 31.5429
89 1 10.7967 1.08192 33.9536
90 1 14.1155 6.04121 36.2601
91 1 8.91535 0.9104 38.5452
92 1 7.87892 2.16069 5.59343
93 1 7.587 5.09344 5.62451
94 1 6.79428 3.34005 8.247
95 1 6.46381 1.74421 10.5335
96 1 5.9265 4.75251 10.6627
97 1 5.42169 3.0032 12.8385
98 1 4.67784 1.60626 15.219
99 1 4.25521 4.57368 15.1328
100 1 3.52759 2.96413 17.5386
101 1 2.84831 1.29423 19.966
102 1 2.62572 4.22754 19.9542
103 1 2.04211 2.60187 22.2745
104 1 1.25154 0.734256 24.5237
105 1 16.2626 3.8329 24.6929
106 1 15.7398 2.09545 26.9621
107 1 15.0341 0.584904 29.2096
108 1 14.534 3.42082 29.2158
109 1 14.1563 1.59816 31.6256
110 1 13.4377 0.123718 34.0061
111 1 13.0187 3.05837 33.9128
112 1 12.2765 1.27917 36.2968
113 1 15.5329 6.60871 38.7298
114 1 11.6485 2.74201 38.8055
115 1 10.1909 4.09561 5.72766
116 1 9.52582 2.39219 8.35917
117 1 9.24342 5.42999 8.21759
118 1 8.76981 3.81482 10.535
119 1 8.17373 2.25506 13.0104
120 1 7.46715 5.0926 12.8936
121 1 7.03629 3.53263 15.1001
122 1 6.37971 1.93064 17.5617
123 1 5.86882 4.56534 17.5116
124 1 5.20362 3.18521 19.8714
125 1 4.70412 1.49138 22.2183
126 1 4.21523 4.27209 22.0768
127 1 3.61647 2.76451 24.5844
128 1 2.79709 0.918831 26.9798
129 1 17.888 3.90506 26.8511
130 1 2.05024 2.49253 29.2805
131 1 1.42619 0.648328 31.4538
132 1 16.298 3.66822 31.6612
133 1 15.7307 1.98792 33.9104
134 1 15.1911 0.503426 36.4044
135 1 14.5217 3.29381 36.2112
136 1 14.108 2.0244 38.4487
137 1 11.8553 4.27934 8.21472
138 1 10.9275 5.52639 10.5478
139 1 10.3422 4.13568 13.0516
140 1 9.59603 2.50932 15.2783
141 1 9.2595 5.46177 15.1704
142 1 8.69016 3.80653 17.5376
143 1 7.99444 2.32814 19.7863
144 1 7.4462 5.18819 19.9676
145 1 6.94251 3.31734 22.0975
146 1 6.36569 1.75687 24.5651
147 1 5.86496 4.63114 24.5411
148 1 5.13325 2.91207 26.8295
149 1 4.72236 1.47043 29.2524
150 1 4.08233 4.16604 29.172
151 1 3.64066 2.65906 31.5031
152 1 3.10391 1.05281 33.7027
153 1 17.8235 3.90031 34.0772
154 1 2.0549 2.44248 36.1526
155 1 1.33008 1.08982 38.9497
156 1 16.2715 3.9488 38.7921
157 1 15.2855 4.97224 5.69112
158 1 13.7876 4.67249 10.5681
159 1 11.9163 4.5088 15.0642
160 1 10.7726 5.63886 17.495
161 1 10.2878 4.18772 19.7701
162 1 9.66788 2.51936 22.1644
163 1 9.11199 5.24443 22.3607
164 1 8.50821 3.63385 24.5611
165 1 8.08421 1.90397 26.8118
166 1 7.47441 4.76912 26.8446
167 1 6.81939 3.29469 29.1362
168 1 6.37257 1.61697 31.5028
169 1 5.69588 4.535 31.449
170 1 5.39771 2.90804 33.8862
171 1 4.67935 1.45754 36.0725
172 1 4.21719 4.31605 36.4841
173 1 3.50362 2.60314 38.8328
174 1 16.7559 5.31774 8.1297
175 1 15.3819 5.10683 12.947
176 1 13.5504 4.69398 17.3999
177 1 11.843 4.44227 22.0815
178 1 10.9387 5.68145 24.4639
179 1 10.2468 4.03464 26.9939
180 1 9.69359 2.3504 29.2069
181 1 8.99788 5.23192 29.1264
182 1 8.38999 3.46451 31.5169
183 1 8.0164 1.9389 33.7484
184 1 7.46868 4.84347 33.7658
185 1 6.99015 3.34797 36.2674
186 1 6.39299 2.13372 38.5443
187 1 5.57357 4.77233 38.8647
188 1 18.5642 5.68054 10.4144
189 1 17.0505 5.44884 15.1181
190 1 15.1555 5.06989 19.8438
191 1 13.5505 4.60506 24.3227
192 1 11.8918 4.30262 29.237
193 1 10.8692 5.46256 31.4077
194 1 10.2516 4.04599 33.7691
195 1 9.73708 2.36973 36.1669
196 1 9.09465 5.39853 36.1625
197 1 9.09004 3.68227 38.1941
198 1 18.4608 5.79776 17.5384
199 1 16.7504 5.40852 22.2339
200 1 15.1908 5.13064 26.9432
201 1 13.7392 4.64725 31.6365
202 1 11.8592 4.48562 36.2481
203 1 10.8907 5.86745 38.4759
204 1 18.4247 5.61684 24.4467
205 1 16.9642 5.16339 29.1154
206 1 15.281 4.93592 33.8859
207 1 13.4899 4.94521 38.7431
208 1 18.4252 5.52216 31.4942
209 1 16.8525 5.13956 36.2467
210 1 18.3567 5.5655 38.853
211 2 14.042 1.07443 102.297
212 1 14.6032 0.996455 99.7024
213 1 3.03678 0.532134 103.344
214 1 2.04298 1.03548 98.9232
215 1 1.19525 1.65547 101.613
216 2 0.27919 0.717499 97.0635
217 1 14.546 1.4076 94.7236
218 1 5.65979 1.62288 102.927
219 1 6.58553 1.33965 100.206
220 1 1.65873 0.230835 94.8122
221 1 4.27783 2.56432 98.8506
222 2 3.88572 1.19811 101.009
223 1 3.91868 1.48828 93.9419
224 1 1.75934 2.89297 95.1864
225 1 15.575 0.903534 90.8952
226 1 2.87562 2.01412 90.896
227 2 1.31873 1.8882 92.8312
228 1 0.719378 1.47252 88.2707
229 1 8.00273 0.335697 95.8915
230 1 6.94672 1.43268 89.1187
231 1 8.64309 6.73322 90.2216
232 1 11.3667 4.97821 103.466
233 1 3.27047 3.12268 102.685
234 1 7.8718 3.12269 102.196
235 1 5.70633 4.53704 103.488
236 2 7.59574 0.397154 102.329
237 2 5.42239 3.60196 101.163
238 1 6.96009 3.96781 99.0768
239 2 6.35848 1.78114 97.6058
240 1 4.63096 2.93329 96.242
241 1 12.1053 1.46832 103.386
242 1 9.89641 1.58521 101.489
243 1 13.748 6.04438 99.1368
244 2 11.1641 1.40902 99.0887
245 1 9.86207 3.78877 99.8607
246 1 8.60257 1.78697 98.2955
247 1 10.6883 0.574775 96.8488
248 1 7.58915 3.15106 95.9235
249 1 11.0433 3.18577 97.2621
250 2 8.88454 4.60598 97.4695
251 1 7.95317 3.36626 93.1544
252 2 8.67093 2.0633 90.9896
253 1 9.95286 4.28117 91.1765
254 1 5.90335 2.0162 91.6994
255 1 8.4214 0.587603 93.1703
256 1 10.0966 4.15478 94.9411
257 1 7.02721 4.18008 90.1056
258 1 9.14313 2.9339 88.653
259 1 12.4617 2.44237 100.794
260 2 10.5073 3.47642 102.442
261 1 12.0266 5.07243 100.923
262 2 12.9408 3.68851 98.8329
263 1 14.7368 3.91336 100.671
264 1 11.1993 5.76429 98.0926
265 1 13.2924 4.63725 96.5294
266 2 6.3286 1.72402 94.4056
267 2 4.85706 2.7479 89.3118
268 1 10.732 5.41416 88.7086
269 1 17.45 4.0316 100.113
270 1 13.2738 1.72701 97.1752
271 1 10.5727 2.06066 92.9258
272 1 11.3198 1.65519 90.4124
273 2 13.9161 2.23935 89.5353
274 1 11.956 3.16064 88.1439
275 2 2.67918 3.95782 97.5179
276 1 15.5526 3.21885 98.0959
277 1 15.9326 5.16672 95.9422
278 2 12.3183 2.57039 94.867
279 1 13.3201 2.11791 92.1569
280 2 13.9817 6.20248 94.5244
281 1 12.0109 4.56915 93.0275
282 1 12.7329 4.27504 90.4804
283 1 15.1262 4.03135 93.687
284 1 15.7015 3.52886 91.0195
285 1 13.311 6.81539 89.3246
286 1 14.0885 5.72849 102.796
287 1 5.12449 0.163063 96.1471
288 2 16.2973 4.3835 102.639
289 1 15.9819 6.54654 101.025
290 1 4.38854 5.21399 99.1974
291 1 3.94806 5.69844 101.837
292 1 16.6459 6.0165 98.3676
293 1 16.6005 6.53709 93.7121
294 1 17.2928 6.01744 91.032
295 1 14.5075 5.86972 91.6979
296 2 15.5205 5.37662 89.088
297 1 5.45287 4.10537 93.7204
298 1 3.44073 5.28668 95.3857
299 1 2.72358 4.04432 92.9606
300 1 4.53372 4.6618 90.9192
301 2 4.00746 6.10672 92.9542
302 1 9.30921 5.67321 101.908
303 1 6.34902 5.55953 96.993
304 1 6.57573 5.83005 101.035
305 1 8.60306 6.44196 98.9707
306 2 7.74345 5.5313 94.6196
307 1 6.66944 6.17864 92.2758
308 1 2.50526 3.93934 89.0823
309 2 6.14947 6.46633 89.684
310 1 9.673 6.24022 93.0275
311 2 11.281 6.46137 90.9899
312 1 5.14069 5.04361 88.0046
313 1 3.51678 1.34713 87.8468
314 1 13.0691 1.03105 87.354
315 2 16.506 6.78268 85.0267
316 1 14.1243 0.248261 82.8798
317 1 5.77796 2.51679 83.2311
318 1 5.86889 6.99205 83.8834
319 2 0.822957 1.02915 81.5686
320 1 3.53585 6.31208 77.1281
321 1 1.38927 0.264681 75.1261
322 1 5.51307 6.76397 78.8369
323 1 17.9818 6.62758 74.1268
324 1 3.89128 1.92049 85.0923
325 2 8.58797 7.02447 83.1094
326 1 6.57451 0.445482 85.06
327 1 3.18866 2.49058 82.2976
328 1 5.07083 1.2893 80.7502
329 1 2.29865 1.33494 72.7242
330 1 9.25663 0.387122 84.1741
331 2 13.5416 6.41661 81.5593
332 1 11.1276 6.57244 82.3996
333 1 7.59025 1.09833 80.0621
334 2 5.76933 2.73837 78.5249
335 1 3.62871 0.670208 77.0547
336 1 4.40071 0.125666 74.3422
337 1 10.6455 6.80246 77.7128
338 1 11.366 6.29227 75.1138
339 1 6.05118 2.55164 86.8949
340 1 16.7426 2.80578 80.118
341 2 8.27658 0.963851 86.8308
342 2 9.87146 4.12851 86.4804
343 1 7.98576 2.84254 84.8525
344 1 11.6693 1.80804 83.0716
345 1 11.0186 2.24594 85.6472
346 1 10.3476 4.24179 83.8439
347 1 8.70446 2.35165 82.3008
348 1 8.18349 2.66052 77.8618
349 1 8.93714 2.09604 75.2149
350 1 6.09953 2.12715 75.8427
351 2 7.06365 1.49822 73.2086
352 1 14.5206 3.5 87.2485
353 1 13.1282 4.36293 83.2462
354 1 12.3299 5.00639 85.9057
355 2 11.3562 3.65877 81.2126
356 1 10.208 4.1211 78.7804
357 1 16.7801 5.0288 86.9285
358 1 2.423 4.59065 84.4005
359 1 12.3457 0.0827725 77.9144
360 1 10.1939 1.29007 79.5189
361 1 12.4286 2.73329 79.0232
362 1 13.4829 6.66845 77.017
363 1 11.4572 0.741555 75.0593
364 2 10.8798 2.11876 77.206
365 1 1.3703 2.35602 85.7877
366 1 15.4315 5.79772 82.9906
367 2 15.0456 4.45857 84.9705
368 1 13.8054 2.50885 81.2102
369 1 13.8689 2.19885 84.9116
370 1 15.8208 3.0987 82.9635
371 2 14.6078 1.68072 78.7209
372 1 13.616 2.24108 76.3362
373 1 14.7854 4.17451 78.1779
374 1 12.6144 5.53445 79.2985
375 1 9.31198 0.341862 73.0799
376 1 11.1635 3.51211 75.0159
377 2 13.0196 2.31109 73.738
378 1 13.7503 4.79508 74.8597
379 2 12.2085 4.50048 77.067
380 1 10.9744 3.19039 72.3189
381 1 4.03235 3.89398 79.7841
382 1 1.11818 2.25455 77.0799
383 1 2.49484 3.9771 73.0903
384 1 15.5269 2.74372 74.2278
385 2 2.74752 2.40016 75.0412
386 1 12.1604 0.51372 71.954
387 1 14.4603 6.39886 86.7789
388 1 3.78473 6.50643 85.9828
389 2 3.64037 3.76242 86.7514
390 2 17.5648 4.62455 81.7305
391 1 15.4489 5.51911 80.383
392 1 8.03774 5.3662 87.7351
393 1 5.41309 4.4993 85.0009
394 2 7.09536 4.62147 83.0093
395 1 4.67499 5.22014 82.1543
396 1 6.81257 3.62583 80.6986
397 1 18.1414 6.49655 80.1806
398 1 6.94005 6.4218 81.2409
399 2 4.245 4.74014 75.1307
400 1 16.8031 4.72325 75.8555
401 1 3.84447 3.39408 77.225
402 1 4.78502 5.54215 72.6861
403 1 8.16328 5.58137 85.0506
404 2 6.26602 6.6388 86.4289
405 2 17.3091 4.61553 78.5072
406 2 15.6018 5.26651 73.4548
407 1 9.27349 5.03517 81.3467
408 1 6.14578 4.91684 76.9121
409 1 6.76392 4.43141 74.4141
410 2 9.23683 4.33086 73.5588
411 1 7.41927 5.72356 72.069
412 2 8.02558 5.58199 78.9153
413 1 8.80262 4.91814 76.2199
414 1 4.80645 2.64374 73.3831
415 2 1.45574 0.309772 70.5146
416 1 5.81605 6.38434 67.8182
417 1 9.9267 5.67381 71.3556
418 1 8.54023 6.5417 66.8652
419 1 3.94388 0.30407 69.5192
420 2 6.77427 5.89283 65.0963
421 1 1.81625 0.0414942 62.8711
422 1 8.10326 0.548274 70.847
423 1 13.1838 6.75677 68.3352
424 1 8.12962 5.33486 62.8405
425 1 6.92695 1.38156 66.9169
426 2 10.532 6.65427 68.9862
427 1 10.3789 6.85321 61.8369
428 1 4.40001 1.32585 63.3806
429 1 6.82605 6.05262 58.9098
430 1 5.3215 0.689731 58.8661
431 2 3.90287 0.501042 60.9788
432 1 6.57818 5.60848 56.3079
433 1 14.5131 5.53436 63.9294
434 1 9.53101 0.083303 57.2726
435 1 11.2738 5.3886 58.3253
436 1 13.8548 4.05073 72.1193
437 1 5.80896 2.00049 70.7352
438 1 10.535 2.13963 69.7626
439 1 8.31558 3.32931 71.2422
440 2 14.1932 6.11781 70.7765
441 2 7.91252 2.25302 68.9767
442 1 9.5218 2.50826 66.9482
443 2 8.81469 0.30204 65.4988
444 1 7.25502 1.53419 64.1337
445 1 14.9728 1.42372 71.8395
446 1 16.0338 6.70466 69.0935
447 1 16.6174 4.61378 67.2149
448 2 13.8068 0.174728 67.2017
449 1 12.5108 2.4307 67.8891
450 1 11.3259 0.626324 66.2994
451 1 17.1819 5.79112 64.8276
452 1 10.1466 1.79829 64.0292
453 1 13.5608 1.84005 65.2876
454 2 11.4165 3.27458 65.3982
455 1 10.6064 2.15332 61.1314
456 2 11.2585 0.602183 59.1686
457 1 12.6572 2.73273 59.153
458 1 8.68019 0.67363 59.8879
459 1 14.8408 5.83296 61.2009
460 1 12.5582 2.87188 63.0742
461 1 9.93302 2.69595 58.3165
462 1 11.7986 1.61902 56.8568
463 1 14.9861 1.20932 69.1328
464 2 12.9399 2.31171 70.477
465 1 14.5566 4.12593 69.097
466 2 15.3067 2.45194 67.042
467 1 1.93463 2.53431 68.9007
468 1 13.6838 4.44226 66.2904
469 1 15.9629 3.21048 64.8118
470 2 8.95832 0.343773 62.4321
471 2 7.2126 1.07838 57.3568
472 1 13.4464 3.98018 56.8477
473 1 4.6139 2.60751 68.3272
474 1 0.491255 0.370918 65.3335
475 1 13.1489 0.768739 61.0373
476 1 13.6893 0.273789 58.464
477 2 0.849043 0.299378 57.6568
478 1 14.307 1.53055 56.0893
479 2 5.28003 2.62464 65.5543
480 1 2.56706 1.77894 66.2012
481 1 3.20729 3.54948 64.0198
482 2 14.8332 1.37609 63.0167
483 1 0.544378 0.698391 60.3258
484 2 16.4889 4.80619 62.5305
485 1 14.558 3.16969 61.0335
486 1 15.3948 2.70736 58.3371
487 1 2.2737 2.569 61.6406
488 1 2.93361 2.15641 59.1354
489 1 15.8934 5.34218 57.2846
490 1 16.5455 4.67609 70.9535
491 1 11.5624 5.50109 64.0453
492 2 3.58336 3.15397 70.9379
493 1 3.38799 5.12489 69.0511
494 1 7.10109 4.0063 66.9872
495 1 6.39692 4.44427 69.712
496 1 3.99389 4.54513 66.5084
497 1 3.8063 5.23606 61.8791
498 1 4.52292 4.7531 59.2742
499 1 17.1384 4.57163 59.9054
500 2 2.81163 4.21351 57.132
501 1 8.00509 2.63278 61.8021
502 1 5.95588 3.90967 63.2695
503 1 5.11395 2.60611 60.986
504 1 7.16808 3.1382 59.0506
505 2 6.36069 4.81394 61.023
506 1 11.9715 4.60198 69.9153
507 1 9.0794 4.42819 65.0464
508 1 9.20341 4.52734 68.8029
509 1 11.1599 5.13276 67.0345
510 2 10.1929 3.93526 62.6673
511 1 9.10253 4.76034 60.2255
512 1 5.1397 2.84962 57.1784
513 2 8.68164 4.82629 57.5491
514 1 12.1371 4.62325 61.0841
515 2 13.9481 4.88297 59.1149
516 1 7.96924 2.97518 55.9913
517 1 5.30352 -0.0575342 55.9933
518 1 3.98468 5.86773 55.3188
519 2 3.61192 4.69528 52.9577
520 1 5.18762 4.913 50.8659
521 1 8.00115 0.398957 51.0924
522 1 8.15949 4.92439 51.804
523 2 7.26718 5.74267 49.24
524 1 6.31847 4.80537 45.0417
525 1 8.39704 5.47102 43.0136
526 1 8.56582 5.70061 46.9641
527 1 5.59534 5.54186 41.9825
528 1 10.1384 6.49183 53.082
529 2 10.7528 4.98187 51.0087
530 1 12.7953 4.94417 52.8872
531 1 5.21168 0.518351 50.0227
532 1 11.4078 5.93923 48.7627
533 1 5.35818 0.138289 40.6308
534 1 15.4729 5.11323 52.3125
535 2 16.0821 5.05432 49.5206
536 1 13.3785 4.70116 50.3002
537 1 14.0262 6.18531 48.0125
538 2 8.05396 0.554694 46.4113
539 1 10.4144 5.88923 44.8986
540 1 11.2441 5.60414 42.4097
541 1 13.1168 5.14204 45.6891
542 1 14.0712 4.90125 43.1483
543 1 8.18713 0.171671 54.9992
544 1 3.14245 1.49656 48.0387
545 2 14.6693 5.7296 55.0503
546 2 12.4487 2.76186 54.577
547 1 10.3225 0.902811 52.8808
548 1 14.0231 -0.238223 51.1534
549 1 13.244 0.211914 53.7008
550 1 12.7865 2.17268 51.7105
551 1 10.8318 0.572453 50.3449
552 1 10.6761 1.20529 45.8215
553 1 11.5741 0.792159 43.185
554 1 8.7745 0.672081 43.7917
555 2 13.811 6.6217 41.0749
556 1 1.61242 1.55058 55.4493
557 1 15.5001 2.35827 51.0405
558 1 14.8586 2.62251 53.6997
559 2 13.6754 1.62609 49.235
560 1 12.7823 2.58502 46.8555
561 1 3.81313 3.06354 54.9259
562 1 4.75778 2.56923 52.2919
563 1 3.60214 5.47327 45.8076
564 1 16.7456 6.50529 47.3425
565 1 15.0855 1.296 46.891
566 1 16.0564 5.27925 44.8959
567 1 18.0638 5.78796 43.0638
568 2 13.4367 0.699397 45.0902
569 1 3.69066 0.510368 53.8472
570 1 17.7286 3.79852 50.8151
571 2 2.20818 2.45906 53.0766
572 1 0.766052 0.138607 49.0282
573 1 0.837439 0.221223 52.8459
574 1 2.80397 0.950217 51.0606
575 2 1.95015 -0.00208455 46.6192
576 1 0.94915 0.704846 43.9499
577 1 2.05982 2.7123 45.823
578 1 15.3948 3.87316 47.3417
579 1 16.08 5.34675 41.1492
580 1 13.8026 2.0992 43.0066
581 2 15.6385 1.01699 41.4014
582 1 16.5872 3.36343 43.1545
583 2 14.8928 2.99328 45.1235
584 1 14.5632 3.22237 40.7661
585 1 6.16 1.50011 47.6892
586 1 3.75267 0.719545 44.943
587 1 5.07926 2.95692 40.8304
588 1 2.96091 1.27668 41.7066
589 2 5.49154 1.08303 43.0132
590 1 13.2442 0.900213 40.6765
591 1 16.9315 4.3769 54.6703
592 1 6.12345 4.40829 53.7815
593 2 6.0399 1.78327 54.7838
594 2 4.57902 2.86601 49.3521
595 1 2.8109 4.28114 48.1567
596 1 10.6613 3.91871 55.8801
597 1 7.94962 2.43573 53.2883
598 2 9.4788 2.57813 50.9261
599 1 6.91869 2.91323 50.2241
600 1 8.73543 1.81629 48.4807
601 1 5.72492 4.37263 47.7999
602 1 9.18999 4.41741 49.1861
603 2 6.91611 3.38171 43.0833
604 1 4.09443 3.33819 43.5541
605 1 6.43669 2.01115 45.0102
606 1 7.53929 4.19183 40.6207
607 1 10.5776 3.54095 53.1738
608 2 8.59648 4.89937 54.4035
609 2 4.49637 2.92782 46.2321
610 2 2.76797 3.90203 40.9746
611 1 11.5058 3.03831 49.341
612 1 8.83294 3.36282 45.0947
613 1 9.59207 2.98143 42.5072
614 2 12.1002 3.1525 41.4994
615 1 10.2949 4.34253 40.4038
616 2 10.4394 3.92618 46.9419
617 1 11.685 3.41101 44.2595
618 1 7.56418 1.49207 41.3801
ITEM: TIMESTEP
2000
ITEM: NUMBER OF ATOMS
618
ITEM: BOX BOUNDS xy xz yz pp pp ff
0.0000000000000000e+00 1.9317770367296919e+01 4.0025167278329121e+00
0.0000000000000000e+00 6.6702723500479264e+00 0.0000000000000000e+00
0.0000000000000000e+00 1.0921147561319708e+02 0.0000000000000000e+00
ITEM: ATOMS id type x y z
1 1 4.95908 6.0639 5.53572
2 1 6.39256 6.25469 8.145
3 1 5.02321 5.96028 12.8619
4 1 5.65074 0.111573 5.76353
5 1 4.11005 -0.211537 10.4794
6 1 6.58466 6.48684 15.2353
7 1 4.9361 6.08315 19.8682
8 1 12.4667 6.07427 5.83955
9 1 7.3266 0.447522 8.39789
10 1 5.74284 0.210617 12.9812
11 1 4.25234 0.0990775 17.7368
12 1 6.33533 6.3524 22.1036
13 1 4.90991 6.02417 26.8386
14 1 10.8442 0.963681 5.66986
15 1 14.1055 6.2493 8.31644
16 1 9.19759 0.812337 10.6305
17 1 12.5702 5.86338 12.9775
18 1 7.56321 0.506136 15.1172
19 1 5.85041 0.169876 20.0582
20 1 4.12873 -0.315808 24.3397
21 1 6.58632 6.2107 29.1864
22 1 4.8796 5.85115 33.9444
23 1 13.4207 0.123607 5.63561
24 1 12.817 3.094 5.87687
25 1 12.3524 1.52464 8.15275
26 1 11.9687 -0.106669 10.6547
27 1 11.3824 2.62587 10.6288
28 1 10.777 1.27594 13.0748
29 1 14.0721 6.28367 15.2937
30 1 8.99952 1.13322 17.6417
31 1 12.4997 5.95725 20.058
32 1 7.53998 0.429643 22.413
33 1 5.82659 0.114092 26.9263
34 1 4.07977 -0.115257 31.6826
35 1 2.31358 -0.464522 36.2452
36 1 15.4288 2.29765 5.72654
37 1 15.0925 0.539496 7.98463
38 1 14.748 3.47789 8.29529
39 1 14.0402 1.79597 10.4241
40 1 13.5649 0.386722 12.9722
41 1 13.1272 3.06505 13.101
42 1 12.3744 1.64717 15.3915
43 1 15.7403 6.81352 17.5814
44 1 11.2499 3.00126 17.7383
45 1 10.6546 1.2575 20.0108
46 1 14.211 6.19465 22.2605
47 1 9.07966 0.821632 24.6965
48 1 12.5555 5.94021 26.909
49 1 7.43554 0.466258 29.2101
50 1 5.61803 0.343948 33.9498
51 1 3.63702 -0.260068 38.5305
52 1 3.01412 1.19697 5.6104
53 1 2.49938 3.98976 5.64796
54 1 2.09485 2.41802 8.03395
55 1 1.49127 0.852134 10.4433
56 1 16.2979 3.66822 10.5012
57 1 15.8141 2.19392 12.9097
58 1 15.1606 0.582223 15.1021
59 1 14.6457 3.46394 15.4459
60 1 13.9431 1.9745 17.6931
61 1 13.4594 0.320971 19.7884
62 1 12.9515 3.00367 19.9603
63 1 12.4398 1.43249 22.3176
64 1 11.9205 -0.101885 24.5333
65 1 11.2633 2.62566 24.5764
66 1 10.6885 1.14677 26.9588
67 1 14.0984 6.21623 29.2705
68 1 8.91237 0.736758 31.5217
69 1 12.4216 5.92476 33.9247
70 1 7.46097 0.415027 36.2619
71 1 5.37035 2.94332 5.63483
72 1 4.76887 1.41254 8.23659
73 1 4.39091 4.29703 8.0884
74 1 3.67067 2.72462 10.6071
75 1 3.15326 1.24696 12.9258
76 1 2.58501 4.17961 12.8984
77 1 2.0224 2.66337 15.2188
78 1 1.39517 1.2884 17.6659
79 1 16.2842 3.91767 17.6692
80 1 15.6001 2.24402 19.9226
81 1 15.0004 0.713136 22.2938
82 1 14.5492 3.43548 22.3565
83 1 13.9703 1.80186 24.642
84 1 13.3299 0.278255 27.0936
85 1 12.9965 3.08135 27.0222
86 1 12.3205 1.34464 29.3505
87 1 11.6958 -0.308299 31.8194
88 1 11.2752 2.65207 31.42
89 1 10.6685 1.01867 33.9625
90 1 14.2624 6.45455 36.3778
91 1 9.14396 0.982022 38.7513
92 1 8.06023 1.98015 5.99702
93 1 7.5126 4.79437 5.79367
94 1 7.05295 3.25692 8.12876
95 1 6.33671 1.92886 10.6703
96 1 5.90583 4.66157 10.5389
97 1 5.37229 3.20295 12.9527
98 1 4.92871 1.62516 15.2614
99 1 4.38658 4.46302 15.3451
100 1 3.77806 2.97897 17.6722
101 1 3.24925 1.31351 19.9203
102 1 2.55123 4.09716 19.9249
103 1 1.86201 2.45096 22.0901
104 1 1.53732 0.831813 24.5821
105 1 16.2055 3.69067 24.4881
106 1 15.6771 2.152 26.9766
107 1 14.9794 0.379291 29.212
108 1 14.7583 3.30345 29.2874
109 1 13.9163 1.70347 31.4667
110 1 13.5331 0.0322813 33.9102
111 1 12.9434 2.92517 33.8652
112 1 12.4242 1.5461 36.221
113 1 15.6699 6.5668 38.8893
114 1 11.7848 2.70372 38.7535
115 1 10.2685 3.90921 5.8406
116 1 9.83088 2.42778 8.38153
117 1 9.17313 5.21275 8.35107
118 1 8.56444 3.59541 10.588
119 1 7.9138 2.04185 13.0362
120 1 7.67025 4.97406 12.967
121 1 7.06536 3.4958 15.3687
122 1 6.45364 2.01833 17.7202
123 1 5.98222 5.02575 17.7785
124 1 5.40059 3.28328 20.1242
125 1 4.80538 1.54749 22.1648
126 1 4.18829 4.39909 22.2648
127 1 3.53223 2.81043 24.5676
128 1 3.14385 1.1916 26.8288
129 1 17.9301 4.08782 27.0994
130 1 2.09328 2.37297 29.1839
131 1 1.45482 0.794213 31.7715
132 1 16.2747 3.61009 31.5672
133 1 15.8602 2.134 34.0221
134 1 15.0531 0.43422 36.1899
135 1 14.794 3.37095 36.1895
136 1 14.1404 1.84759 38.3896
137 1 12.0453 4.29465 8.31013
138 1 10.8154 5.63759 10.6821
139 1 10.4097 3.9182 12.8371
140 1 9.70644 2.64599 15.2111
141 1 9.1448 5.36262 15.4312
142 1 8.56642 3.79372 17.6781
143 1 7.8662 2.06175 20.1172
144 1 7.53527 5.03014 20.0537
145 1 6.76458 3.51088 22.3717
146 1 6.39869 1.71497 24.4348
147 1 5.93551 4.60397 24.6267
148 1 5.40339 3.16294 26.9792
149 1 4.63013 1.45545 29.1814
150 1 4.30386 4.37872 29.226
151 1 3.70181 2.57759 31.5187
152 1 3.03108 1.24022 34.2778
153 1 17.9156 3.92003 33.9947
154 1 2.01299 2.35 36.6156
155 1 1.25556 0.545067 39.0156
156 1 16.4535 3.67031 38.815
157 1 15.1738 5.07537 5.74952
158 1 13.3735 4.58962 10.5947
159 1 11.9509 4.45722 15.4256
160 1 10.949 5.82035 17.6608
161 1 10.0644 4.02174 20.1369
162 1 9.572 2.19524 22.3917
163 1 9.16385 5.34705 22.2688
164 1 8.64464 3.6951 24.5025
165 1 8.02208 2.13547 26.8619
166 1 7.49842 5.10937 26.8985
167 1 7.0053 3.31113 29.3891
168 1 6.44169 1.77846 31.557
169 1 6.06391 4.58666 31.5725
170 1 5.30665 2.97124 34.0321
171 1 4.78082 1.40386 36.5735
172 1 4.09713 4.28351 36.4221
173 1 3.6724 2.8431 38.8463
174 1 16.9283 5.32885 8.23682
175 1 15.28 5.00998 12.8535
176 1 13.5826 4.86296 17.8189
177 1 11.9549 4.4559 22.4169
178 1 10.7477 5.59603 24.5346
179 1 10.2598 3.8793 26.9491
180 1 9.60726 2.4263 29.2467
181 1 9.28596 5.11867 29.1781
182 1 8.59303 3.67896 31.5276
183 1 7.85308 2.1165 33.6998
184 1 7.65221 4.8934 34.0313
185 1 6.91532 3.26983 36.3328
186 1 6.47786 1.81029 38.5938
187 1 5.53927 4.64777 38.8612
188 1 18.6111 5.6528 10.5662
189 1 16.9318 5.49357 15.3083
190 1 15.1206 5.05859 19.9205
191 1 13.6055 4.79838 24.7726
192 1 11.9707 4.22665 29.2313
193 1 10.7552 5.62028 31.5701
194 1 10.2314 3.93743 33.6968
195 1 9.52653 2.32646 35.8868
196 1 9.14826 5.28835 36.0995
197 1 8.98212 3.5469 38.0834
198 1 18.6092 5.80238 17.4749
199 1 16.9715 5.32068 22.2164
200 1 15.2901 4.93212 26.9835
201 1 13.4373 4.59424 31.5464
202 1 12.1017 4.27292 36.2047
203 1 10.9534 5.62749 38.2014
204 1 18.5286 5.6395 24.662
205 1 16.8577 5.38436 29.4388
206 1 15.2122 4.82914 33.9457
207 1 13.7096 4.7337 38.895
208 1 18.6819 5.64388 31.6196
209 1 16.8274 5.3176 36.3752
210 1 18.2655 5.59216 38.8595
211 2 14.0474 1.27925 102.398
212 1 14.4349 1.05287 99.5613
213 1 3.2528 0.2757 103.265
214 1 1.90022 1.24542 99.0439
215 1 1.1362 1.49517 101.77
216 2 0.239516 0.480713 96.9449
217 1 14.5025 1.56072 94.7001
218 1 5.55365 1.80437 103.069
219 1 6.47294 1.29254 100.305
220 1 1.50022 0.162904 94.8855
221 1 4.12171 2.58413 98.8925
222 2 3.81443 1.16556 101.022
223 1 3.8492 1.46907 93.8121
224 1 1.94503 2.79682 95.2699
225 1 15.6089 0.956514 90.923
226 1 3.06449 2.07531 90.9453
227 2 1.34078 1.79533 93.0959
228 1 0.511556 1.21876 88.1417
229 1 7.94141 0.385909 95.7251
230 1 6.97855 1.37332 89.2331
231 1 8.71896 6.60538 90.2288
232 1 11.7084 4.8724 103.455
233 1 3.35162 3.17453 102.437
234 1 7.91446 3.13583 101.943
235 1 5.75765 4.64156 103.221
236 2 7.85191 0.565381 102.39
237 2 5.34439 3.57862 100.851
238 1 6.83645 3.6979 98.7307
239 2 6.10423 1.48327 97.6799
240 1 4.651 3.12541 96.339
241 1 11.9491 1.60075 103.541
242 1 9.90606 1.59925 101.537
243 1 14.0129 5.89725 99.0036
244 2 11.104 1.65552 99.1383
245 1 9.69066 3.9226 99.7561
246 1 8.69009 1.85229 97.9642
247 1 10.6893 0.593842 96.8056
248 1 7.40822 3.23481 95.8419
249 1 10.977 3.29096 97.1327
250 2 8.79363 4.52697 97.2229
251 1 7.90982 3.615 93.0069
252 2 8.75843 1.99911 90.9938
253 1 9.99102 4.06785 91.0118
254 1 5.86568 1.96325 91.7841
255 1 8.26798 0.662537 92.9995
256 1 10.1567 4.162 94.8724
257 1 6.95733 4.14207 90.1728
258 1 9.21471 2.9305 88.6552
259 1 12.3491 2.40508 100.97
260 2 10.4334 3.51771 102.44
261 1 12.0965 5.27118 100.685
262 2 12.9064 3.74436 98.7225
263 1 14.5766 3.72378 100.754
264 1 11.188 5.83549 98.1281
265 1 13.2701 4.70934 96.2277
266 2 6.17754 1.71207 94.4089
267 2 4.97128 2.95744 89.3932
268 1 10.6377 5.40994 88.6263
269 1 17.3089 3.8447 99.9333
270 1 13.1389 1.73879 97.1038
271 1 10.4926 2.14049 92.8854
272 1 11.44 1.6688 90.2811
273 2 13.9346 2.11166 89.4616
274 1 11.8182 3.13021 87.9658
275 2 2.76668 4.16453 97.401
276 1 15.4195 3.20684 97.9186
277 1 15.9084 5.11688 95.8724
278 2 12.1443 2.61172 94.8024
279 1 13.2635 2.25236 92.1744
280 2 14.043 6.46508 94.3821
281 1 12.0205 4.68118 93.0662
282 1 12.761 4.25906 90.3639
283 1 15.0614 4.11354 93.6324
284 1 15.6794 3.62664 91.1454
285 1 13.2435 6.76473 89.2907
286 1 14.1807 5.66603 102.8
287 1 5.13581 0.0260867 95.9677
288 2 16.507 4.34002 102.586
289 1 16.0251 6.33164 100.942
290 1 4.52495 5.31273 98.9365
291 1 3.75642 5.67429 101.463
292 1 16.8389 6.01324 98.3544
293 1 16.4981 6.70681 93.5892
294 1 17.2087 6.15868 90.9665
295 1 14.4747 6.07618 91.6845
296 2 15.4468 5.49814 89.1609
297 1 5.34146 4.2031 93.8016
298 1 3.09938 5.4569 95.1826
299 1 2.59741 3.98436 92.8312
300 1 4.53971 4.87959 90.9226
301 2 3.83529 6.22358 92.9373
302 1 9.56882 5.80075 102.093
303 1 6.57856 5.77829 97.0678
304 1 6.7647 5.6491 100.895
305 1 8.54618 6.54368 98.9054
306 2 7.56774 5.46934 94.588
307 1 6.56708 6.27882 92.2935
308 1 2.47592 4.00969 89.1529
309 2 6.31718 6.54222 89.6162
310 1 9.60554 6.13461 93.0208
311 2 11.1254 6.24387 90.9776
312 1 4.88975 5.19047 88.0151
313 1 3.51845 1.55682 88.0532
314 1 13.0975 0.962542 87.2188
315 2 16.5876 6.7797 84.9338
316 1 14.1511 0.297655 82.9163
317 1 5.83556 2.45805 83.229
318 1 5.92513 6.91747 83.7856
319 2 0.604753 0.907989 81.2953
320 1 3.46424 6.30309 77.0474
321 1 1.43324 0.236344 75.146
322 1 5.49045 6.78601 78.8052
323 1 18.006 6.87768 74.2433
324 1 3.93037 1.65088 85.2961
325 2 8.48348 7.01834 83.1455
326 1 6.61515 0.344618 85.0587
327 1 2.96329 2.41502 82.105
328 1 5.09675 1.25656 80.8426
329 1 2.31949 1.43646 72.7433
330 1 9.16267 0.424755 84.3676
331 2 13.5436 6.71165 81.6676
332 1 11.1268 6.78911 82.3551
333 1 7.58693 1.26758 80.101
334 2 5.57849 2.41198 78.5209
335 1 3.67979 0.593152 77.0119
336 1 4.3833 0.194434 74.2952
337 1 10.6808 6.89086 77.7206
338 1 11.3668 6.36559 74.9928
339 1 6.14175 2.58186 86.922
340 1 16.3647 2.87881 79.9783
341 2 8.26977 1.03337 86.9367
342 2 9.79173 4.25491 86.4263
343 1 8.12692 2.75894 84.7752
344 1 11.7069 1.89892 82.9688
345 1 10.8853 2.17606 85.4997
346 1 10.5198 4.31494 83.7994
347 1 9.00103 2.77044 82.0776
348 1 8.05841 2.63072 77.7479
349 1 8.80308 2.16557 75.0141
350 1 6.03466 2.06488 75.7606
351 2 7.11073 1.56876 73.056
352 1 14.5077 3.64009 87.3412
353 1 13.2107 4.51129 83.085
354 1 12.3659 4.7571 85.6644
355 2 11.3752 3.98932 81.1244
356 1 10.1455 4.30906 78.691
357 1 16.8079 4.95561 86.8454
358 1 2.43431 4.4501 84.1113
359 1 12.2536 0.218612 78.0037
360 1 10.1417 1.52821 79.4625
361 1 12.3805 2.91747 78.8906
362 1 13.4022 6.84096 76.8926
363 1 11.4094 0.745184 75.0893
364 2 10.6201 2.44384 76.9704
365 1 1.38458 2.30349 85.8661
366 1 15.3738 5.94052 82.9255
367 2 15.1889 4.42244 84.9969
368 1 13.7594 2.58976 81.1018
369 1 13.8312 2.29663 84.9017
370 1 15.7219 2.94458 82.9486
371 2 14.6034 1.67908 78.5847
372 1 13.2751 2.22924 76.2739
373 1 14.7057 4.28361 77.5971
374 1 12.6688 5.73165 79.3053
375 1 9.47192 0.189299 73.1394
376 1 11.0581 3.66437 74.9114
377 2 12.9698 2.52141 73.5818
378 1 13.7054 4.76612 74.9246
379 2 12.1321 4.67023 77.0084
380 1 11.1197 3.40142 72.289
381 1 3.80248 3.63447 79.8079
382 1 1.19896 2.22087 77.0578
383 1 2.50164 4.07432 73.2034
384 1 15.4679 2.73977 74.2399
385 2 2.73751 2.42156 75.1057
386 1 12.1952 0.616553 72.0015
387 1 14.512 6.36469 86.7908
388 1 3.85744 6.24182 85.7887
389 2 3.65209 3.63635 86.5463
390 2 17.2596 4.62297 81.6131
391 1 15.2508 5.44825 80.0933
392 1 7.66638 5.10602 87.7171
393 1 5.64698 4.4505 85.0575
394 2 7.28012 4.58147 83.0413
395 1 4.61308 4.97143 82.2644
396 1 6.6633 3.79725 80.7164
397 1 17.9647 6.48302 80.1039
398 1 6.75198 6.38677 81.2906
399 2 4.12752 4.71457 74.9181
400 1 16.7843 4.71819 75.753
401 1 3.79483 3.31698 77.1396
402 1 4.76702 5.6731 72.5952
403 1 8.22628 5.53861 85.1114
404 2 6.27929 6.66914 86.4413
405 2 17.2346 4.63998 78.3615
406 2 15.6396 5.33412 73.3644
407 1 9.18366 5.30886 81.1683
408 1 6.05459 4.79445 76.845
409 1 6.74982 4.38305 74.4714
410 2 9.21421 4.44775 73.5402
411 1 7.36619 5.75672 72.0731
412 2 7.81715 5.48773 78.9517
413 1 8.81232 4.95468 76.4182
414 1 4.74827 2.82679 73.3157
415 2 1.49941 0.328039 70.5418
416 1 5.9061 6.51113 67.8108
417 1 9.96041 5.87019 71.5512
418 1 8.51549 6.54426 67.1668
419 1 3.86301 0.367626 69.7222
420 2 6.86897 5.85456 65.2354
421 1 1.81698 -0.0195759 62.7845
422 1 8.10904 0.587385 70.8735
423 1 13.1888 6.62741 68.3411
424 1 8.07418 5.38684 62.9342
425 1 6.86914 1.33234 67.0041
426 2 10.611 6.6894 69.047
427 1 10.3414 6.82701 62.0757
428 1 4.38973 1.41377 63.3883
429 1 6.82186 6.07749 58.9396
430 1 5.41781 0.648287 58.9127
431 2 3.73653 0.455181 61.0217
432 1 6.77591 5.65353 56.2513
433 1 14.488 5.71331 63.7988
434 1 9.59466 0.0848016 57.0861
435 1 11.1776 5.25486 58.1744
436 1 13.8156 4.19056 72.0238
437 1 5.84009 1.96662 70.7735
438 1 10.5547 1.96817 69.8704
439 1 8.36913 3.2034 71.2847
440 2 14.5195 5.96243 70.5414
441 2 7.8708 2.35111 69.098
442 1 9.59867 2.33038 67.1616
443 2 8.82733 0.238342 65.7622
444 1 7.3725 1.69197 64.347
445 1 14.9958 1.36207 71.8592
446 1 16.4298 6.64281 69.2858
447 1 16.4938 4.63373 67.2887
448 2 13.8228 0.0401815 67.0032
449 1 12.6115 2.45922 67.8134
450 1 11.3413 0.576541 66.2728
451 1 17.1339 5.89606 64.6084
452 1 10.1061 1.81032 64.0487
453 1 13.7351 1.78993 65.1773
454 2 11.6087 3.07554 65.3589
455 1 10.6213 2.05989 61.2604
456 2 11.2359 0.59888 59.1594
457 1 12.4945 2.79927 59.2493
458 1 8.53774 0.617962 59.7133
459 1 14.8402 5.86348 61.125
460 1 12.8688 3.06859 62.996
461 1 9.74301 2.67184 58.3951
462 1 11.7203 1.74998 56.873
463 1 14.921 1.01909 69.0822
464 2 13.0046 2.31686 70.3608
465 1 14.6355 3.84488 69.1535
466 2 15.2128 2.37854 67.0108
467 1 1.89268 2.52087 68.8856
468 1 13.6738 4.5188 66.1768
469 1 15.8959 3.33161 64.8302
470 2 8.85821 0.337292 62.4812
471 2 7.23677 1.12958 57.3629
472 1 13.3682 3.98194 56.713
473 1 4.49535 2.61732 68.4463
474 1 0.743217 0.457819 65.392
475 1 13.2091 0.775576 61.1021
476 1 13.8237 0.295277 58.4363
477 2 1.03785 0.113373 57.5143
478 1 14.2595 1.48618 56.1113
479 2 5.31058 2.57455 65.626
480 1 2.6046 2.27289 66.3595
481 1 3.2357 3.56674 64.1968
482 2 15.0646 1.43686 62.8998
483 1 0.593135 0.691984 60.181
484 2 16.4156 4.44228 62.538
485 1 14.7386 3.17585 60.8362
486 1 15.4687 2.77251 58.1196
487 1 2.24027 2.48797 61.625
488 1 3.09292 2.26101 58.9093
489 1 15.7845 5.46236 57.3748
490 1 16.4772 4.28129 71.0347
491 1 11.5883 5.46905 64.1629
492 2 3.67951 3.18653 70.9789
493 1 3.36165 5.02709 68.9925
494 1 7.02581 4.02546 67.1752
495 1 6.3124 4.5031 69.9194
496 1 4.12172 4.7481 66.4346
497 1 3.71629 5.04602 61.7324
498 1 4.52787 4.67647 59.1538
499 1 17.1386 4.59193 59.8937
500 2 2.77677 4.20372 57.0596
501 1 7.90331 2.63017 61.9914
502 1 5.69563 3.98218 63.2612
503 1 5.19122 2.45624 60.8742
504 1 7.13599 3.21261 59.0483
505 2 6.38291 4.66314 61.0113
506 1 12.122 4.57657 69.9109
507 1 9.05684 4.18258 65.2387
508 1 9.35283 4.51027 69.0016
509 1 11.1128 5.12989 66.9263
510 2 10.2917 4.04078 62.6527
511 1 9.06711 4.75481 60.3201
512 1 5.162 2.70008 57.0402
513 2 8.67401 4.93489 57.6928
514 1 12.1913 4.80248 61.0279
515 2 13.7046 4.95317 59.0547
516 1 8.03363 2.92755 55.9492
517 1 5.2881 0.0924608 56.0649
518 1 4.04809 5.75448 55.3323
519 2 3.52034 4.9893 52.942
520 1 5.15524 4.98201 50.9576
521 1 8.22463 0.42526 51.1377
522 1 8.17249 4.98064 51.8709
523 2 7.08608 5.67342 49.3275
524 1 6.29264 4.75011 44.9327
525 1 8.24408 5.3518 42.679
526 1 8.27516 5.53906 46.8243
527 1 5.44049 5.50516 42.0145
528 1 10.2066 6.37967 53.1813
529 2 10.9944 4.95956 51.0189
530 1 12.836 5.13121 52.9991
531 1 5.38073 0.311805 50.1837
532 1 11.4402 5.83195 48.7058
533 1 5.47557 -0.0435329 40.3701
534 1 15.6411 5.26898 52.3143
535 2 16.2548 5.16344 49.5328
536 1 13.5757 4.6857 50.3822
537 1 14.1554 5.98795 48.1077
538 2 8.18343 0.429806 46.562
539 1 10.4317 5.86434 44.8258
540 1 11.162 5.40747 42.3628
541 1 13.4394 5.10375 45.6061
542 1 14.1744 4.80348 43.0016
543 1 8.02328 0.292792 55.0605
544 1 3.1393 1.36852 48.0585
545 2 14.4864 5.70356 54.9363
546 2 12.4067 2.86014 54.5143
547 1 10.3021 1.00836 53.1736
548 1 14.0064 0.0202564 51.2046
549 1 13.2475 0.537535 53.781
550 1 12.9136 2.35685 51.8027
551 1 11.0542 0.595702 50.634
552 1 10.813 1.23752 45.6878
553 1 11.5263 0.608026 43.1206
554 1 8.79152 0.440877 43.7302
555 2 13.8709 6.62435 41.0829
556 1 1.56506 1.63093 55.4252
557 1 15.4582 2.34715 51.0041
558 1 14.9218 2.94589 53.7964
559 2 13.7378 1.77502 49.2396
560 1 12.8834 2.71932 46.7534
561 1 3.80668 3.1183 54.7434
562 1 4.76008 2.40368 52.2068
563 1 3.72396 5.25677 45.6613
564 1 16.8947 6.68772 47.4231
565 1 15.2652 1.35443 46.8486
566 1 16.2829 5.23276 45.0312
567 1 17.9496 5.8561 43.0465
568 2 13.4664 0.734362 45.1143
569 1 3.63987 0.39553 53.8785
570 1 17.8356 3.95461 50.9213
571 2 2.0375 2.54482 53.0612
572 1 0.614756 0.0569785 48.9608
573 1 0.956176 0.41731 53.0276
574 1 2.72353 1.00938 50.9215
575 2 1.85657 -0.153559 46.5548
576 1 0.753879 0.808431 43.9836
577 1 2.21031 2.57645 45.772
578 1 15.5705 3.9888 47.3829
579 1 16.1486 5.26435 41.0505
580 1 13.848 2.12352 43.0528
581 2 15.7199 1.05645 41.4362
582 1 16.5844 3.36013 43.0688
583 2 15.0075 3.11674 45.0503
584 1 14.6689 3.10813 40.8018
585 1 6.0906 1.28062 47.8148
586 1 3.82213 0.699069 44.7285
587 1 5.09968 2.81785 40.9472
588 1 3.04207 1.06083 41.4963
589 2 5.49259 0.86963 42.6834
590 1 13.2889 0.985111 40.7034
591 1 16.8528 4.64497 54.7778
592 1 6.19084 4.52027 53.8086
593 2 5.84919 1.90936 54.5639
594 2 4.48986 2.7328 49.699
595 1 2.82417 4.26002 48.1217
596 1 10.5315 4.06953 55.8713
597 1 7.81769 2.41646 53.1831
598 2 9.48882 2.74856 51.2638
599 1 6.9992 3.00213 50.093
600 1 8.93628 1.5383 48.8116
601 1 5.91731 4.21718 47.7311
602 1 9.24909 4.23664 49.1697
603 2 6.95257 3.22697 42.8067
604 1 4.08986 3.28669 43.5681
605 1 6.5582 1.8465 44.781
606 1 7.5648 3.99631 40.342
607 1 10.5788 3.63011 53.2181
608 2 8.68341 4.76897 54.4217
609 2 4.53256 2.87182 46.2825
610 2 2.84816 3.85017 41.0034
611 1 11.5279 3.03625 49.393
612 1 8.78433 3.39166 44.9409
613 1 9.47628 2.78819 42.4451
614 2 12.0839 3.07419 41.4544
615 1 10.249 4.23578 40.214
616 2 10.7853 3.9154 46.8507
617 1 11.6126 3.37471 44.2153
618 1 7.66032 1.29564 41.1575
ITEM: TIMESTEP
2100
ITEM: NUMBER OF ATOMS
618
ITEM: BOX BOUNDS xy xz yz pp pp ff
0.0000000000000000e+00 1.9317770367296919e+01 4.0025167278329121e+00
0.0000000000000000e+00 6.6702723500479264e+00 0.0000000000000000e+00
0.0000000000000000e+00 1.0921147561319708e+02 0.0000000000000000e+00
ITEM: ATOMS id type x y z
1 1 4.81191 5.64837 5.9571
2 1 6.55198 6.09628 8.37737
3 1 4.71114 6.0804 13.0885
4 1 5.77494 0.228698 5.7833
5 1 8.06384 6.65481 10.7457
6 1 6.43318 6.23003 15.3038
7 1 4.90521 5.92587 20.0058
8 1 12.4212 5.812 5.86934
9 1 7.53863 0.580172 8.18065
10 1 5.85421 0.347275 13.0333
11 1 4.18036 -0.0494159 17.6369
12 1 6.7334 6.25666 22.4622
13 1 4.9757 5.9077 27.1627
14 1 10.8469 1.13764 5.91294
15 1 14.2566 6.13442 8.16758
16 1 9.01686 0.892729 10.6168
17 1 12.4106 6.04929 13.0983
18 1 7.5034 0.67379 15.4404
19 1 5.74758 0.395491 20.0149
20 1 8.16924 6.80893 24.7971
21 1 6.50007 6.3517 29.3694
22 1 4.6827 6.08519 34.1175
23 1 13.4712 0.160743 5.80647
24 1 13.0597 2.94803 5.69515
25 1 12.4505 1.39443 8.40005
26 1 15.7793 6.58686 10.5831
27 1 11.3496 2.81251 10.6895
28 1 10.707 1.14847 12.8837
29 1 14.1538 6.32622 15.3221
30 1 9.12448 0.798768 17.7495
31 1 12.6054 6.02525 20.0808
32 1 7.3646 0.665042 22.3155
33 1 5.76004 0.332332 26.9881
34 1 8.18818 6.64651 31.5983
35 1 6.57853 6.18783 36.4398
36 1 15.8842 1.87857 5.71619
37 1 15.3632 0.446341 8.38535
38 1 14.5793 3.21638 8.29228
39 1 14.0764 1.84865 10.797
40 1 13.3706 0.238518 12.9226
41 1 12.7618 3.10636 12.9182
42 1 12.4027 1.52807 15.2613
43 1 11.8935 -0.168611 17.7727
44 1 11.444 2.71317 17.584
45 1 10.7204 1.21616 20.0882
46 1 13.9425 6.28877 22.4141
47 1 9.08663 0.841053 24.6235
48 1 12.5058 5.72734 26.9364
49 1 7.42829 0.513217 29.3497
50 1 5.80694 0.0474423 33.8722
51 1 7.85927 6.12726 38.6344
52 1 3.01911 0.935843 5.8121
53 1 2.66268 3.88167 5.82905
54 1 1.95389 2.35616 8.46309
55 1 1.41232 0.798187 10.7651
56 1 16.3634 3.7716 10.7513
57 1 15.6645 2.17419 13.1334
58 1 15.0462 0.703513 15.4426
59 1 14.6085 3.50902 15.2544
60 1 14.128 1.92517 17.7608
61 1 13.4669 0.356359 20.1695
62 1 13.1293 3.2461 19.9305
63 1 12.3848 1.51892 22.4606
64 1 15.7115 6.4539 24.8211
65 1 11.2831 2.70735 24.7132
66 1 10.6616 1.03233 27.0015
67 1 14.1371 6.14394 29.2928
68 1 9.1364 0.995592 31.5157
69 1 12.5427 5.99427 33.7374
70 1 7.43141 0.597303 36.3787
71 1 5.36877 2.87996 5.85068
72 1 4.67983 1.37367 8.34628
73 1 4.19623 4.33759 8.37896
74 1 3.69552 2.78513 10.63
75 1 3.07317 1.22231 13.0971
76 1 2.62808 4.02694 12.9846
77 1 2.03763 2.5 15.3636
78 1 1.49641 0.735102 17.7511
79 1 16.2685 3.67372 17.6335
80 1 15.8217 2.26879 19.9994
81 1 15.083 0.509626 22.286
82 1 14.8121 3.36734 22.357
83 1 14.1029 1.70939 24.6284
84 1 13.5793 0.0467694 27.0457
85 1 12.9585 2.90257 27.0065
86 1 12.5036 1.36218 29.0999
87 1 15.8388 6.64602 31.4564
88 1 11.3032 2.78403 31.6681
89 1 10.7586 1.16827 33.9838
90 1 14.0802 6.29015 36.2236
91 1 8.9504 0.653969 38.67
92 1 7.93869 2.07131 5.64472
93 1 7.48092 4.8378 5.78597
94 1 6.96007 3.40707 8.39444
95 1 6.41387 1.70446 10.6212
96 1 5.98719 4.6985 10.7228
97 1 5.36613 3.07442 12.8755
98 1 4.66801 1.56307 15.3225
99 1 4.19803 4.57873 15.292
100 1 3.64717 2.84897 17.537
101 1 2.96759 1.19543 20.0364
102 1 2.67647 4.02213 19.9718
103 1 2.14165 2.51588 22.458
104 1 1.42747 0.996367 24.6925
105 1 16.4011 3.75917 24.6946
106 1 15.7409 2.04448 27.0492
107 1 15.106 0.557337 29.4124
108 1 14.4708 3.26741 29.3649
109 1 14.1104 1.75247 31.6065
110 1 17.2615 6.91758 33.9854
111 1 13.0125 3.12897 34.0197
112 1 12.3067 1.3791 36.365
113 1 15.5372 6.59743 38.8173
114 1 11.7564 2.68469 38.8538
115 1 10.2465 3.95311 5.76913
116 1 9.57684 2.36825 8.2486
117 1 9.13395 5.2213 8.34557
118 1 8.63305 3.73678 10.6079
119 1 8.11787 2.17599 12.9828
120 1 7.36054 5.10843 13.0081
121 1 7.02272 3.48991 15.2271
122 1 6.5139 1.84294 17.6086
123 1 5.90755 4.62552 17.5238
124 1 5.33105 3.09272 19.9085
125 1 4.69916 1.57907 22.279
126 1 4.51944 4.47373 22.21
127 1 3.77971 2.89341 24.6538
128 1 3.05521 1.18593 27.2014
129 1 2.63262 4.02053 26.9584
130 1 2.10202 2.51504 29.2781
131 1 1.50728 0.863985 31.7307
132 1 16.0992 3.72796 31.738
133 1 15.5951 2.0512 33.9878
134 1 15.1268 0.51772 36.4065
135 1 14.5756 3.31208 36.2344
136 1 14.0738 1.56581 38.3887
137 1 11.8447 4.22876 8.40582
138 1 10.9238 5.46003 10.5996
139 1 10.1284 4.09492 13.1083
140 1 9.68117 2.40938 15.4665
141 1 9.33566 5.34367 15.288
142 1 8.6391 3.8431 17.6628
143 1 8.17111 2.3071 19.8845
144 1 7.44706 5.13709 19.8776
145 1 7.03119 3.35411 22.2459
146 1 6.50889 1.93528 24.7133
147 1 5.93165 4.98411 24.6518
148 1 5.2944 3.2665 27.0279
149 1 4.79162 1.61255 29.4165
150 1 4.28484 4.35472 29.3969
151 1 3.64374 2.86446 31.803
152 1 3.01832 1.02526 33.8178
153 1 2.45289 4.09284 34.0562
154 1 2.04786 2.42487 36.105
155 1 1.48549 0.90081 38.9568
156 1 16.3459 3.76778 38.8246
157 1 15.205 4.90958 5.78431
158 1 13.747 4.65575 10.6619
159 1 11.9521 4.35331 15.3305
160 1 10.8381 5.64309 17.7106
161 1 10.4257 4.20223 19.9424
162 1 9.65981 2.57358 22.3758
163 1 9.276 5.5466 22.4657
164 1 8.55679 3.79743 24.7411
165 1 8.17968 2.04163 27.1196
166 1 7.52132 5.06173 27.0098
167 1 7.03753 3.61049 29.2659
168 1 6.35251 1.87283 31.766
169 1 5.92079 4.73341 31.6049
170 1 5.26619 3.17454 33.9907
171 1 4.58704 1.40756 36.05
172 1 4.19473 4.27436 36.4384
173 1 3.64082 2.59767 38.898
174 1 16.8311 5.16997 8.17822
175 1 15.1798 4.91336 13.0503
176 1 13.5579 4.60575 17.5516
177 1 11.87 4.40149 22.4256
178 1 10.8835 5.63238 24.6424
179 1 10.2788 4.00979 27.1104
180 1 9.6964 2.41249 29.3167
181 1 9.25045 5.33501 29.4168
182 1 8.54432 3.69312 31.6338
183 1 8.0488 2.14877 33.9197
184 1 7.4738 4.97063 33.8298
185 1 6.97728 3.29278 36.1241
186 1 6.33283 1.92989 38.6984
187 1 5.38117 4.67293 38.971
188 1 18.4725 5.63115 10.7237
189 1 16.8772 5.31784 15.3882
190 1 15.3116 4.9153 20.1157
191 1 13.5237 4.43003 24.6645
192 1 11.6492 4.27573 29.3842
193 1 10.9669 5.61203 31.5933
194 1 10.3303 4.045 33.9287
195 1 9.83706 2.28828 36.2449
196 1 9.18375 5.17643 36.2152
197 1 8.87243 3.36897 38.2996
198 1 18.5176 5.71469 17.656
199 1 16.7915 5.30114 22.522
200 1 15.0718 4.73545 27.0016
201 1 13.598 4.56311 31.5356
202 1 11.927 4.33003 36.3006
203 1 10.998 5.4678 38.4387
204 1 18.5498 5.69127 24.6468
205 1 16.9218 5.20481 29.1273
206 1 15.2108 5.04806 34.0491
207 1 13.7615 4.72609 38.7864
208 1 18.2424 5.61784 31.6493
209 1 16.8766 5.22565 36.3737
210 1 18.3218 5.48668 38.8341
211 2 14.0681 1.29145 102.299
212 1 14.7431 1.10176 99.6776
213 1 3.09971 0.434952 103.276
214 1 2.02501 1.0213 99.0521
215 1 1.28791 1.70003 101.616
216 2 15.5298 0.662485 96.9548
217 1 14.5796 1.40871 94.6098
218 1 5.51007 1.82429 102.716
219 1 6.46204 1.36978 100.144
220 1 1.46095 0.0467748 94.7401
221 1 4.19277 2.48086 98.7371
222 2 3.97619 1.25132 100.956
223 1 3.66043 1.45454 93.7428
224 1 1.66455 2.85389 95.2363
225 1 15.416 0.96506 90.7984
226 1 2.9768 2.00074 90.8979
227 2 1.21445 2.00432 92.8737
228 1 15.8982 1.24567 88.2349
229 1 7.94431 0.302546 95.7111
230 1 6.87755 1.45573 89.0542
231 1 8.71836 6.62702 90.2718
232 1 11.7013 4.72237 103.359
233 1 3.22492 3.26437 102.612
234 1 7.97156 3.14409 102.113
235 1 5.7735 4.58858 103.31
236 2 7.80982 0.507834 102.254
237 2 5.28401 3.60272 100.856
238 1 6.64727 3.73853 98.6082
239 2 6.2136 1.54462 97.382
240 1 4.54091 2.99058 96.1211
241 1 12.2623 1.95784 103.399
242 1 9.97989 1.42297 101.389
243 1 13.6346 6.31049 99.0214
244 2 11.1448 1.54511 99.0583
245 1 9.73809 3.8511 99.9696
246 1 8.54539 1.97718 98.1779
247 1 10.4798 0.63645 96.756
248 1 7.48946 3.12274 95.8204
249 1 10.9323 3.27095 97.2389
250 2 8.83478 4.61285 97.3947
251 1 8.04361 3.545 93.0526
252 2 8.52018 2.05643 90.9576
253 1 9.95064 4.14631 91.1292
254 1 5.88557 2.02362 91.625
255 1 8.31688 0.598019 93.0808
256 1 10.151 4.23605 94.8613
257 1 7.0592 4.18188 90.2023
258 1 9.32652 2.81778 88.7128
259 1 12.5524 2.55047 100.623
260 2 10.5757 3.38931 102.341
261 1 11.9915 5.19627 100.784
262 2 12.8856 3.91292 98.5746
263 1 14.6954 4.24628 100.374
264 1 10.9839 5.85585 98.1575
265 1 13.2942 4.57767 96.2676
266 2 6.23947 1.68425 94.2394
267 2 4.81729 2.88116 89.2579
268 1 10.6714 5.43449 88.5632
269 1 17.4705 3.97442 99.8663
270 1 13.2109 1.9108 97.1889
271 1 10.5936 2.04646 92.8838
272 1 11.1967 1.54598 90.2948
273 2 13.8966 2.28664 89.4258
274 1 11.8925 3.12847 87.9946
275 2 2.58715 3.97124 97.4498
276 1 15.5023 3.42402 97.8864
277 1 16.0488 5.24348 95.9158
278 2 12.1783 2.42115 94.9034
279 1 13.2487 2.23882 92.217
280 2 14.1365 6.49319 94.4109
281 1 12.0843 4.58308 92.966
282 1 12.668 4.31404 90.3499
283 1 14.8216 3.99385 93.6277
284 1 15.771 3.68022 91.0774
285 1 9.17158 0.026671 89.0912
286 1 14.1119 5.92044 102.755
287 1 4.96561 0.0840401 95.949
288 2 16.3163 4.35567 102.302
289 1 16.2655 6.5641 100.878
290 1 4.47038 5.27447 99.054
291 1 3.82423 5.7988 101.629
292 1 16.6698 6.13251 98.4004
293 1 12.5655 -0.0727696 93.6255
294 1 17.1763 6.18755 90.8909
295 1 14.4675 6.0517 91.7049
296 2 15.409 5.53944 89.0141
297 1 5.39172 3.96531 93.6063
298 1 18.6702 5.26207 95.2358
299 1 2.50609 4.06989 92.8862
300 1 4.37563 4.73244 90.83
301 2 3.74703 6.38417 92.8369
302 1 9.42465 5.78669 102.06
303 1 6.41511 5.80825 96.9118
304 1 6.74848 5.65159 100.928
305 1 8.5655 6.53363 98.8236
306 2 7.51051 5.40317 94.5161
307 1 6.40671 6.22901 92.1413
308 1 2.28971 3.80658 88.954
309 2 6.09221 6.55162 89.5468
310 1 9.51834 6.30666 93.1531
311 2 11.2069 6.35684 91.018
312 1 4.88321 5.10573 88.0337
313 1 3.53681 1.40202 87.9221
314 1 13.2937 1.08897 87.2195
315 2 12.4044 0.104977 84.817
316 1 13.8865 0.327327 82.5948
317 1 5.73869 2.55446 83.1829
318 1 1.95225 0.141078 83.6791
319 2 0.514309 0.794244 81.2572
320 1 18.8384 6.37751 77.0522
321 1 1.42593 0.430985 75.1447
322 1 1.46383 0.0578825 78.9845
323 1 14.0743 0.145404 74.139
324 1 3.85188 1.84239 85.1408
325 2 4.59111 0.276853 83.0361
326 1 6.64333 0.405166 85.0722
327 1 2.75337 2.36686 82.0886
328 1 5.00826 1.32291 80.7301
329 1 2.3745 1.53514 72.7505
330 1 9.27437 0.464124 84.2555
331 2 9.49563 -0.129406 81.4085
332 1 7.05684 0.0708727 82.2578
333 1 7.48488 1.12476 79.8868
334 2 5.52561 2.41668 78.4524
335 1 3.52945 0.649683 77.0584
336 1 4.43241 0.33524 74.2762
337 1 6.34538 0.140554 77.5949
338 1 11.2974 6.45247 74.944
339 1 6.11663 2.77182 86.9552
340 1 16.5328 2.74889 79.9067
341 2 8.45202 1.04405 86.8613
342 2 9.76702 4.16171 86.4877
343 1 8.04949 2.84793 84.898
344 1 11.5836 1.82552 82.7786
345 1 11.0686 2.26771 85.5525
346 1 10.3998 4.23227 83.7599
347 1 8.63216 2.47616 82.1402
348 1 8.10247 2.51322 77.7699
349 1 8.79547 2.18969 75.1428
350 1 6.02338 2.19395 75.866
351 2 7.11594 1.71871 73.1858
352 1 14.4404 3.63134 87.2162
353 1 13.0232 4.5149 83.1249
354 1 12.3479 4.99233 85.7187
355 2 11.3298 3.80449 80.9838
356 1 10.0732 4.19206 78.6471
357 1 16.7491 5.08487 86.7169
358 1 17.793 4.49758 84.0801
359 1 12.3072 0.199413 77.6911
360 1 10.1139 1.4087 79.3454
361 1 12.3629 2.84955 78.7618
362 1 9.49488 0.105854 76.7819
363 1 11.4586 0.849564 74.9634
364 2 10.7719 2.28111 76.9553
365 1 1.34713 2.48139 85.8769
366 1 15.3302 5.81515 82.8903
367 2 14.9639 4.41244 84.967
368 1 13.762 2.60904 80.8657
369 1 13.7795 2.26525 84.6654
370 1 15.5592 2.96973 82.8247
371 2 14.5718 1.69611 78.6
372 1 13.4632 2.39154 76.1795
373 1 14.6811 4.29672 77.7758
374 1 12.6119 5.54244 79.0279
375 1 9.48902 0.346912 73.1673
376 1 11.0934 3.61351 74.9061
377 2 13.0323 2.39901 73.5519
378 1 13.7803 4.78938 74.836
379 2 12.0707 4.69974 76.7976
380 1 11.0025 3.04061 72.2918
381 1 3.91152 3.76817 79.7569
382 1 16.4539 2.25637 77.0902
383 1 2.53959 4.17437 73.1717
384 1 15.5439 2.86939 74.2117
385 2 2.88345 2.46796 75.0034
386 1 12.2527 0.562027 71.871
387 1 14.5899 6.47727 86.6816
388 1 19.1454 6.54421 85.8209
389 2 3.40861 3.81457 86.6647
390 2 17.2779 4.59681 81.4471
391 1 15.3033 5.54557 80.1004
392 1 7.88739 5.2076 87.9209
393 1 5.42667 4.51137 85.0589
394 2 7.30731 4.62636 83.0341
395 1 4.4922 4.91956 82.2533
396 1 6.66303 3.81549 80.6298
397 1 17.9769 6.36495 79.9094
398 1 6.81768 6.4164 81.1711
399 2 4.16049 4.82931 75.1049
400 1 16.7994 4.76181 75.7916
401 1 3.82962 3.36213 77.0912
402 1 4.85794 5.77801 72.6593
403 1 8.13981 5.62516 85.2449
404 2 6.21075 6.67003 86.3648
405 2 17.1356 4.62897 78.3792
406 2 15.7529 5.37268 73.4012
407 1 9.12785 5.06046 81.2716
408 1 6.03615 4.88731 76.9659
409 1 6.75909 4.44311 74.4898
410 2 9.24298 4.4107 73.5117
411 1 7.44885 5.86834 72.0272
412 2 7.84124 5.40246 78.8306
413 1 8.82968 5.01918 76.2947
414 1 4.7544 2.89937 73.316
415 2 1.52535 0.432645 70.5637
416 1 5.87384 6.51371 67.7266
417 1 10.0452 5.70615 71.6085
418 1 8.51794 6.53751 67.0582
419 1 3.8555 0.431672 69.7453
420 2 6.66478 5.84177 65.0562
421 1 5.81788 6.77482 62.7361
422 1 8.17432 0.590951 70.9892
423 1 9.2 -0.00763345 68.2384
424 1 8.20471 5.35886 62.8147
425 1 6.95849 1.27511 66.9858
426 2 6.53802 -0.0984776 69.0868
427 1 6.47245 0.0923594 61.8222
428 1 4.4609 1.31624 63.5201
429 1 6.65308 6.12614 58.9305
430 1 5.42684 0.660762 58.8255
431 2 3.98909 0.32166 60.994
432 1 6.63265 5.84529 56.2308
433 1 14.4719 5.46071 63.7568
434 1 9.53056 0.13646 57.1756
435 1 11.2192 5.31976 58.2934
436 1 13.6513 4.16426 72.1791
437 1 5.84674 1.84359 70.8428
438 1 10.4841 1.90475 69.8128
439 1 8.32547 3.26111 71.3732
440 2 14.2133 6.09247 70.6867
441 2 7.97467 2.35637 69.1032
442 1 9.44763 2.39451 66.8457
443 2 8.92017 0.299092 65.621
444 1 7.12446 1.45371 64.2198
445 1 15.0988 1.57325 71.8278
446 1 16.1886 6.54143 69.0146
447 1 16.7024 4.70407 66.9958
448 2 13.9955 0.211037 67.0658
449 1 12.6166 2.39914 67.793
450 1 11.3729 0.458031 66.0249
451 1 17.5297 5.86889 64.4496
452 1 10.0851 1.77719 64.051
453 1 13.6244 1.90967 65.2754
454 2 11.4708 3.14998 65.4997
455 1 10.7362 2.05001 61.1928
456 2 11.2167 0.694739 59.037
457 1 12.5378 2.79744 59.1877
458 1 8.67908 0.592282 59.7672
459 1 14.8521 6.02467 61.1386
460 1 12.5893 2.80401 63.0554
461 1 9.86546 2.73532 58.2845
462 1 11.786 1.4397 56.5313
463 1 14.8185 1.30213 69.1937
464 2 13.0031 2.33474 70.3999
465 1 14.6448 4.04367 69.1394
466 2 15.3866 2.61065 67.0876
467 1 2.02626 2.65923 68.8865
468 1 13.7717 4.57095 66.2782
469 1 15.9843 3.19155 64.7435
470 2 8.88016 0.329259 62.5067
471 2 7.191 1.22788 57.3387
472 1 13.3154 4.04862 56.7853
473 1 4.71936 2.66356 68.3447
474 1 0.587611 0.510902 65.4136
475 1 13.148 0.568972 61.0811
476 1 13.7097 0.383868 58.4015
477 2 0.66312 0.18392 57.6527
478 1 14.3133 1.79619 56.0229
479 2 5.20141 2.64641 65.543
480 1 2.73622 2.05864 66.268
481 1 3.18874 3.49663 63.9969
482 2 15.0434 1.49102 62.9621
483 1 0.545451 0.76349 60.3127
484 2 16.4675 4.63071 62.463
485 1 14.7192 3.12084 60.9594
486 1 15.3808 2.8073 58.2614
487 1 2.40312 2.47657 61.5748
488 1 2.9957 2.11581 59.0369
489 1 15.7936 5.33422 57.2939
490 1 16.496 4.47803 70.9601
491 1 11.7301 5.42668 64.176
492 2 3.59905 3.01058 70.9084
493 1 3.42278 5.14583 69.0361
494 1 7.00635 3.98466 67.0686
495 1 6.13904 4.48269 69.9046
496 1 4.10391 4.70734 66.4902
497 1 3.68716 5.11957 61.7986
498 1 4.40344 4.69871 59.2761
499 1 17.0276 4.46754 59.8296
500 2 2.68352 3.94966 57.1329
501 1 8.00597 2.57792 61.9158
502 1 5.84823 3.84896 63.2706
503 1 5.18813 2.63261 60.8603
504 1 7.17421 3.32319 59.0708
505 2 6.53391 4.82243 61.0596
506 1 12.0019 4.44964 69.9385
507 1 9.04746 4.43887 65.107
508 1 9.21746 4.45593 68.9663
509 1 11.1222 5.15342 66.9508
510 2 10.1909 4.0909 62.7501
511 1 9.19532 4.82648 60.2632
512 1 5.16761 2.79919 57.2082
513 2 8.64954 4.97351 57.6388
514 1 12.2807 4.7856 61.1419
515 2 13.8581 5.00634 59.138
516 1 8.02987 3.07536 56.0411
517 1 5.31389 0.0461759 56.1473
518 1 3.85368 5.8421 55.3396
519 2 3.62432 4.82175 53.1279
520 1 5.19405 4.9947 51.027
521 1 8.28446 0.515828 51.0884
522 1 8.13719 4.96056 51.747
523 2 7.18186 5.74111 49.3893
524 1 6.27475 4.60628 45.0152
525 1 8.4616 5.16176 42.8644
526 1 8.28019 5.50158 46.8489
527 1 5.52805 5.24805 41.8042
528 1 10.2065 6.56301 53.1119
529 2 10.9778 5.01703 50.8945
530 1 12.8745 5.01228 52.9382
531 1 5.45418 0.457183 50.0693
532 1 11.7426 5.9595 48.5699
533 1 9.41702 6.58039 40.6612
534 1 15.5984 5.27798 52.2595
535 2 16.3605 5.34468 49.5194
536 1 13.6665 4.48357 50.1764
537 1 14.3 6.30644 47.952
538 2 8.16268 0.697818 46.3873
539 1 10.3501 5.86189 44.9542
540 1 11.3068 5.35573 42.525
541 1 13.522 5.14636 45.7067
542 1 14.0662 4.60966 43.0827
543 1 8.16175 0.229138 55.0534
544 1 3.32799 1.25913 48.0256
545 2 14.6136 5.79999 54.9737
546 2 12.4833 2.97311 54.4669
547 1 10.3155 1.00773 52.9828
548 1 14.011 -0.087994 51.1747
549 1 13.1905 0.340736 53.8294
550 1 12.7723 2.21851 51.7655
551 1 11.1413 0.624586 50.3779
552 1 10.9015 1.15972 45.711
553 1 11.7094 0.489967 43.1213
554 1 9.02274 0.26545 43.7494
555 2 13.7916 6.49223 41.0018
556 1 1.50006 1.54709 55.3599
557 1 15.4686 2.53546 50.9464
558 1 14.9137 2.78978 53.5834
559 2 13.8228 1.78994 49.0734
560 1 12.7734 2.7087 46.8122
561 1 3.82862 3.12668 54.9437
562 1 4.77262 2.41422 52.2138
563 1 3.80091 5.10079 45.8494
564 1 17.0888 6.49188 47.3611
565 1 15.1919 1.36792 46.8331
566 1 16.264 5.11675 44.9595
567 1 18.1971 5.65959 42.9813
568 2 13.5315 0.77959 45.0214
569 1 3.60307 0.449733 53.936
570 1 2.70181 3.81441 50.8531
571 2 2.20138 2.46213 53.0068
572 1 4.79044 6.80889 49.0989
573 1 0.817927 0.45705 52.8877
574 1 2.79721 0.877863 50.9316
575 2 5.90447 6.60766 46.6074
576 1 0.931791 0.568377 44.1978
577 1 2.17126 2.62135 45.8888
578 1 15.4595 3.91368 47.6269
579 1 16.034 5.02301 41.238
580 1 13.9176 1.9205 43.0003
581 2 15.8566 1.11182 41.4551
582 1 16.5625 3.14465 43.0809
583 2 14.9497 2.95236 45.1195
584 1 14.4836 3.05886 40.6087
585 1 6.25272 1.47401 47.7078
586 1 3.80356 0.644239 44.9557
587 1 5.28959 2.50701 41.0863
588 1 3.05582 0.86821 41.9157
589 2 5.47734 0.821521 43.0579
590 1 13.4265 0.709901 40.8335
591 1 16.8144 4.36541 54.7723
592 1 6.06292 4.4581 53.9721
593 2 5.96644 1.97886 54.7551
594 2 4.55289 2.78879 49.462
595 1 2.88387 4.07019 48.2172
596 1 10.7159 4.16392 55.8263
597 1 8.09864 2.44094 53.1773
598 2 9.43648 2.66467 50.8536
599 1 6.9014 3.08214 50.0888
600 1 8.90198 1.86086 48.5423
601 1 5.97942 4.26046 47.6967
602 1 9.32141 4.60795 49.1003
603 2 6.96721 3.14286 42.9817
604 1 4.18998 3.04035 43.5286
605 1 6.63514 1.80747 44.9857
606 1 7.63529 4.02868 40.5369
607 1 10.4854 3.76876 53.0322
608 2 8.53233 4.91894 54.4241
609 2 4.61905 2.86196 46.2527
610 2 2.9018 3.56169 41.0017
611 1 11.5069 3.07174 49.0725
612 1 8.85521 3.31633 44.9448
613 1 9.63141 2.72571 42.4938
614 2 12.1311 2.93291 41.5552
615 1 10.274 4.07021 40.4619
616 2 10.4896 3.94497 46.8162
617 1 11.5836 3.43046 44.4196
618 1 7.79915 1.21721 41.4033
ITEM: TIMESTEP
2200
ITEM: NUMBER OF ATOMS
618
ITEM: BOX BOUNDS xy xz yz pp pp ff
0.0000000000000000e+00 1.9317770367296919e+01 4.0025167278329121e+00
0.0000000000000000e+00 6.6702723500479264e+00 0.0000000000000000e+00
0.0000000000000000e+00 1.0921147561319708e+02 0.0000000000000000e+00
ITEM: ATOMS id type x y z
1 1 4.89137 5.82816 6.04221
2 1 6.41982 6.20344 8.5037
3 1 4.94958 5.80641 13.1087
4 1 5.91117 -0.0538994 5.81992
5 1 8.12077 6.43169 10.6802
6 1 6.49581 6.23781 15.4036
7 1 5.00578 6.02455 20.0479
8 1 12.7734 5.7195 5.67159
9 1 7.44467 0.442153 8.43583
10 1 5.76627 0.181724 13.0578
11 1 4.12066 -0.231277 17.7251
12 1 6.59346 6.41543 22.3276
13 1 4.84963 5.87731 26.9523
14 1 10.6987 1.02814 5.80094
15 1 14.1359 6.22611 8.35251
16 1 9.14199 0.924476 10.7041
17 1 12.5645 5.96225 12.8675
18 1 7.40188 0.468341 15.3209
19 1 5.9938 0.243725 19.9819
20 1 8.24826 6.50054 24.6354
21 1 6.46206 6.24221 29.2924
22 1 4.94922 5.87364 33.9946
23 1 13.4555 -0.128188 6.05074
24 1 13.0616 2.8685 6.00613
25 1 12.1562 1.37878 8.29927
26 1 15.7189 6.55391 10.7788
27 1 11.2904 2.80995 10.5926
28 1 10.7377 1.2858 13.0379
29 1 14.0893 6.24322 15.3899
30 1 9.0458 0.947081 17.5673
31 1 12.484 5.98245 19.9854
32 1 7.60719 0.529023 22.3823
33 1 5.80244 0.195888 27.105
34 1 8.00677 6.62347 31.8729
35 1 6.39986 6.134 36.304
36 1 15.6719 1.82912 6.24777
37 1 14.8595 0.364245 8.50145
38 1 14.7239 3.46961 8.36533
39 1 13.8155 1.77708 10.7501
40 1 13.4408 0.166651 13.0653
41 1 13.1075 3.0705 13.0492
42 1 12.3129 1.59112 15.4515
43 1 11.8082 -0.0797581 17.596
44 1 11.4242 2.96544 17.7438
45 1 10.7967 1.15568 19.9631
46 1 14.3808 6.32808 22.3088
47 1 9.0564 0.926549 24.7149
48 1 12.587 6.10611 27.0744
49 1 7.47482 0.501338 29.5015
50 1 5.66145 0.400333 34.0167
51 1 7.83316 6.55192 38.5783
52 1 3.1719 1.03043 6.11868
53 1 2.59018 3.81434 5.98563
54 1 2.05088 2.35861 8.46028
55 1 1.46934 0.861462 10.6368
56 1 16.1089 3.63193 10.7155
57 1 15.578 2.14798 12.9323
58 1 15.1813 0.249939 15.3614
59 1 14.5503 3.31491 15.5235
60 1 14.0193 1.75697 17.6476
61 1 13.5469 0.133745 20.0067
62 1 13.0281 3.12064 20.0568
63 1 12.4792 1.45325 22.3181
64 1 15.9067 6.60421 24.5079
65 1 11.4501 2.96929 24.6712
66 1 10.7378 1.32595 26.9702
67 1 14.1932 6.35858 29.3517
68 1 9.05603 0.824611 31.8074
69 1 12.5604 5.85211 34.2007
70 1 7.54772 0.419896 36.2778
71 1 5.27072 3.08425 5.99532
72 1 4.78603 1.45272 8.4562
73 1 4.32494 4.2692 8.50436
74 1 3.59065 2.69642 10.9145
75 1 2.97625 1.12129 13.0291
76 1 2.4439 4.04396 13.0698
77 1 1.95297 2.341 15.4107
78 1 1.35455 0.857104 17.6405
79 1 16.2278 3.73013 17.8625
80 1 15.6253 2.07622 20.0894
81 1 15.2368 0.615852 22.549
82 1 14.6061 3.48748 22.3804
83 1 14.0301 1.90661 24.7853
84 1 13.3216 0.265101 26.9806
85 1 12.9347 3.26142 26.9318
86 1 12.3392 1.59874 29.5166
87 1 15.7976 6.49817 31.8752
88 1 11.2671 2.95075 31.6371
89 1 10.7832 1.10419 34.1109
90 1 14.2151 6.31681 36.5745
91 1 9.0041 0.767291 38.9111
92 1 8.06146 2.0014 6.08046
93 1 7.55903 4.84666 6.0972
94 1 7.06653 3.31811 8.3386
95 1 6.36285 1.99892 10.8023
96 1 5.811 4.67644 10.7668
97 1 5.30091 3.04631 13.1784
98 1 4.68585 1.3702 15.4277
99 1 4.18125 4.13304 15.6203
100 1 3.61079 2.68881 17.8392
101 1 3.30173 1.18936 20.0925
102 1 2.66077 3.98438 20.1286
103 1 1.99206 2.56504 22.4219
104 1 1.58277 0.790524 24.7375
105 1 16.2392 3.68599 24.7164
106 1 15.76 2.21571 26.9757
107 1 14.9171 0.665989 29.2099
108 1 14.7012 3.3867 29.345
109 1 14.0095 1.87626 31.725
110 1 17.5891 6.89917 34.0266
111 1 12.9651 3.05555 34.0202
112 1 12.3847 1.55633 36.3972
113 1 15.5805 6.30714 38.8793
114 1 11.7226 2.40612 39.0096
115 1 10.3703 3.84344 5.87249
116 1 9.71875 2.41426 8.32524
117 1 9.22331 5.22539 8.4186
118 1 8.57987 3.72592 10.6637
119 1 7.9633 2.08803 12.968
120 1 7.68055 4.92629 13.0478
121 1 6.88428 3.41179 15.508
122 1 6.38734 1.76517 17.6896
123 1 6.03415 4.6784 17.7867
124 1 5.4189 3.18848 20.1912
125 1 4.98082 1.54248 22.4384
126 1 4.16858 4.29918 22.5444
127 1 3.64748 2.67761 24.7891
128 1 3.15427 1.16353 27.0134
129 1 2.62471 4.07356 27.085
130 1 1.92731 2.35923 29.343
131 1 1.36441 1.00686 31.6742
132 1 16.3262 3.75935 31.7185
133 1 15.7479 2.15803 34.0678
134 1 15.0075 0.490302 36.2018
135 1 14.6061 3.22907 36.2525
136 1 14.1943 1.66873 38.4937
137 1 11.9659 4.37611 8.14819
138 1 10.7683 5.68325 10.7023
139 1 10.5415 4.07609 12.9258
140 1 9.64771 2.59984 15.2012
141 1 9.04373 5.22999 15.3972
142 1 8.74224 3.65925 17.6496
143 1 8.06358 2.0742 20.0572
144 1 7.70387 5.00479 20.0604
145 1 7.09201 3.72002 22.4398
146 1 6.37839 1.725 24.7093
147 1 6.08888 4.56073 24.9365
148 1 5.34018 3.10378 27.131
149 1 4.59424 1.48574 29.3415
150 1 4.21625 4.39428 29.2716
151 1 3.70475 2.59418 31.6105
152 1 3.09684 1.36678 34.1365
153 1 2.6612 3.98126 34.1021
154 1 2.03273 2.39525 36.451
155 1 1.20294 0.548598 38.8259
156 1 16.3899 3.43053 38.9324
157 1 15.4666 4.72924 6.03308
158 1 13.357 4.53155 10.6234
159 1 11.9097 4.32662 15.3659
160 1 10.8986 5.58982 17.5763
161 1 10.3634 3.89621 19.9693
162 1 9.79323 2.47533 22.3521
163 1 9.36706 5.35805 22.3816
164 1 8.79646 3.73801 24.6412
165 1 8.03409 2.31865 26.918
166 1 7.59219 4.99497 27.1343
167 1 6.92674 3.45106 29.5196
168 1 6.35906 1.83704 31.5966
169 1 5.9277 4.61507 31.7532
170 1 5.3151 3.04834 34.0309
171 1 4.76839 1.49864 36.461
172 1 4.22782 4.40716 36.5277
173 1 3.61424 2.72647 38.7048
174 1 16.7023 5.22983 8.62541
175 1 15.192 5.10834 13.0484
176 1 13.6834 4.55677 17.7813
177 1 11.9813 4.49748 22.3281
178 1 10.9965 5.74168 24.6746
179 1 10.2996 4.03979 27.0513
180 1 9.65876 2.63747 29.323
181 1 9.18958 5.30539 29.3939
182 1 8.68163 3.81856 31.6845
183 1 7.98535 2.10969 34.0086
184 1 7.56176 4.98291 34.0891
185 1 6.98056 3.4031 36.6428
186 1 6.4868 1.68555 38.8726
187 1 5.79828 4.59383 39.0663
188 1 18.4219 5.55855 10.8236
189 1 16.8134 5.14532 15.4111
190 1 15.1211 4.99537 20.103
191 1 13.5305 4.95586 24.6758
192 1 12.0938 4.44316 29.2835
193 1 10.7359 5.60458 31.6326
194 1 10.2105 4.1332 33.9691
195 1 9.57207 2.47762 36.1256
196 1 9.0629 5.33113 36.2403
197 1 9.02843 3.56466 38.3221
198 1 18.4984 5.36538 17.7118
199 1 16.9911 5.35356 22.3534
200 1 15.2915 5.24127 26.8802
201 1 13.4803 4.74379 31.8015
202 1 11.8525 4.18469 36.3747
203 1 10.869 5.59022 38.5219
204 1 18.5415 5.58245 24.762
205 1 16.8318 5.51082 29.4488
206 1 15.1779 4.93058 34.0281
207 1 13.4396 4.60051 38.9059
208 1 18.594 5.69343 31.7023
209 1 16.8249 5.13719 36.2324
210 1 18.2933 5.33017 38.9804
211 2 14.1365 1.36344 102.115
212 1 14.5095 1.06467 99.4959
213 1 3.2169 0.547404 103.221
214 1 1.9367 1.17548 98.7574
215 1 1.23804 1.68311 101.443
216 2 15.5879 0.613991 96.8601
217 1 14.6779 1.42803 94.5731
218 1 5.63887 1.79122 102.853
219 1 6.28825 1.30127 100.182
220 1 1.61502 0.194938 94.688
221 1 4.24268 2.69349 98.9363
222 2 3.79515 1.30897 100.949
223 1 3.80989 1.48623 93.7977
224 1 1.9584 2.83511 95.134
225 1 15.4198 0.772041 90.6778
226 1 2.82377 1.96469 90.7133
227 2 1.12384 1.82266 92.8053
228 1 15.9578 1.47781 88.1239
229 1 8.10931 0.515124 95.5786
230 1 6.64704 1.45073 89.0312
231 1 8.55326 6.63731 90.0975
232 1 11.5476 4.8928 103.339
233 1 3.27381 3.35523 102.356
234 1 7.87188 3.09448 101.994
235 1 5.82452 4.54202 103.313
236 2 7.81345 0.571762 102.276
237 2 5.40973 3.6688 101.104
238 1 6.953 3.82444 98.8285
239 2 6.2323 1.71055 97.6893
240 1 4.43301 2.96611 96.118
241 1 12.3901 1.90878 103.369
242 1 9.85312 1.61762 101.389
243 1 13.9054 6.15889 98.9539
244 2 11.2256 1.62853 98.9079
245 1 9.72752 3.90802 99.6848
246 1 8.70607 1.85534 97.9233
247 1 10.776 0.675084 96.5974
248 1 7.32826 3.12053 95.8659
249 1 10.976 3.39946 96.9961
250 2 8.86789 4.55663 97.2035
251 1 7.92721 3.52686 92.9558
252 2 8.57096 1.97901 90.9916
253 1 9.80724 4.22702 91.0612
254 1 5.83309 1.8799 91.6805
255 1 8.14041 0.64334 93.03
256 1 9.93342 4.17812 94.7757
257 1 7.01436 4.09892 89.9631
258 1 9.05754 2.94263 88.659
259 1 12.3354 2.65004 100.698
260 2 10.3901 3.59236 102.231
261 1 11.9955 5.26516 100.708
262 2 12.8651 3.98843 98.5753
263 1 14.7256 3.82982 100.464
264 1 11.0551 5.95149 98.0919
265 1 13.2657 4.67505 96.2521
266 2 6.20967 1.67955 94.3323
267 2 4.71946 3.00007 89.1803
268 1 10.4966 5.53725 88.4887
269 1 17.3957 4.19682 99.8638
270 1 13.3028 1.90374 97.0604
271 1 10.5473 2.01991 92.7598
272 1 11.2431 1.80778 90.1322
273 2 13.9002 2.28327 89.3019
274 1 11.7311 3.36564 87.9116
275 2 2.7299 4.07135 97.2553
276 1 15.4399 3.39737 97.7859
277 1 15.884 5.09364 95.8081
278 2 12.0647 2.49 94.7431
279 1 13.3202 2.21695 92.1339
280 2 13.9391 6.41012 94.3104
281 1 12.036 4.52725 92.8504
282 1 12.6505 4.31933 90.3333
283 1 14.8932 3.92921 93.6837
284 1 15.6025 3.53848 91.0451
285 1 9.12869 0.193005 89.1901
286 1 14.2052 5.77255 102.592
287 1 5.06909 0.111161 96.0553
288 2 16.4656 4.42777 102.523
289 1 16.1105 6.61217 100.691
290 1 4.46621 5.35619 99.0944
291 1 3.9984 5.92344 101.644
292 1 16.6394 6.08499 98.1508
293 1 12.4653 -0.0398777 93.5421
294 1 17.1154 6.07745 90.9257
295 1 14.4928 6.06273 91.6517
296 2 15.4192 5.5821 88.9766
297 1 5.40107 4.22848 93.8515
298 1 18.4769 5.4134 95.0852
299 1 2.61339 3.84591 92.6637
300 1 4.46672 4.79714 90.7098
301 2 3.77009 6.13601 92.8679
302 1 9.32592 5.93429 102.023
303 1 6.29706 5.47406 96.7936
304 1 6.82983 5.69846 100.852
305 1 8.45264 6.54283 98.7351
306 2 7.6283 5.54825 94.489
307 1 6.54957 6.12958 92.0902
308 1 2.41673 4.02312 88.9371
309 2 6.05235 6.56731 89.4614
310 1 9.48618 6.16383 93.0251
311 2 11.1221 6.35492 90.9235
312 1 4.80153 5.20976 87.8933
313 1 3.45855 1.39388 87.8805
314 1 12.8882 1.03887 87.1762
315 2 12.3507 0.0998772 84.8284
316 1 14.0829 0.317276 82.8653
317 1 5.82422 2.43414 83.0466
318 1 1.7976 0.314209 83.6422
319 2 0.785124 1.01619 81.3511
320 1 18.917 6.267 76.9598
321 1 1.59393 0.310641 75.103
322 1 1.45769 0.171549 78.8955
323 1 14.0227 0.135368 74.0802
324 1 3.88534 1.77366 84.9693
325 2 4.4168 0.333107 82.9105
326 1 6.41096 0.50755 84.9637
327 1 3.06362 2.48603 82.1698
328 1 5.01907 1.11964 80.6185
329 1 2.42134 1.44349 72.6673
330 1 9.0561 0.407252 84.2671
331 2 9.36511 -0.263428 81.4524
332 1 6.92899 -0.132962 82.356
333 1 7.59113 1.14592 79.9716
334 2 5.69995 2.54931 78.444
335 1 3.81549 0.757913 76.9192
336 1 4.4215 0.272957 74.1637
337 1 6.6405 0.142439 77.5606
338 1 11.2611 6.26599 74.9085
339 1 5.95943 2.5728 86.9075
340 1 16.4857 2.87009 79.9757
341 2 8.02833 1.03194 86.7925
342 2 9.66469 4.38566 86.3802
343 1 7.91858 2.88763 84.7363
344 1 11.617 1.79752 82.8972
345 1 10.9035 2.3227 85.4876
346 1 10.367 4.21249 83.714
347 1 8.86019 2.34075 82.1922
348 1 8.18703 2.58318 77.7459
349 1 8.8823 2.17541 75.1407
350 1 6.31411 2.0965 75.7341
351 2 7.12156 1.56564 72.978
352 1 14.3571 3.59529 87.07
353 1 12.9513 4.32792 83.0701
354 1 12.2753 4.91524 85.6463
355 2 11.2678 3.65497 81.03
356 1 10.0795 4.1625 78.7547
357 1 16.6588 5.0571 86.6608
358 1 17.6156 4.5136 84.1998
359 1 12.2462 0.129417 77.9472
360 1 10.1182 1.1927 79.3342
361 1 12.4004 2.78182 78.7854
362 1 9.48018 -0.0438672 76.9048
363 1 11.2853 0.708843 74.9564
364 2 10.7616 2.15446 77.0419
365 1 1.31181 2.38862 85.6226
366 1 15.2536 5.87625 82.8908
367 2 14.8964 4.57669 84.9004
368 1 13.847 2.35911 81.1136
369 1 13.7318 2.27417 84.8228
370 1 15.7371 3.04483 82.8828
371 2 14.5724 1.66976 78.6312
372 1 13.4036 2.1985 76.2029
373 1 14.7352 4.18301 77.6768
374 1 12.4603 5.42739 79.321
375 1 9.46647 0.489187 72.9646
376 1 11.216 3.49625 74.8835
377 2 13.0656 2.38894 73.6426
378 1 13.7599 4.7678 74.85
379 2 12.1425 4.52335 77.0082
380 1 11.0377 3.20367 72.1124
381 1 3.95378 3.68521 79.6678
382 1 16.5413 2.22591 77.1066
383 1 2.51328 4.06055 73.0687
384 1 15.609 2.7915 74.194
385 2 2.7807 2.43928 74.9557
386 1 12.3859 0.602068 71.8884
387 1 14.3128 6.46536 86.619
388 1 18.9787 6.5153 85.7485
389 2 3.59861 3.71419 86.4685
390 2 17.4096 4.68803 81.6282
391 1 15.2485 5.29121 80.2646
392 1 7.62842 5.14059 87.5332
393 1 5.66679 4.49128 85.0687
394 2 7.04026 4.63774 82.8236
395 1 4.51145 5.13978 82.1636
396 1 6.58737 3.59 80.6292
397 1 18.1798 6.35077 80.105
398 1 6.78079 6.41265 81.0432
399 2 4.21378 4.82628 74.9077
400 1 16.8244 4.80551 75.7238
401 1 3.96043 3.34821 76.9955
402 1 4.68636 5.79368 72.3604
403 1 8.09317 5.65664 84.8954
404 2 6.12661 6.70316 86.2435
405 2 17.3037 4.60419 78.3858
406 2 15.6789 5.31778 73.3053
407 1 8.96445 5.04892 81.347
408 1 6.20821 4.8377 76.9568
409 1 6.77342 4.3917 74.1695
410 2 9.23374 4.36502 73.4128
411 1 7.32222 5.77487 71.9516
412 2 7.90051 5.58851 78.8641
413 1 8.88648 5.02287 76.3422
414 1 4.7605 2.79393 73.2442
415 2 1.55091 0.36409 70.4672
416 1 5.85905 6.62011 67.7286
417 1 9.89988 5.8086 71.2524
418 1 8.67284 6.57584 66.8745
419 1 3.88514 0.417771 69.6155
420 2 6.88264 5.78402 65.1378
421 1 5.88045 6.75504 62.8529
422 1 8.10077 0.656997 70.7368
423 1 9.13551 0.142907 68.1895
424 1 8.12117 5.39692 62.8667
425 1 7.08685 1.42946 66.7999
426 2 6.3865 -0.00469381 68.8844
427 1 6.36673 -0.0242834 61.9824
428 1 4.35988 1.54437 63.4139
429 1 6.83614 6.15181 58.9843
430 1 5.43713 0.708261 58.9224
431 2 3.71492 0.455295 61.1024
432 1 6.72236 5.62226 56.1982
433 1 14.6321 5.93896 63.8904
434 1 9.64758 0.158299 57.1712
435 1 11.2777 5.37235 58.1333
436 1 13.6632 4.25734 72.1376
437 1 5.82065 1.98879 70.6728
438 1 10.4817 2.07608 69.8401
439 1 8.24974 3.28725 71.2816
440 2 14.4166 6.23304 70.5984
441 2 7.76411 2.33513 68.9601
442 1 9.5651 2.54454 66.9013
443 2 8.73993 0.241422 65.6613
444 1 7.20361 1.54101 64.1473
445 1 15.1222 1.63423 71.7058
446 1 16.3795 6.83373 69.1623
447 1 16.4613 4.6672 67.3276
448 2 13.8426 0.161364 67.0789
449 1 12.6143 2.59887 67.8029
450 1 11.2909 0.489434 66.3934
451 1 17.4756 5.99497 64.805
452 1 10.1142 1.80208 63.9598
453 1 13.6435 1.98618 65.1976
454 2 11.5883 3.24027 65.364
455 1 10.5719 2.12724 61.0495
456 2 11.2178 0.574173 59.1095
457 1 12.5632 2.80423 59.0678
458 1 8.44698 0.664488 59.7963
459 1 14.9251 5.94798 61.095
460 1 12.4778 2.85761 62.852
461 1 9.73964 2.8419 58.1967
462 1 11.8643 1.6257 56.7034
463 1 14.8337 1.22206 69.116
464 2 13.0157 2.44652 70.4204
465 1 14.5301 4.10183 69.0134
466 2 15.3708 2.40738 66.9594
467 1 1.90984 2.57754 68.837
468 1 13.6854 4.64538 66.1131
469 1 16.0173 3.46911 64.7699
470 2 8.88829 0.321396 62.3261
471 2 7.32999 1.08431 57.3015
472 1 13.5224 4.10372 56.6266
473 1 4.60121 2.7379 68.3074
474 1 0.586202 0.593777 65.2566
475 1 13.1111 0.819596 61.0746
476 1 13.8209 0.239275 58.4972
477 2 1.04875 0.349839 57.5342
478 1 14.3979 1.55534 56.0044
479 2 5.3269 2.59737 65.5236
480 1 2.8431 2.06916 66.2269
481 1 3.25896 3.71989 64.0612
482 2 14.9135 1.33643 62.999
483 1 0.596818 0.824082 60.3036
484 2 16.5002 4.73386 62.6756
485 1 14.7148 3.17792 60.9084
486 1 15.4713 2.75463 58.3005
487 1 2.29966 2.60932 61.6757
488 1 3.04228 2.20626 59.1355
489 1 15.8847 5.3226 57.2197
490 1 16.4033 4.44877 70.8522
491 1 11.836 5.45582 64.0461
492 2 3.60021 3.37212 70.8976
493 1 3.31354 5.10539 68.9059
494 1 7.07946 4.11372 67.0447
495 1 6.21579 4.56236 69.6156
496 1 4.13919 4.81468 66.4115
497 1 3.73383 5.29036 61.7806
498 1 4.65543 4.72546 59.1088
499 1 17.1029 4.64715 59.9186
500 2 2.66094 4.08855 57.1283
501 1 8.05419 2.63784 61.8239
502 1 5.87096 3.89447 63.2801
503 1 5.18914 2.51103 60.8528
504 1 7.1206 3.20348 58.9459
505 2 6.38654 4.75797 60.997
506 1 12.0644 4.67658 69.9149
507 1 9.14201 4.27388 65.1034
508 1 9.25342 4.40885 68.838
509 1 11.1598 5.1178 66.9337
510 2 10.1588 4.0862 62.6277
511 1 8.99636 4.82349 60.2347
512 1 5.17044 2.73569 57.0025
513 2 8.71884 4.93044 57.6089
514 1 12.1821 4.92913 60.946
515 2 13.7819 4.97852 58.9087
516 1 7.87211 2.97168 55.852
517 1 5.28301 -0.0142718 56.1178
518 1 3.96981 5.76609 55.1437
519 2 3.3591 4.84238 52.9748
520 1 5.36896 5.11615 50.9148
521 1 8.11678 0.705544 51.1112
522 1 8.44042 5.06276 51.7172
523 2 7.26204 5.7658 49.3176
524 1 6.32578 4.54897 45.2698
525 1 8.36847 5.31839 43.0951
526 1 8.46839 5.42753 46.9127
527 1 5.57638 5.39273 42.2462
528 1 10.3721 6.65394 52.9806
529 2 11.1263 5.04275 50.9704
530 1 12.8871 5.07391 52.8436
531 1 5.38161 0.542075 50.126
532 1 11.63 5.812 48.766
533 1 9.19294 6.48808 40.7866
534 1 15.6057 5.20452 52.1656
535 2 16.2863 5.11855 49.5648
536 1 13.693 4.58081 50.1392
537 1 14.1961 6.16559 48.0175
538 2 8.22536 0.538952 46.4934
539 1 10.4367 5.68815 44.9723
540 1 11.2684 5.20705 42.4746
541 1 13.4137 4.92772 45.6203
542 1 14.1065 4.64928 43.1281
543 1 8.23315 0.229807 54.9093
544 1 3.32029 1.40005 48.1093
545 2 14.609 5.7416 54.8067
546 2 12.4683 2.95566 54.4428
547 1 10.2102 0.90791 53.0532
548 1 13.937 -0.033162 51.1699
549 1 13.1671 0.330655 53.7347
550 1 12.9045 2.4137 51.7586
551 1 11.0993 0.642246 50.4475
552 1 10.7837 0.800841 45.6536
553 1 11.5993 0.329667 43.0871
554 1 8.83349 0.392956 43.7519
555 2 13.9056 6.41014 41.1383
556 1 1.60371 1.48342 55.344
557 1 15.597 2.18844 50.9337
558 1 14.9555 2.71381 53.6189
559 2 13.835 1.73454 49.093
560 1 12.8687 2.52083 46.7831
561 1 3.829 3.02743 54.8182
562 1 4.88027 2.77929 52.2314
563 1 3.67871 5.20247 45.819
564 1 16.8443 6.48968 47.3119
565 1 15.1665 1.13822 46.9165
566 1 16.1505 5.00926 45.0958
567 1 17.9752 5.60094 42.9339
568 2 13.5486 0.407462 45.0358
569 1 3.79497 0.391717 53.7291
570 1 2.4619 3.98863 50.8529
571 2 2.18651 2.5061 52.9974
572 1 4.79995 6.83639 49.0841
573 1 0.989987 0.266519 52.8456
574 1 2.92002 1.16125 50.8121
575 2 6.04 6.69517 46.5763
576 1 0.753739 0.693789 44.1252
577 1 2.12183 2.55783 45.8146
578 1 15.4059 3.84658 47.4372
579 1 16.1879 5.09117 41.0099
580 1 13.7672 1.98751 43.0903
581 2 15.7939 0.863378 41.5428
582 1 16.5517 3.16122 43.1723
583 2 14.9006 2.78327 45.0721
584 1 14.5325 2.97651 40.8928
585 1 6.31335 1.58283 47.7601
586 1 3.94552 0.726053 45.007
587 1 5.10569 2.74391 40.9119
588 1 3.09295 1.05102 42.0102
589 2 5.65954 0.902601 43.1019
590 1 13.4831 0.67565 40.833
591 1 16.7169 4.41666 54.7914
592 1 6.12381 4.70615 53.7976
593 2 6.04102 1.86538 54.5556
594 2 4.59032 2.8482 49.6683
595 1 2.85923 4.1547 48.2032
596 1 10.712 4.11096 55.8224
597 1 7.95354 2.67517 53.0838
598 2 9.51956 2.76877 51.1408
599 1 7.01761 3.13333 50.0838
600 1 8.96569 1.77831 48.7718
601 1 5.68975 4.27275 48.0432
602 1 9.34621 4.5334 49.245
603 2 6.90805 3.13884 43.1062
604 1 4.12882 3.24085 43.4282
605 1 6.51796 1.77397 45.1715
606 1 7.67311 4.08319 40.8629
607 1 10.6929 3.70712 53.0137
608 2 8.68182 4.88985 54.392
609 2 4.56821 2.90077 46.3332
610 2 2.79497 3.56851 41.0409
611 1 11.5766 3.05833 49.3096
612 1 8.94449 3.21785 45.0582
613 1 9.73469 2.7474 42.5755
614 2 12.1216 2.84238 41.6712
615 1 10.3371 3.9668 40.5139
616 2 10.8582 3.9687 46.9771
617 1 11.537 3.21325 44.4844
618 1 7.5865 1.25999 41.4831
ITEM: TIMESTEP
2300
ITEM: NUMBER OF ATOMS
618
ITEM: BOX BOUNDS xy xz yz pp pp ff
0.0000000000000000e+00 1.9317770367296919e+01 4.0025167278329121e+00
0.0000000000000000e+00 6.6702723500479264e+00 0.0000000000000000e+00
0.0000000000000000e+00 1.0921147561319708e+02 0.0000000000000000e+00
ITEM: ATOMS id type x y z
1 1 4.84999 5.81354 6.01026
2 1 6.57241 6.17305 8.5581
3 1 4.70133 5.78965 13.2068
4 1 5.78991 0.141924 6.12579
5 1 8.06021 6.49106 10.8554
6 1 6.48293 6.10321 15.6194
7 1 4.76011 5.71924 20.0541
8 1 12.3484 5.79996 6.19092
9 1 7.46485 0.535068 8.39157
10 1 5.74818 0.0917513 13.1608
11 1 4.21537 -0.157671 17.7717
12 1 6.53202 6.14652 22.4424
13 1 4.78286 6.00196 27.076
14 1 10.8366 0.949993 6.05483
15 1 14.2322 6.07467 8.4859
16 1 9.04096 0.759504 10.8408
17 1 12.3619 5.82011 13.1885
18 1 7.40471 0.49527 15.5231
19 1 5.80473 0.226631 20.1857
20 1 8.1012 6.69332 24.77
21 1 6.57078 6.2653 29.3493
22 1 4.72248 5.92586 34.1925
23 1 13.5549 0.103264 5.9613
24 1 12.8648 2.93972 5.81002
25 1 12.3616 1.27058 8.58053
26 1 15.9254 6.49 10.7759
27 1 11.2942 2.60812 10.9229
28 1 10.6631 1.00132 13.0812
29 1 14.2456 6.143 15.3446
30 1 9.04297 0.787495 17.85
31 1 12.6446 5.76487 20.0964
32 1 7.52076 0.475031 22.4398
33 1 5.78055 0.359954 26.9214
34 1 8.27343 6.55366 31.6205
35 1 6.51586 6.24229 36.4246
36 1 15.7391 2.20538 5.84044
37 1 15.3359 0.458775 8.39889
38 1 14.5732 3.31759 8.5453
39 1 14.101 1.79672 10.9982
40 1 13.3368 0.131484 13.0531
41 1 12.8292 3.03935 13.0795
42 1 12.3938 1.39037 15.4302
43 1 11.8611 -0.286405 17.7568
44 1 11.2271 2.66668 17.6773
45 1 10.8272 1.25166 20.1292
46 1 14.2448 6.25125 22.4033
47 1 9.24343 0.920155 24.8082
48 1 12.6715 5.99396 26.9638
49 1 7.39197 0.608828 29.3712
50 1 5.70138 0.154209 34.2006
51 1 7.87237 6.33501 38.8674
52 1 3.03388 1.12968 6.01056
53 1 2.6986 3.91784 6.05829
54 1 1.89255 2.32674 8.53229
55 1 1.37101 0.744806 10.9962
56 1 16.3822 3.60182 10.8201
57 1 15.7286 1.92162 13.2256
58 1 15.102 0.594481 15.6661
59 1 14.5859 3.38167 15.4413
60 1 13.9992 1.94979 17.7465
61 1 13.4116 0.23794 20.1365
62 1 13.0027 3.02613 19.8092
63 1 12.3972 1.49385 22.4058
64 1 15.961 6.69972 24.9314
65 1 11.4988 2.899 24.7965
66 1 10.9152 1.39487 27.1853
67 1 14.1439 6.48243 29.3744
68 1 9.05537 0.837592 31.6689
69 1 12.6086 6.0141 34.0381
70 1 7.45099 0.707812 36.4272
71 1 5.49539 2.90018 6.0685
72 1 4.57449 1.36503 8.48744
73 1 4.34644 4.30841 8.50457
74 1 3.55818 2.68302 10.7142
75 1 3.12066 0.980001 13.2592
76 1 2.58275 3.86329 13.3019
77 1 2.16829 2.26654 15.5945
78 1 1.65552 0.731903 17.8329
79 1 16.3438 3.5832 17.616
80 1 15.7814 2.16358 20.0774
81 1 15.0674 0.47124 22.2724
82 1 14.8643 3.45022 22.3234
83 1 14.1689 1.93442 24.6186
84 1 13.5696 0.428325 27.1573
85 1 12.9625 3.32224 27.152
86 1 12.5428 1.72137 29.4202
87 1 15.8804 6.6476 31.6155
88 1 11.4121 2.79623 31.7622
89 1 10.6376 1.16005 34.0417
90 1 13.9425 6.19573 36.4488
91 1 9.10943 0.730624 39.0237
92 1 8.22298 1.94299 5.80005
93 1 7.69123 4.84608 5.87854
94 1 6.96797 3.3751 8.57437
95 1 6.37152 1.60985 10.8705
96 1 5.93041 4.51239 10.7627
97 1 5.25053 2.92443 13.0135
98 1 4.73899 1.41378 15.4947
99 1 4.31835 4.37027 15.4004
100 1 3.703 2.82186 17.7007
101 1 3.02742 1.04148 20.1392
102 1 2.72135 4.06846 20.0437
103 1 2.18916 2.34868 22.4299
104 1 1.34796 0.994648 24.709
105 1 16.5064 3.93537 24.7172
106 1 15.7298 2.25273 27.1553
107 1 15.1809 0.599386 29.522
108 1 14.6363 3.62149 29.5167
109 1 14.066 1.87884 31.6068
110 1 17.2938 6.85252 34.0032
111 1 13.0693 3.15668 34.1858
112 1 12.3505 1.34232 36.2582
113 1 15.4524 6.27881 39.139
114 1 11.5107 2.27478 38.9313
115 1 10.2636 3.84951 6.01975
116 1 9.62551 2.38641 8.41382
117 1 9.14921 5.18627 8.50016
118 1 8.61079 3.65156 10.778
119 1 8.01045 2.04804 13.1664
120 1 7.32617 4.96602 13.2627
121 1 7.03265 3.30382 15.4584
122 1 6.5012 1.81047 17.8709
123 1 5.79082 4.64978 17.7635
124 1 5.31399 2.92438 19.9975
125 1 4.61038 1.39858 22.5493
126 1 4.26932 4.31367 22.3117
127 1 3.73103 2.83958 24.6717
128 1 3.01477 1.2407 26.9775
129 1 2.65713 4.17092 26.9424
130 1 2.13304 2.57189 29.4438
131 1 1.50642 0.847645 31.7932
132 1 16.2638 3.72465 31.7271
133 1 15.7006 2.23555 34.0856
134 1 15.0746 0.579205 36.3208
135 1 14.6146 3.37945 36.4854
136 1 13.9749 1.62328 38.4412
137 1 11.8474 4.26331 8.69431
138 1 10.836 5.49017 10.8883
139 1 9.974 3.93262 13.1835
140 1 9.77743 2.37968 15.5928
141 1 9.28143 5.29303 15.5936
142 1 8.56975 3.79712 17.7431
143 1 8.11073 2.07322 20.0605
144 1 7.46367 4.93916 20.1426
145 1 7.06556 3.14987 22.366
146 1 6.48864 1.86646 24.8152
147 1 5.74039 4.71834 24.6972
148 1 5.24237 3.14686 26.9229
149 1 4.74611 1.61108 29.3807
150 1 4.33075 4.3225 29.2584
151 1 3.61603 2.69381 31.8658
152 1 3.12626 1.06409 34.0705
153 1 2.51757 3.91612 34.1168
154 1 2.02423 2.58944 36.5381
155 1 1.39023 0.997057 39.0875
156 1 16.494 3.67523 38.9873
157 1 14.9993 4.74729 5.96649
158 1 13.6465 4.7021 10.9721
159 1 11.9186 4.28664 15.4314
160 1 10.8139 5.5722 17.8603
161 1 10.4064 4.12866 20.0658
162 1 9.84271 2.45745 22.285
163 1 9.1961 5.22174 22.5532
164 1 8.61755 3.76833 24.8001
165 1 8.15473 2.20665 27.0233
166 1 7.4772 5.03383 26.9138
167 1 6.91399 3.43881 29.2462
168 1 6.24995 1.83002 31.8892
169 1 5.87573 4.62103 31.7605
170 1 5.18936 3.09504 34.0679
171 1 4.63592 1.41924 36.3927
172 1 4.28396 4.2994 36.5243
173 1 3.73213 2.64767 39.1375
174 1 16.8001 5.20744 8.35205
175 1 15.2856 4.71373 13.1282
176 1 13.5302 4.57789 17.6544
177 1 12.0985 4.36774 22.4239
178 1 11.0104 5.63166 24.6664
179 1 10.3278 4.1405 27.0577
180 1 9.77571 2.55048 29.4926
181 1 9.18672 5.22566 29.3504
182 1 8.48922 3.76091 31.7621
183 1 7.91564 2.03937 34.066
184 1 7.58368 5.04237 34.1447
185 1 7.01314 3.46693 36.3768
186 1 6.41094 2.08023 38.8238
187 1 5.5049 4.80988 38.9664
188 1 18.4157 5.47914 10.8316
189 1 16.9606 5.23829 15.4641
190 1 15.3409 4.92194 19.9165
191 1 13.7384 4.74192 24.7741
192 1 11.7618 4.53936 29.6124
193 1 10.9565 5.65677 31.8012
194 1 10.3136 3.91078 34.0342
195 1 9.7703 2.38711 36.202
196 1 9.12331 5.24366 36.3951
197 1 8.9136 3.41388 38.2984
198 1 18.6119 5.62474 17.7646
199 1 16.8881 5.33214 22.3824
200 1 15.3282 5.20456 27.1928
201 1 13.6003 4.69985 31.853
202 1 11.9645 4.40223 36.4795
203 1 10.8012 5.98672 38.5709
204 1 18.556 5.78635 24.7289
205 1 16.9279 5.38972 29.3911
206 1 15.2006 4.88092 34.0547
207 1 13.3677 4.67614 39.038
208 1 18.3966 5.73452 31.7465
209 1 16.856 5.28097 36.5828
210 1 18.4466 5.51299 39.0043
211 2 14.0627 1.63371 102.198
212 1 14.6435 1.23232 99.5229
213 1 3.19175 0.704507 103.265
214 1 2.05751 1.38122 98.8631
215 1 1.22894 1.74029 101.565
216 2 15.4474 0.637092 96.7649
217 1 14.3924 1.46073 94.4014
218 1 5.68509 1.87213 102.744
219 1 6.52747 1.44758 100.102
220 1 1.40869 0.165732 94.7091
221 1 4.4219 2.67042 98.6576
222 2 3.99733 1.41313 100.88
223 1 3.69752 1.49349 93.8068
224 1 1.64562 2.78054 95.3238
225 1 15.5441 0.980692 90.6812
226 1 2.84514 2.0673 90.7079
227 2 1.2604 1.86098 92.7822
228 1 15.6015 1.27128 88.1305
229 1 7.97694 0.589016 95.6127
230 1 6.79794 1.43995 88.9133
231 1 8.60536 6.72943 90.0491
232 1 11.8676 4.69635 103.315
233 1 3.24868 3.53285 102.49
234 1 7.91721 3.1941 101.871
235 1 5.6487 4.85969 103.143
236 2 7.71156 0.604085 102.343
237 2 5.36171 3.6867 100.888
238 1 6.9495 4.04798 98.6801
239 2 6.25987 1.54985 97.3591
240 1 4.59344 2.95635 95.9529
241 1 11.9743 1.83057 103.283
242 1 9.86073 1.50606 101.136
243 1 13.9577 6.01326 98.7256
244 2 11.2009 1.61957 98.8417
245 1 9.79967 4.01851 99.6708
246 1 8.67318 1.83095 98.0353
247 1 10.6181 0.89156 96.5165
248 1 7.3445 3.3178 95.8257
249 1 11.1312 3.41946 96.9917
250 2 8.87819 4.59037 97.167
251 1 7.93109 3.45775 92.7812
252 2 8.57896 2.1028 90.7063
253 1 9.8459 4.19883 91.0282
254 1 5.74166 1.97224 91.6031
255 1 8.02039 0.600751 92.9386
256 1 9.86507 3.98952 94.7014
257 1 6.97821 4.15899 90.0208
258 1 9.06795 2.87725 88.5064
259 1 12.4051 2.58194 100.521
260 2 10.4812 3.43861 102.238
261 1 12.2023 5.28205 100.715
262 2 13.0316 3.78733 98.4872
263 1 14.6127 4.01496 100.512
264 1 11.1553 5.89913 98.0023
265 1 13.4379 4.73988 96.2377
266 2 6.23947 1.80038 94.1754
267 2 4.83434 2.82775 89.1733
268 1 10.5823 5.46518 88.4832
269 1 17.4221 4.00877 99.9748
270 1 13.2452 1.8199 96.897
271 1 10.3934 2.01712 92.69
272 1 11.1522 1.424 89.981
273 2 13.7258 2.27309 89.4619
274 1 11.6978 3.16072 87.858
275 2 2.76824 4.12994 97.266
276 1 15.4605 3.32804 97.8674
277 1 16.0104 5.37499 95.8276
278 2 12.1274 2.56654 94.6516
279 1 13.0837 2.28119 91.9607
280 2 14.0987 6.4794 94.2751
281 1 11.9715 4.60771 92.8751
282 1 12.5104 4.24633 90.321
283 1 14.8615 3.99864 93.5032
284 1 15.5915 3.62381 90.8714
285 1 9.03606 0.101394 89.1617
286 1 14.1279 6.05419 102.773
287 1 5.10614 -0.00209804 95.8123
288 2 16.4172 4.60166 102.357
289 1 16.0414 6.55142 100.78
290 1 4.44804 5.3768 98.8883
291 1 3.68857 5.881 101.413
292 1 16.8368 6.08775 98.3312
293 1 12.4479 -0.164817 93.246
294 1 17.1468 6.10475 90.6447
295 1 14.3506 6.07108 91.5871
296 2 15.2534 5.39538 88.9235
297 1 5.27388 4.0385 93.5453
298 1 18.5275 5.24241 95.071
299 1 2.40621 4.11559 92.8495
300 1 4.29472 4.86458 90.5609
301 2 3.81579 6.19321 92.7639
302 1 9.4354 5.86755 101.991
303 1 6.50973 5.96959 96.9257
304 1 6.67089 5.93236 100.893
305 1 8.55592 6.56389 98.7944
306 2 7.50811 5.40631 94.3762
307 1 6.30521 6.22006 92.1668
308 1 2.24273 3.83947 88.8552
309 2 6.09347 6.60172 89.4459
310 1 9.33631 6.14672 92.8453
311 2 11.0111 6.38348 90.8879
312 1 4.79273 5.09339 87.891
313 1 3.24295 1.46841 87.82
314 1 12.9367 0.987464 87.299
315 2 12.4945 0.182392 84.9586
316 1 13.9696 0.305997 82.799
317 1 5.69834 2.47269 83.0278
318 1 1.70585 0.293394 83.64
319 2 0.61912 0.852959 81.1985
320 1 19.0154 6.21084 76.9785
321 1 1.40785 0.331069 74.9103
322 1 1.54258 -0.0278099 78.8701
323 1 13.9654 0.205506 73.9691
324 1 3.81406 1.77464 84.9187
325 2 4.40418 0.214429 82.8936
326 1 6.27982 0.331813 84.9995
327 1 2.74768 2.28168 81.9548
328 1 5.10831 1.38079 80.5406
329 1 2.4391 1.53608 72.6047
330 1 9.05204 0.490344 84.0968
331 2 9.51604 0.0784534 81.4932
332 1 7.06406 0.0762109 82.3082
333 1 7.57182 1.29582 79.8334
334 2 5.75988 2.70295 78.341
335 1 3.65593 0.559227 76.8583
336 1 4.37705 0.215 74.2546
337 1 6.44553 -0.164213 77.7061
338 1 11.3142 6.33351 75.0406
339 1 5.89675 2.63944 86.7546
340 1 16.4362 2.79738 79.7909
341 2 8.09211 0.919444 86.7742
342 2 9.63275 4.12309 86.3535
343 1 7.77298 2.82226 84.7345
344 1 11.6425 1.97388 83.0069
345 1 10.7953 2.15912 85.4972
346 1 10.3761 4.28721 83.6064
347 1 8.90237 2.47261 82.0251
348 1 8.05889 2.44331 77.3925
349 1 8.90016 2.09775 74.9839
350 1 6.02404 1.95462 75.6415
351 2 7.0795 1.48904 73.0329
352 1 14.2467 3.64782 87.2377
353 1 13.0993 4.50523 83.0393
354 1 12.3175 4.8927 85.6725
355 2 11.3626 3.84685 81.0019
356 1 10.1051 4.06266 78.5761
357 1 16.6829 5.13332 86.7937
358 1 17.6006 4.4531 84.0973
359 1 12.3405 0.176771 77.8103
360 1 10.2424 1.35305 79.3379
361 1 12.4854 2.82458 78.7815
362 1 9.45945 -0.0334296 76.8994
363 1 11.3762 0.786821 75.0028
364 2 10.7475 2.17869 76.9898
365 1 1.13705 2.37347 85.746
366 1 15.4483 5.86532 82.8905
367 2 15.057 4.47162 84.9316
368 1 13.8353 2.61565 81.0239
369 1 13.7044 2.26465 84.8005
370 1 15.6521 2.91019 82.9385
371 2 14.6423 1.6537 78.5159
372 1 13.4659 2.30752 76.1651
373 1 14.7903 4.16231 77.8136
374 1 12.7316 5.45802 79.2154
375 1 9.49747 -0.0366119 73.1476
376 1 11.0835 3.64929 74.863
377 2 12.9695 2.50011 73.584
378 1 13.87 4.72071 75.006
379 2 12.1702 4.59069 76.9786
380 1 11.1069 3.44232 72.1499
381 1 3.90002 3.74925 79.6718
382 1 16.572 2.19027 76.9862
383 1 2.60754 4.11207 73.0745
384 1 15.5198 2.79039 74.1746
385 2 2.93947 2.36148 74.9522
386 1 11.9611 0.758729 71.9384
387 1 14.3509 6.46058 86.5777
388 1 18.9614 6.52491 85.7361
389 2 3.27766 3.74712 86.5595
390 2 17.2323 4.53818 81.4193
391 1 15.4115 5.59441 80.228
392 1 7.73402 5.26861 87.6813
393 1 5.25383 4.44266 84.8491
394 2 7.23449 4.61568 82.9041
395 1 4.43156 5.08693 81.9514
396 1 6.71032 3.66819 80.5698
397 1 18.1115 6.36257 79.9918
398 1 6.86806 6.2816 81.0088
399 2 4.23653 4.71191 74.9522
400 1 16.9354 4.71112 75.6661
401 1 3.8246 3.28148 77.0543
402 1 4.81972 5.63344 72.485
403 1 7.94432 5.57456 84.9905
404 2 6.11739 6.6999 86.3293
405 2 17.3058 4.59509 78.3031
406 2 15.7353 5.38494 73.3572
407 1 9.17497 5.19337 81.1128
408 1 6.12725 4.70121 76.8429
409 1 6.78516 4.41816 74.2107
410 2 9.28789 4.48357 73.5026
411 1 7.46135 5.85866 71.9099
412 2 7.98794 5.38449 78.6498
413 1 8.9117 4.80644 76.1251
414 1 4.89973 2.70765 73.1598
415 2 1.50004 0.461883 70.4727
416 1 5.78164 6.48408 67.7206
417 1 9.99854 5.8093 71.2432
418 1 8.50411 6.6651 66.8808
419 1 3.86012 0.442527 69.6745
420 2 6.74883 5.97495 65.0113
421 1 5.75995 6.73993 62.6087
422 1 8.22173 0.667542 70.8066
423 1 9.265 0.0665338 68.1016
424 1 8.07134 5.4639 62.8022
425 1 7.05399 1.55409 66.8654
426 2 6.60751 0.109631 68.877
427 1 6.35871 0.207506 61.7691
428 1 4.37398 1.48146 63.4064
429 1 6.88308 6.15307 58.832
430 1 5.39898 0.633633 58.8176
431 2 3.81989 0.557822 60.8604
432 1 6.76578 5.58678 56.1496
433 1 14.4978 5.77436 63.6545
434 1 9.51309 -0.000802738 57.2689
435 1 11.2433 5.31901 58.1669
436 1 13.9179 4.11527 71.9099
437 1 5.94653 1.92849 70.6279
438 1 10.3869 2.02005 69.7757
439 1 8.44491 3.37372 71.3643
440 2 14.301 6.09748 70.5553
441 2 7.93857 2.44271 68.8697
442 1 9.57475 2.69293 66.8583
443 2 8.87332 0.329138 65.479
444 1 7.07132 1.65518 64.2548
445 1 14.8983 1.42418 71.733
446 1 16.3072 6.71554 69.0064
447 1 16.6106 4.69901 67.1409
448 2 13.8591 0.221426 67.149
449 1 12.6747 2.55362 67.7349
450 1 11.2795 0.760323 65.881
451 1 17.1929 5.9417 64.6657
452 1 9.81539 2.04958 63.892
453 1 13.5937 1.88156 65.1549
454 2 11.5487 3.29207 65.2921
455 1 10.6402 2.09486 61.1309
456 2 11.2893 0.623464 58.9565
457 1 12.5668 2.77623 59.1557
458 1 8.62224 0.560095 59.7526
459 1 14.9507 5.8483 60.9569
460 1 12.6568 2.87481 62.9262
461 1 9.77877 2.79846 58.1971
462 1 11.7741 1.58448 56.583
463 1 14.9454 1.30433 69.0987
464 2 12.9409 2.31597 70.2843
465 1 14.64 4.11078 69.0584
466 2 15.2482 2.64222 66.9892
467 1 1.90891 2.65434 68.8602
468 1 13.7189 4.64 66.2044
469 1 15.8803 3.33199 64.5478
470 2 8.80776 0.418148 62.3701
471 2 7.29762 1.2311 57.3867
472 1 13.3686 3.99772 56.8705
473 1 4.57733 2.73978 68.1734
474 1 0.539152 0.533227 65.2293
475 1 13.2105 0.586039 60.866
476 1 13.8464 0.432882 58.2951
477 2 1.06056 0.285375 57.4921
478 1 14.5202 1.72844 56.0037
479 2 5.23979 2.83155 65.53
480 1 2.63229 2.17344 66.1662
481 1 3.0784 3.79261 63.9877
482 2 14.9711 1.41103 62.7248
483 1 0.516002 0.871168 60.1659
484 2 16.597 4.91418 62.2656
485 1 14.6672 3.21368 60.9005
486 1 15.4602 2.83972 58.3239
487 1 2.26072 2.57939 61.588
488 1 3.00747 2.2216 58.9926
489 1 15.8389 5.36488 57.3197
490 1 16.6468 4.4567 70.9846
491 1 11.79 5.49372 63.9888
492 2 3.68027 3.07914 70.8438
493 1 3.41965 5.10603 69.1081
494 1 6.91168 4.10741 67.0625
495 1 6.22724 4.5606 69.8082
496 1 3.9544 4.84445 66.3581
497 1 3.69592 5.03115 61.584
498 1 4.52364 4.87197 58.9852
499 1 17.0807 4.64225 59.577
500 2 2.91946 4.22787 57.0407
501 1 8.06523 2.73828 61.7161
502 1 5.79412 4.01752 63.1915
503 1 5.11438 2.59902 60.8521
504 1 7.16882 3.16457 58.9136
505 2 6.44502 4.78319 60.8121
506 1 11.9354 4.51738 69.6498
507 1 9.15022 4.63094 65.0533
508 1 9.26707 4.60076 68.7571
509 1 11.1634 5.44801 66.677
510 2 10.3541 4.13737 62.5698
511 1 9.22334 4.71236 60.1964
512 1 5.28947 2.94134 57.0371
513 2 8.7357 4.97083 57.5739
514 1 12.3375 4.91305 60.9806
515 2 13.826 4.97318 59.0719
516 1 7.99488 2.97177 55.9406
517 1 5.45774 -0.0192493 56.123
518 1 4.15726 5.93877 55.2261
519 2 3.68782 4.91817 53.0245
520 1 5.22085 4.99987 50.905
521 1 8.34159 0.417896 51.3078
522 1 8.26646 5.01163 51.8741
523 2 7.19542 5.6328 49.3703
524 1 6.36612 4.76142 45.0514
525 1 8.32063 5.22023 43.0469
526 1 8.39271 5.43134 47.0207
527 1 5.53283 5.24727 42.0831
528 1 10.2583 6.48997 53.0214
529 2 11.0247 4.8279 51.1692
530 1 12.9737 4.97747 52.9944
531 1 5.47764 0.493913 50.2961
532 1 11.513 5.78848 48.9399
533 1 9.29935 6.47972 40.8769
534 1 15.697 5.27648 52.3906
535 2 16.2968 5.09641 49.6184
536 1 13.7019 4.59438 50.2912
537 1 14.236 6.08598 48.0503
538 2 8.15427 0.377847 46.5503
539 1 10.4187 5.67744 45.026
540 1 11.2171 5.3017 42.497
541 1 13.3052 4.94749 45.807
542 1 13.9327 4.52698 43.2677
543 1 8.20547 0.190978 54.8704
544 1 3.40097 1.33088 48.0589
545 2 14.6627 5.67708 55.0249
546 2 12.5895 2.86986 54.583
547 1 10.6309 0.901289 53.0336
548 1 14.0946 -0.110407 51.0652
549 1 13.4114 0.368104 53.8154
550 1 12.925 2.29814 51.7849
551 1 11.0616 0.53288 50.3793
552 1 10.7307 1.12223 46.0173
553 1 11.5128 0.40164 43.2954
554 1 8.86367 0.294589 43.9481
555 2 13.7128 6.30321 41.3285
556 1 1.77464 1.63412 55.2194
557 1 15.474 2.52812 50.9273
558 1 14.9119 2.91664 53.6426
559 2 13.692 1.65042 49.1323
560 1 12.8678 2.5635 46.9578
561 1 3.92175 3.18178 54.8284
562 1 4.8989 2.37754 52.1889
563 1 3.72988 5.15369 45.865
564 1 16.7754 6.44055 47.3432
565 1 15.0607 1.16917 46.8999
566 1 16.0732 5.2024 45.0782
567 1 18.0567 5.65495 43.1667
568 2 13.4415 0.689596 45.2067
569 1 3.74819 0.344337 53.8492
570 1 2.54239 3.90885 50.9349
571 2 2.22024 2.49582 52.8606
572 1 4.8772 7.01329 49.0993
573 1 0.89252 0.389706 52.8716
574 1 2.79018 1.08343 51.0016
575 2 5.90913 6.59973 46.5654
576 1 0.5943 0.603346 44.1684
577 1 2.05918 2.37955 45.9984
578 1 15.3576 3.78698 47.5324
579 1 16.0316 4.96599 41.4172
580 1 13.8323 1.91727 43.17
581 2 15.7929 0.601409 41.4964
582 1 16.5795 3.14744 43.2317
583 2 14.8734 2.95403 45.2278
584 1 14.6926 2.80214 40.5615
585 1 6.42206 1.56039 47.8864
586 1 3.94523 0.703733 45.1108
587 1 5.18355 2.54011 41.2812
588 1 3.05416 0.92315 42.2064
589 2 5.43737 0.6843 43.1902
590 1 13.2391 0.573534 40.918
591 1 16.9582 4.47349 54.8051
592 1 6.29914 4.36115 53.8155
593 2 6.01064 2.03561 54.6035
594 2 4.55571 2.79093 49.5376
595 1 2.98243 4.17332 48.2567
596 1 10.7704 4.0473 55.8023
597 1 8.11465 2.38074 53.1779
598 2 9.62392 2.65572 51.0513
599 1 7.0533 2.95611 50.185
600 1 9.14236 1.81943 48.5659
601 1 5.77803 4.32344 47.9999
602 1 9.33253 4.37226 49.256
603 2 6.92262 3.14606 43.0972
604 1 4.1451 3.18541 43.7754
605 1 6.56019 1.82455 45.1157
606 1 7.6232 4.04763 40.6514
607 1 10.7473 3.60539 53.1565
608 2 8.75213 4.74864 54.4535
609 2 4.69277 2.83108 46.4283
610 2 2.88363 3.73387 41.2742
611 1 11.6583 3.07667 49.2968
612 1 8.91028 3.25887 45.0242
613 1 9.66313 2.79959 42.4139
614 2 12.0859 2.95591 41.4772
615 1 10.4009 4.19573 40.2818
616 2 10.6369 3.89267 46.9946
617 1 11.6717 3.16213 44.4184
618 1 7.63146 1.16922 41.6531
ITEM: TIMESTEP
2400
ITEM: NUMBER OF ATOMS
618
ITEM: BOX BOUNDS xy xz yz pp pp ff
0.0000000000000000e+00 1.9317770367296919e+01 4.0025167278329121e+00
0.0000000000000000e+00 6.6702723500479264e+00 0.0000000000000000e+00
0.0000000000000000e+00 1.0921147561319708e+02 0.0000000000000000e+00
ITEM: ATOMS id type x y z
1 1 4.78683 5.95465 5.88549
2 1 6.38937 6.09701 8.4573
3 1 5.02724 5.86738 13.1562
4 1 5.82533 0.100406 6.02915
5 1 8.2327 6.43285 10.8779
6 1 6.60353 6.30509 15.4312
7 1 4.95503 5.8971 20.0722
8 1 12.5156 5.85211 6.00899
9 1 7.32486 0.214748 8.67902
10 1 5.80114 0.0838353 13.2385
11 1 4.09965 -0.246991 17.7821
12 1 6.56371 6.41893 22.4203
13 1 5.04519 6.01067 27.0271
14 1 10.5136 1.20423 6.16514
15 1 14.1362 6.05519 8.59997
16 1 9.04892 0.543069 10.9937
17 1 12.5758 5.71245 13.2294
18 1 7.35949 0.337656 15.4996
19 1 5.87184 -0.0101312 19.9847
20 1 8.33096 6.59006 24.6763
21 1 6.47078 6.37424 29.5076
22 1 4.97719 5.93233 34.1767
23 1 13.4198 0.234021 5.94986
24 1 13.0737 2.99382 6.23637
25 1 12.3584 1.25585 8.63128
26 1 15.6928 6.33987 10.8617
27 1 11.3272 2.53035 10.9183
28 1 10.8357 1.05921 13.2252
29 1 14.131 6.10441 15.5811
30 1 9.18137 0.809486 17.9009
31 1 12.454 5.94827 20.1942
32 1 7.48384 0.539826 22.5614
33 1 5.78762 0.40312 27.0857
34 1 7.97004 6.74766 31.9154
35 1 6.30899 6.10052 36.5701
36 1 15.6393 1.85436 6.12385
37 1 15.0959 0.391191 8.59597
38 1 14.8433 3.26601 8.39221
39 1 13.9896 1.48088 10.8539
40 1 13.5319 0.0635548 13.2113
41 1 13.0261 2.81744 13.271
42 1 12.3726 1.47921 15.4763
43 1 11.8407 -0.0419121 17.8979
44 1 11.5861 2.73722 18.0522
45 1 10.7897 1.06886 20.2387
46 1 14.1349 6.34859 22.4897
47 1 9.00959 0.810305 24.8466
48 1 12.4969 6.03049 27.2074
49 1 7.62063 0.576728 29.4877
50 1 5.68981 0.415948 33.9257
51 1 7.69052 6.56966 38.6478
52 1 3.1716 1.07455 5.95456
53 1 2.59372 4.04841 5.78672
54 1 2.18817 2.33437 8.43968
55 1 1.53344 0.81924 10.6141
56 1 16.2742 3.56047 10.8863
57 1 15.6702 2.16423 12.9758
58 1 15.1193 0.340052 15.3114
59 1 14.6694 3.30616 15.6474
60 1 14.0446 1.74782 17.8567
61 1 13.5413 0.148455 20.1467
62 1 12.9216 3.10709 20.2797
63 1 12.4892 1.4301 22.4995
64 1 15.8371 6.57004 24.7157
65 1 11.2739 2.75444 24.8814
66 1 10.6675 1.08099 27.0162
67 1 14.349 6.21747 29.4759
68 1 9.13759 0.912185 31.777
69 1 12.4809 5.95596 34.0349
70 1 7.46562 0.570972 36.344
71 1 5.19237 2.88384 5.88063
72 1 4.72243 1.34413 8.51422
73 1 4.26828 4.22483 8.47017
74 1 3.80903 2.57999 10.7988
75 1 3.05364 1.12614 13.1783
76 1 2.71022 4.05435 12.9788
77 1 1.96973 2.54164 15.4485
78 1 1.33202 0.70571 17.6088
79 1 16.2699 3.83536 17.872
80 1 15.645 2.0639 20.0865
81 1 15.1121 0.595417 22.5407
82 1 14.5598 3.42265 22.6518
83 1 14.0309 1.73507 24.925
84 1 13.4469 0.119351 27.03
85 1 13.0937 2.96695 27.0926
86 1 12.3954 1.43522 29.4381
87 1 15.8523 6.66469 31.8673
88 1 11.378 2.84388 31.6339
89 1 10.7727 1.26015 34.1576
90 1 14.1653 6.31784 36.6557
91 1 8.92858 0.797173 38.8313
92 1 7.86384 1.99308 6.37134
93 1 7.51351 4.84865 6.26084
94 1 7.00371 3.31773 8.61919
95 1 6.34448 1.6578 10.8904
96 1 5.93804 4.49659 10.8623
97 1 5.38496 3.03027 13.3558
98 1 4.66193 1.31302 15.5282
99 1 4.21216 4.21625 15.6065
100 1 3.65184 2.61658 17.8904
101 1 3.17155 1.21479 20.2237
102 1 2.56329 4.00086 20.0983
103 1 2.11084 2.53603 22.4541
104 1 1.60523 0.912816 24.7523
105 1 16.2937 3.72504 24.7387
106 1 15.8916 2.11967 26.9962
107 1 15.0662 0.728123 29.437
108 1 14.721 3.30339 29.5834
109 1 14.0794 1.79642 31.8141
110 1 17.5079 6.89235 34.0964
111 1 12.9429 3.24601 34.1021
112 1 12.4933 1.57518 36.5118
113 1 15.2963 6.30586 39.012
114 1 11.4536 2.285 39.2447
115 1 10.2103 3.97569 6.22016
116 1 9.74643 2.23616 8.72671
117 1 9.16212 5.11977 8.60835
118 1 8.56775 3.44119 10.9627
119 1 7.98847 1.83109 13.1998
120 1 7.72789 4.76646 13.1811
121 1 6.92283 3.33946 15.5763
122 1 6.4237 1.59234 17.9718
123 1 6.00485 4.57349 17.8955
124 1 5.40919 3.20972 20.1406
125 1 4.72829 1.48773 22.3909
126 1 4.256 4.39876 22.4932
127 1 3.72821 2.87042 24.7884
128 1 3.3106 1.30107 27.1303
129 1 2.8825 4.2431 27.2558
130 1 2.05133 2.59021 29.4441
131 1 1.40245 0.961154 31.7418
132 1 16.2793 3.78894 31.931
133 1 15.7373 2.28411 34.2015
134 1 14.9359 0.56072 36.4864
135 1 14.5607 3.57226 36.4699
136 1 14.1894 1.96642 38.6433
137 1 11.8499 4.32463 8.51444
138 1 10.8182 5.36384 10.9488
139 1 10.5524 3.84765 13.2559
140 1 9.56915 2.34183 15.5506
141 1 9.14338 5.1077 15.5598
142 1 8.77009 3.40611 17.9077
143 1 7.95818 2.07477 20.2674
144 1 7.58579 4.91404 20.1037
145 1 6.94313 3.48318 22.5466
146 1 6.26837 1.88757 24.7784
147 1 6.02322 4.70254 24.803
148 1 5.48031 3.28552 27.2126
149 1 4.72465 1.6495 29.5059
150 1 4.28177 4.43405 29.5305
151 1 3.80006 2.84198 31.7977
152 1 3.08252 1.28656 34.2427
153 1 2.70579 4.08198 34.1023
154 1 1.86366 2.44435 36.5852
155 1 1.29704 0.811141 39.3696
156 1 16.1912 3.67861 38.9477
157 1 15.3538 5.07596 6.21276
158 1 13.4809 4.34206 10.8711
159 1 11.8684 4.12984 15.6561
160 1 10.9335 5.45276 17.9134
161 1 10.3102 3.78013 20.3183
162 1 9.59724 2.35528 22.5283
163 1 9.23695 5.30478 22.3834
164 1 8.62303 3.74735 24.919
165 1 7.95687 2.19513 27.116
166 1 7.73574 5.06503 27.2337
167 1 7.0316 3.64479 29.4557
168 1 6.40558 1.86291 31.7414
169 1 6.01322 4.65484 31.7815
170 1 5.2721 2.97805 34.096
171 1 4.83079 1.43967 36.54
172 1 4.05042 4.53588 36.6579
173 1 3.60849 2.88511 38.6969
174 1 16.801 5.14996 8.68817
175 1 15.1117 4.94723 13.2193
176 1 13.6102 4.49085 18.0473
177 1 11.7252 4.35698 22.6151
178 1 10.8168 5.68007 24.8777
179 1 10.3652 3.9707 27.1334
180 1 9.74369 2.40128 29.2103
181 1 9.26252 5.47083 29.5318
182 1 8.67661 3.74486 31.6894
183 1 8.12415 2.09704 33.9754
184 1 7.36051 4.99381 34.0513
185 1 6.9201 3.34897 36.3567
186 1 6.4661 2.09134 38.8704
187 1 5.52794 4.77984 39.3834
188 1 18.5454 5.4569 10.7966
189 1 16.752 5.17806 15.4625
190 1 15.2739 5.03378 20.3453
191 1 13.4255 4.76559 24.8077
192 1 11.9799 4.20644 29.24
193 1 10.8434 5.67694 31.5663
194 1 10.2463 4.18759 34.088
195 1 9.58833 2.29168 36.2115
196 1 8.90356 5.40137 36.0386
197 1 8.92642 3.61145 38.3416
198 1 18.5995 5.41369 17.8975
199 1 16.97 5.37157 22.5046
200 1 15.211 5.09125 27.0037
201 1 13.5041 4.72207 31.6766
202 1 11.8343 4.43556 36.4793
203 1 10.4346 5.93249 38.3667
204 1 18.5942 5.53532 24.7657
205 1 16.9828 5.34165 29.4322
206 1 15.0753 5.05782 34.1878
207 1 13.0073 4.65868 39.0448
208 1 18.4271 5.67958 31.8189
209 1 16.8308 5.20865 36.6054
210 1 18.1818 5.52094 39.0911
211 2 14.0628 1.59014 102.055
212 1 14.7197 1.28792 99.3811
213 1 3.06369 0.346054 103.069
214 1 2.03562 1.2692 98.8485
215 1 1.15695 1.74408 101.429
216 2 15.5954 0.602474 96.8312
217 1 14.4118 1.45542 94.7049
218 1 5.65817 1.9565 102.688
219 1 6.58137 1.43941 100.108
220 1 1.35441 0.138441 94.6886
221 1 4.22704 2.7578 98.757
222 2 3.93683 1.33133 100.775
223 1 3.84684 1.43717 93.6023
224 1 1.71397 2.86068 95.1747
225 1 15.4393 0.899299 90.7055
226 1 2.57902 1.94584 90.5756
227 2 1.08779 1.90942 92.7944
228 1 15.76 1.12354 88.0167
229 1 7.93817 0.691506 95.5557
230 1 6.8959 1.50475 88.9473
231 1 8.5338 6.72772 90.0362
232 1 11.7976 4.97156 103.2
233 1 3.26707 3.25197 102.375
234 1 8.02083 3.3268 101.731
235 1 5.90062 4.68609 103.084
236 2 7.74279 0.701996 102.279
237 2 5.261 3.86576 100.694
238 1 6.95463 3.94856 98.6193
239 2 6.13727 1.75479 97.4314
240 1 4.41642 2.78047 95.9961
241 1 11.9608 2.12465 103.061
242 1 9.80732 1.52334 100.719
243 1 14.0583 6.15065 98.7616
244 2 11.255 1.797 98.711
245 1 9.90093 4.15546 99.5317
246 1 8.74517 2.16411 97.5926
247 1 10.7413 0.748365 96.5226
248 1 7.21507 3.42212 95.6702
249 1 11.05 3.49175 96.8476
250 2 8.87337 4.72323 97.1569
251 1 7.8428 3.5338 92.793
252 2 8.4571 1.94359 90.8307
253 1 9.71163 4.20473 90.8345
254 1 5.83494 2.02398 91.5589
255 1 8.16196 0.614986 92.9032
256 1 9.75618 4.05995 94.7274
257 1 6.89683 4.1411 89.9598
258 1 9.27635 2.75919 88.4704
259 1 12.4796 2.66866 100.598
260 2 10.3877 3.43304 102.074
261 1 12.0608 5.42042 100.547
262 2 12.9008 3.9236 98.5771
263 1 14.732 4.11795 100.46
264 1 11.241 6.13392 97.9381
265 1 13.3179 4.90059 96.2372
266 2 6.20372 1.792 94.1151
267 2 4.61294 2.75138 89.1932
268 1 10.4784 5.47447 88.4078
269 1 17.4291 4.27401 99.8602
270 1 13.2324 2.11725 97.029
271 1 10.3639 2.17943 92.7196
272 1 11.2062 1.6115 90.0825
273 2 13.8947 2.30813 89.3648
274 1 11.8163 3.23825 87.8876
275 2 2.64861 4.01249 97.1926
276 1 15.4168 3.65394 97.8707
277 1 15.9619 5.2618 95.7652
278 2 12.0025 2.47441 94.7756
279 1 13.1722 2.34606 92.1308
280 2 14.0145 6.484 94.1498
281 1 11.9147 4.63853 92.9245
282 1 12.565 4.31283 90.2434
283 1 14.7766 3.98569 93.5493
284 1 15.5189 3.5174 90.9505
285 1 9.1241 0.0573256 89.0745
286 1 14.2623 6.01458 102.499
287 1 5.26995 0.048759 95.8174
288 2 16.6044 4.63937 102.44
289 1 16.1407 6.71192 100.631
290 1 4.599 5.53474 98.7727
291 1 3.79488 5.88228 101.568
292 1 16.9497 6.30088 98.0061
293 1 12.4998 -0.0513556 93.4429
294 1 16.971 6.17434 90.7569
295 1 14.2809 6.12249 91.5815
296 2 15.2586 5.4298 89.0017
297 1 5.21918 4.00609 93.585
298 1 18.465 5.19926 95.029
299 1 2.36373 4.08022 92.6229
300 1 4.28909 4.75615 90.715
301 2 3.67796 6.28559 92.7199
302 1 9.25281 5.82301 102.022
303 1 6.61162 5.99181 96.8361
304 1 6.71776 5.90837 100.735
305 1 8.58806 6.68713 98.6704
306 2 7.55115 5.56803 94.4108
307 1 6.46811 6.26623 92.1237
308 1 2.21662 3.88136 88.9532
309 2 5.98232 6.48329 89.3488
310 1 9.5577 6.17047 92.8748
311 2 11.0549 6.28872 90.7884
312 1 4.84172 4.9449 87.9223
313 1 3.23409 1.3536 87.6686
314 1 12.9723 0.882999 87.2707
315 2 12.3961 0.0977555 84.7495
316 1 14.1043 0.288294 82.7167
317 1 5.73671 2.51765 83.0105
318 1 1.89018 0.273997 83.5323
319 2 0.602782 0.844959 81.2197
320 1 18.777 6.17558 76.8795
321 1 1.51271 0.153125 75.1524
322 1 1.33291 -0.0437952 78.8753
323 1 14.037 0.0949993 74.06
324 1 3.9122 1.6063 85.047
325 2 4.46562 0.405639 82.8392
326 1 6.48035 0.50439 84.7518
327 1 2.89711 2.3928 82.0678
328 1 5.0059 1.21076 80.5309
329 1 2.27341 1.37876 72.6064
330 1 9.25306 0.471244 84.011
331 2 9.5183 -0.196011 81.3705
332 1 7.14678 -0.0267641 82.271
333 1 7.66031 1.31336 79.8724
334 2 5.70887 2.50694 78.3038
335 1 3.61494 0.709131 77.0467
336 1 4.46052 0.189891 74.4013
337 1 6.54863 0.187247 77.6265
338 1 11.2585 6.3392 74.9875
339 1 5.87281 2.37832 86.7297
340 1 16.5582 2.73901 79.8217
341 2 8.19429 1.01056 86.7138
342 2 9.7288 4.22365 86.3181
343 1 8.05412 2.88862 84.6659
344 1 11.675 1.84509 82.7602
345 1 10.8628 2.19146 85.3643
346 1 10.4165 4.29621 83.5382
347 1 8.69044 2.48054 81.9865
348 1 8.35618 2.58547 77.6126
349 1 8.82547 2.17897 74.9458
350 1 6.0867 2.10531 75.5548
351 2 7.03171 1.48826 72.9804
352 1 14.3432 3.52427 87.0083
353 1 13.0942 4.33705 83.0267
354 1 12.2445 5.05727 85.6694
355 2 11.2936 3.81494 81.043
356 1 10.252 4.22984 78.4748
357 1 16.646 4.90688 86.7371
358 1 17.6132 4.34686 84.124
359 1 12.1774 0.0672943 77.6512
360 1 10.2297 1.22195 79.272
361 1 12.3814 2.79326 78.7671
362 1 9.47191 0.0361274 76.6536
363 1 11.3137 0.651592 74.662
364 2 10.8241 2.28218 76.7559
365 1 1.22258 2.25655 85.5883
366 1 15.3989 5.71817 82.5426
367 2 14.8332 4.43894 84.7374
368 1 13.8064 2.56002 80.8773
369 1 13.8657 2.05123 84.6312
370 1 15.6055 2.94084 82.7593
371 2 14.565 1.63959 78.4705
372 1 13.4868 2.21934 76.1177
373 1 14.5692 4.21056 77.6528
374 1 12.5015 5.57855 79.1314
375 1 9.42139 0.04863 72.9542
376 1 11.1348 3.60458 74.7028
377 2 13.1223 2.25455 73.4749
378 1 13.6338 4.62581 74.7297
379 2 12.1669 4.62997 76.8122
380 1 11.2327 3.52091 72.1477
381 1 3.98203 3.80849 79.6641
382 1 16.4092 2.25138 77.0352
383 1 2.55077 4.06739 72.9855
384 1 15.4722 2.71845 74.1592
385 2 2.65849 2.37495 74.9897
386 1 12.0693 0.681199 71.8737
387 1 14.4796 6.37726 86.5791
388 1 18.9761 6.22624 85.7691
389 2 3.51236 3.63843 86.4267
390 2 17.283 4.72098 81.452
391 1 15.249 5.18957 79.9324
392 1 7.69141 5.10139 87.5744
393 1 5.55795 4.41008 85.0111
394 2 7.10115 4.61456 82.8848
395 1 4.53487 4.90632 82.1044
396 1 6.62618 3.69367 80.6221
397 1 17.9654 6.38569 79.9018
398 1 6.80975 6.27112 81.0225
399 2 4.21862 4.66295 74.7681
400 1 16.7575 4.61775 75.6206
401 1 3.74017 3.35459 76.9932
402 1 4.87813 5.46205 72.5008
403 1 8.24613 5.59424 84.7701
404 2 6.07358 6.55492 86.1519
405 2 17.2126 4.4872 78.2324
406 2 15.6717 5.31061 73.2089
407 1 9.19594 5.01254 81.23
408 1 6.13068 4.72641 76.8906
409 1 6.99003 4.41327 74.1849
410 2 9.50418 4.59428 73.3935
411 1 7.47112 5.87746 71.9266
412 2 7.70836 5.41267 78.8762
413 1 8.91848 4.92777 76.2024
414 1 4.76531 2.68971 73.2321
415 2 1.50173 0.494587 70.2879
416 1 5.88038 6.57228 67.5703
417 1 9.99574 5.82353 70.9988
418 1 8.51649 6.60098 66.7696
419 1 3.9543 0.593143 69.5883
420 2 6.75797 6.12322 64.9771
421 1 5.73286 6.96098 62.7409
422 1 8.25792 0.789542 70.7856
423 1 9.19948 0.1045 68.1783
424 1 8.16854 5.57847 62.8667
425 1 6.8545 1.55134 66.8495
426 2 6.5494 0.142529 68.8417
427 1 6.58947 0.33369 61.6928
428 1 4.42605 1.49043 63.139
429 1 6.84142 6.17021 58.832
430 1 5.57873 0.556583 58.7643
431 2 3.9098 0.5153 60.7561
432 1 6.814 5.82719 56.2156
433 1 14.6666 5.90674 63.7656
434 1 9.62284 0.0176951 57.1589
435 1 11.326 5.31214 58.2922
436 1 13.9848 4.05905 71.8648
437 1 5.92722 2.0439 70.6387
438 1 10.5519 2.12927 69.7945
439 1 8.49964 3.37461 71.3178
440 2 14.3353 6.10161 70.5499
441 2 7.94087 2.46588 68.9128
442 1 9.5008 2.56619 66.8812
443 2 8.8814 0.547824 65.528
444 1 7.1719 1.67071 64.1988
445 1 14.8788 1.26879 71.631
446 1 16.2673 6.75872 68.9421
447 1 16.5467 4.74778 67.1114
448 2 13.8728 0.219841 66.9068
449 1 12.5487 2.5532 67.7223
450 1 11.2745 0.624656 66.1958
451 1 17.3906 5.98965 64.683
452 1 10.2036 1.94428 63.8855
453 1 13.6465 1.94862 65.0983
454 2 11.4238 3.31766 65.2474
455 1 10.5579 2.30359 61.0243
456 2 11.2772 0.617955 58.9455
457 1 12.5674 2.8044 59.0223
458 1 8.53594 0.759947 59.6569
459 1 14.8865 5.97815 60.9912
460 1 12.5967 2.99151 62.9121
461 1 9.88462 2.85131 58.2277
462 1 11.9034 1.49808 56.4873
463 1 15.0139 1.23367 68.8691
464 2 13.0264 2.45093 70.3801
465 1 14.6213 4.08429 68.9229
466 2 15.349 2.54862 66.8284
467 1 1.87179 2.72768 68.712
468 1 13.6794 4.62562 66.1117
469 1 16.0638 3.50273 64.6446
470 2 8.99881 0.53333 62.3635
471 2 7.47523 1.14408 57.3067
472 1 13.4461 4.01155 56.6925
473 1 4.69429 2.75899 68.1272
474 1 0.565216 0.57509 65.0455
475 1 13.1951 0.887794 60.8532
476 1 13.846 0.266438 58.3896
477 2 0.864395 0.215884 57.5354
478 1 14.4216 1.54827 55.8513
479 2 5.27435 2.64534 65.39
480 1 2.69356 2.34282 66.1187
481 1 3.36167 3.79589 63.8511
482 2 14.8815 1.54738 62.7966
483 1 0.579338 0.86393 60.2103
484 2 16.531 4.89638 62.3956
485 1 14.7611 3.37597 60.8427
486 1 15.3631 2.76106 58.1837
487 1 2.38461 2.70478 61.4637
488 1 3.0647 2.1229 58.834
489 1 15.8329 5.24004 57.2468
490 1 16.6683 4.58223 70.8127
491 1 11.6524 5.56265 64.0309
492 2 3.53468 3.16807 70.8373
493 1 3.42015 5.25267 68.8635
494 1 7.09802 4.25604 66.9018
495 1 6.29343 4.61314 69.6037
496 1 4.21858 4.89583 66.226
497 1 3.82813 5.23261 61.5389
498 1 4.5804 4.66112 58.9604
499 1 17.0499 4.63737 59.7643
500 2 2.86361 4.08259 57.1192
501 1 8.02503 2.83881 61.7366
502 1 5.84023 3.94523 63.2013
503 1 5.20643 2.70066 60.8526
504 1 7.25451 3.25321 58.8475
505 2 6.56402 4.79133 60.9875
506 1 12.1324 4.64911 69.8222
507 1 8.98958 4.398 65.0284
508 1 9.29657 4.58897 68.7161
509 1 11.2036 5.21065 66.8727
510 2 10.0981 4.18391 62.643
511 1 9.1279 4.94911 60.2461
512 1 5.21346 2.77847 57.0308
513 2 8.80472 4.94254 57.6092
514 1 12.2684 4.89725 60.9277
515 2 13.8952 5.05855 59.0059
516 1 8.09962 3.12224 55.934
517 1 5.48194 0.0530745 56.1467
518 1 4.198 5.81386 55.2075
519 2 3.75073 5.00951 52.9528
520 1 5.36437 4.91077 51.1106
521 1 8.33355 0.472823 51.2319
522 1 8.37523 4.8934 51.8299
523 2 7.2744 5.58372 49.4723
524 1 6.15294 4.3953 45.2016
525 1 8.34695 5.26568 43.1533
526 1 8.19421 5.19122 46.9578
527 1 5.42181 5.26906 42.2423
528 1 10.3762 6.40707 53.0568
529 2 10.9655 5.04783 51.0696
530 1 12.8889 5.08681 52.8916
531 1 5.44485 0.365976 50.2631
532 1 11.6163 5.70631 48.8138
533 1 9.04037 6.52835 40.8121
534 1 15.7531 5.18279 52.3737
535 2 16.4094 5.24986 49.7467
536 1 13.7371 4.56134 50.387
537 1 14.3482 6.15459 48.1573
538 2 8.18412 0.47846 46.703
539 1 10.3338 5.71109 45.1052
540 1 11.3324 5.37034 42.6127
541 1 13.3023 4.96499 45.795
542 1 14.1908 4.64487 43.2393
543 1 8.2287 0.102372 54.9873
544 1 3.39383 1.22508 48.0667
545 2 14.7197 5.67439 54.8253
546 2 12.6706 2.98688 54.4542
547 1 10.4143 0.884909 53.2118
548 1 14.1662 -0.152936 51.2346
549 1 13.3307 0.409988 53.7728
550 1 13.0508 2.39469 51.8911
551 1 11.1478 0.555822 50.6554
552 1 10.7097 0.999806 45.926
553 1 11.434 0.391369 43.345
554 1 8.86826 0.316637 43.9098
555 2 13.7034 6.53282 41.1511
556 1 1.75392 1.7068 55.3948
557 1 15.7941 2.51948 51.0063
558 1 14.9728 2.9252 53.5822
559 2 13.761 1.45516 49.285
560 1 12.8637 2.56169 46.8342
561 1 3.93986 3.0524 54.8287
562 1 4.94769 2.41634 52.2968
563 1 3.75532 5.1693 45.9244
564 1 16.8497 6.46106 47.4381
565 1 15.2052 1.0822 47.0925
566 1 16.0999 5.08206 45.3573
567 1 18.1081 5.75672 43.2836
568 2 13.4789 0.514431 45.2211
569 1 3.85578 0.419686 53.7024
570 1 2.83412 3.79307 51.0099
571 2 2.35746 2.49225 53.0521
572 1 4.75175 6.56487 49.126
573 1 1.07118 0.402241 52.933
574 1 2.82473 0.914873 50.9852
575 2 5.8455 6.44573 46.784
576 1 0.888848 0.619848 44.2961
577 1 2.017 2.52288 45.9635
578 1 15.3561 3.64552 47.8746
579 1 16.0926 5.22212 41.399
580 1 13.6978 1.94088 43.2972
581 2 15.5099 0.621515 41.7924
582 1 16.5642 3.22221 43.1751
583 2 14.834 2.85888 45.3311
584 1 14.724 2.9185 41.0178
585 1 6.08312 1.40342 47.9073
586 1 3.79911 0.585225 45.0825
587 1 5.07789 2.59702 41.1395
588 1 2.89479 1.0101 42.0688
589 2 5.49722 0.797442 43.0145
590 1 13.2833 0.844288 40.8707
591 1 16.9565 4.44196 54.6472
592 1 6.17648 4.29031 53.9929
593 2 6.17455 1.91981 54.6871
594 2 4.57856 2.64028 49.695
595 1 2.7861 3.98451 48.3283
596 1 10.8272 4.1818 55.7926
597 1 8.04235 2.37974 53.1347
598 2 9.59524 2.61595 51.1557
599 1 7.02236 2.9782 50.1559
600 1 8.96825 1.69833 48.809
601 1 5.72502 4.18456 48.1479
602 1 9.39946 4.25332 49.0897
603 2 6.90087 3.15869 43.1463
604 1 4.03573 3.10323 43.6035
605 1 6.5 1.73865 45.2396
606 1 7.76755 3.98176 40.8461
607 1 10.5984 3.61764 53.1146
608 2 8.6785 4.95534 54.365
609 2 4.44821 2.79324 46.3338
610 2 2.79042 3.70363 41.123
611 1 11.7239 2.94452 49.362
612 1 8.91003 3.13359 45.0838
613 1 9.64302 2.7342 42.5469
614 2 12.1269 2.91255 41.7828
615 1 10.4717 4.24662 40.4519
616 2 10.6403 3.88191 47.0058
617 1 11.6588 3.23668 44.5058
618 1 7.56295 1.09031 41.3278
ITEM: TIMESTEP
2500
ITEM: NUMBER OF ATOMS
618
ITEM: BOX BOUNDS xy xz yz pp pp ff
0.0000000000000000e+00 1.9317770367296919e+01 4.0025167278329121e+00
0.0000000000000000e+00 6.6702723500479264e+00 0.0000000000000000e+00
0.0000000000000000e+00 1.0921147561319708e+02 0.0000000000000000e+00
ITEM: ATOMS id type x y z
1 1 4.83748 5.7155 6.1683
2 1 6.57805 6.17958 8.62581
3 1 4.70724 5.69154 13.3306
4 1 5.63007 -0.0994772 6.18409
5 1 8.23081 6.42283 10.9143
6 1 6.48916 5.9803 15.6237
7 1 4.81909 5.92167 20.1757
8 1 12.528 5.82164 6.34449
9 1 7.46277 0.402121 8.57782
10 1 5.89898 0.0440276 13.3059
11 1 4.24088 -0.0718061 17.8695
12 1 6.53227 6.26724 22.5533
13 1 4.73786 5.86941 27.21
14 1 10.8924 0.905027 6.0702
15 1 14.2812 6.17376 8.65559
16 1 9.2032 0.769508 10.9821
17 1 12.5033 5.82147 13.2211
18 1 7.60739 0.382249 15.6375
19 1 5.76476 0.376769 20.406
20 1 8.14621 6.7028 24.9976
21 1 6.75526 6.30899 29.5944
22 1 4.65842 6.11239 34.3017
23 1 13.6318 0.134403 6.11631
24 1 12.8815 3.00384 5.98919
25 1 12.3392 1.30177 8.50932
26 1 15.9341 6.43645 10.867
27 1 11.3691 2.54386 11.0029
28 1 10.8092 0.919923 13.2765
29 1 14.2693 6.01422 15.5495
30 1 8.97908 0.686597 18.0333
31 1 12.4331 5.87276 20.2538
32 1 7.44926 0.482293 22.5377
33 1 5.99758 0.1861 27.226
34 1 8.32764 6.65348 31.7934
35 1 6.37351 6.47329 36.3302
36 1 15.6231 2.16845 6.01832
37 1 15.0698 0.414669 8.48331
38 1 14.5715 3.23345 8.63997
39 1 14.1613 1.69925 10.9081
40 1 13.5067 0.165629 13.2644
41 1 12.955 2.9228 13.2533
42 1 12.4788 1.25076 15.7216
43 1 11.8242 -0.306029 18.0296
44 1 11.1767 2.56054 17.9349
45 1 10.6721 1.08798 20.2571
46 1 14.1255 6.14725 22.7212
47 1 9.07766 0.823488 24.8351
48 1 12.5675 5.84617 27.1066
49 1 7.45511 0.453954 29.4906
50 1 5.70149 0.337507 34.1276
51 1 7.74181 6.37429 38.6758
52 1 2.92061 0.83612 6.15427
53 1 2.6049 3.8581 6.25754
54 1 1.87655 2.21942 8.66864
55 1 1.3484 0.677878 10.944
56 1 16.3916 3.55368 10.8451
57 1 15.7279 1.76513 13.4184
58 1 15.2106 0.447995 15.7186
59 1 14.7339 3.25209 15.5137
60 1 13.9649 1.72544 18.0537
61 1 13.4116 0.144078 20.3639
62 1 12.9679 2.91218 20.1189
63 1 12.2532 1.2925 22.6356
64 1 15.7177 6.45567 24.9649
65 1 11.3689 2.6785 24.872
66 1 10.844 1.14419 27.2969
67 1 14.0188 6.34454 29.315
68 1 9.07009 0.837575 31.8163
69 1 12.6503 6.03279 34.0622
70 1 7.30649 0.734962 36.3284
71 1 5.33924 2.91066 6.17205
72 1 4.7018 1.37187 8.60987
73 1 4.29602 4.19571 8.712
74 1 3.64979 2.68948 10.9272
75 1 3.24118 0.880608 13.2712
76 1 2.58103 3.72288 13.3697
77 1 2.09373 2.07161 15.6822
78 1 1.57328 0.802712 18.0307
79 1 16.3408 3.47084 17.8882
80 1 15.8068 2.11678 20.3764
81 1 15.0952 0.498338 22.6143
82 1 14.7468 3.30648 22.5007
83 1 14.0015 1.79309 24.8218
84 1 13.4354 0.187652 27.1773
85 1 12.7792 2.98943 27.1289
86 1 12.4584 1.54448 29.5942
87 1 15.8641 6.50419 31.6966
88 1 11.4029 2.6423 31.8007
89 1 10.7147 1.14622 34.0665
90 1 13.9187 6.33534 36.4643
91 1 8.78537 0.940276 39.0097
92 1 8.03712 2.04505 5.86919
93 1 7.49432 4.81851 5.92035
94 1 6.91008 3.17719 8.69948
95 1 6.45805 1.62536 10.9706
96 1 5.90707 4.46355 10.8965
97 1 5.34815 2.8526 13.1438
98 1 4.78302 1.37109 15.4704
99 1 4.34661 4.1746 15.4723
100 1 3.72033 2.85827 17.7524
101 1 3.12559 1.15228 20.2772
102 1 2.77453 4.09908 20.305
103 1 2.15073 2.4046 22.6388
104 1 1.43289 0.941821 24.9349
105 1 16.3002 3.63562 24.878
106 1 15.4995 1.97743 27.3143
107 1 15.0976 0.569197 29.6361
108 1 14.5224 3.28446 29.4578
109 1 14.0209 1.84996 31.7093
110 1 17.3953 7.08938 34.2753
111 1 12.9591 3.07936 34.16
112 1 12.0212 1.52608 36.636
113 1 15.3184 6.36149 39.0271
114 1 11.3646 2.34723 39.1533
115 1 10.2432 3.90671 6.12645
116 1 9.57164 2.34084 8.49792
117 1 9.27634 5.20177 8.59074
118 1 8.65867 3.58123 10.9093
119 1 8.02511 1.97474 13.2974
120 1 7.40008 4.83442 13.2749
121 1 7.10498 3.21618 15.4735
122 1 6.26511 1.80892 17.8484
123 1 5.72567 4.64227 17.9647
124 1 5.27042 3.04749 20.1347
125 1 4.75934 1.65653 22.6885
126 1 4.27594 4.34721 22.6693
127 1 3.78108 2.79772 24.8367
128 1 3.04553 1.21951 27.2779
129 1 2.56661 3.95941 27.2247
130 1 2.12502 2.4148 29.6199
131 1 1.49018 0.988483 31.8635
132 1 16.3923 3.79741 31.7181
133 1 15.5954 2.25728 34.1069
134 1 15.0698 0.632192 36.7116
135 1 14.4849 3.34994 36.5163
136 1 13.8764 1.82177 38.5841
137 1 11.8372 4.07255 8.64705
138 1 11.0021 5.52371 10.8684
139 1 10.2467 3.88739 13.274
140 1 9.81297 2.25589 15.6442
141 1 9.22542 5.19793 15.5528
142 1 8.43955 3.7381 17.9154
143 1 8.11084 2.09075 20.0935
144 1 7.46424 4.91904 20.1696
145 1 7.07779 3.43363 22.4303
146 1 6.53889 1.78659 24.9582
147 1 5.92149 4.67919 25.0098
148 1 5.37923 3.04817 27.278
149 1 4.81916 1.5782 29.44
150 1 4.32666 4.31976 29.4651
151 1 3.64109 2.85885 31.9166
152 1 3.0617 1.3279 34.1033
153 1 2.48982 4.09585 34.34
154 1 1.99873 2.74085 36.7792
155 1 1.11191 1.00673 39.2281
156 1 16.2051 3.8966 38.945
157 1 14.9748 4.70158 6.06624
158 1 13.664 4.71289 10.9987
159 1 12.0387 4.26046 15.5417
160 1 10.8614 5.58523 17.9215
161 1 10.1964 4.10726 20.172
162 1 9.69739 2.43902 22.4603
163 1 9.27608 5.40828 22.6604
164 1 8.67592 3.73449 24.8279
165 1 8.28399 2.14436 27.2678
166 1 7.46003 4.94099 27.2539
167 1 7.05341 3.37505 29.5627
168 1 6.39904 1.99189 31.8685
169 1 5.89579 4.90527 31.9109
170 1 5.27984 3.39285 34.1138
171 1 4.54431 1.62071 36.4333
172 1 4.34972 4.48437 36.7591
173 1 3.55002 2.60906 39.098
174 1 16.871 5.23166 8.46632
175 1 15.418 4.75083 13.259
176 1 13.551 4.41346 17.8728
177 1 11.9669 4.28822 22.4422
178 1 10.8945 5.63449 24.8836
179 1 10.1952 3.96602 27.1998
180 1 9.76906 2.54687 29.6209
181 1 9.20525 5.23228 29.448
182 1 8.53053 3.79178 31.7461
183 1 7.86882 2.25829 34.0309
184 1 7.64788 5.23568 34.0742
185 1 7.027 3.53893 36.4865
186 1 6.26659 2.06509 38.8202
187 1 5.36011 4.87001 39.2532
188 1 18.5534 5.53564 10.918
189 1 16.9692 5.06294 15.6655
190 1 15.1772 4.91413 20.1676
191 1 13.6235 4.47723 24.9089
192 1 12.0381 4.40275 29.6764
193 1 10.9144 5.74189 31.9287
194 1 10.2713 3.9805 33.9135
195 1 9.54935 2.51107 36.1489
196 1 9.14146 5.38237 36.4198
197 1 8.83346 3.51034 38.4435
198 1 18.5016 5.61555 17.9593
199 1 16.8923 5.33151 22.6089
200 1 15.2791 5.02796 27.2165
201 1 13.662 4.67316 31.9464
202 1 11.9075 4.52299 36.1972
203 1 10.8855 6.02361 38.5024
204 1 18.5489 5.7094 24.8921
205 1 16.9065 5.2918 29.5059
206 1 15.2718 4.96399 34.1061
207 1 13.1818 4.71995 39.1584
208 1 18.5956 5.8428 31.8282
209 1 16.7126 5.35536 36.6505
210 1 18.2507 5.65114 39.011
211 2 14.0639 1.69657 102.058
212 1 14.5474 1.38139 99.314
213 1 3.24839 0.550936 103.098
214 1 1.87736 1.34134 98.6801
215 1 1.10969 1.86265 101.318
216 2 15.4481 0.738897 96.7506
217 1 14.5104 1.41579 94.3105
218 1 5.74715 1.81773 102.637
219 1 6.47961 1.42314 100.004
220 1 1.34761 0.0787961 94.5211
221 1 4.3045 2.75739 98.6259
222 2 3.83403 1.42449 100.795
223 1 3.67802 1.42014 93.5226
224 1 1.67251 2.89611 95.0484
225 1 15.4038 0.631933 90.6977
226 1 2.87244 2.04185 90.602
227 2 1.14344 1.8117 92.6176
228 1 15.8615 1.17081 88.0433
229 1 8.16443 0.967153 95.6054
230 1 6.90381 1.3162 88.868
231 1 8.58452 6.6236 89.8866
232 1 11.7484 5.00162 103.336
233 1 3.28434 3.42118 102.304
234 1 7.8591 3.43903 101.796
235 1 5.8014 4.74584 103.257
236 2 7.72175 0.626834 102.125
237 2 5.39031 3.73567 100.818
238 1 6.89692 4.12427 98.6084
239 2 6.2802 1.76492 97.2802
240 1 4.31598 2.9492 95.9026
241 1 12.1855 2.07498 103.185
242 1 9.79584 1.69702 100.869
243 1 14.0427 6.38359 98.5448
244 2 11.3424 1.76903 98.5999
245 1 9.77262 4.04161 99.5597
246 1 8.59246 1.99529 98.0209
247 1 10.9011 0.919274 96.3687
248 1 7.17854 3.47218 95.7999
249 1 10.961 3.54428 96.8278
250 2 8.8864 4.73277 97.0967
251 1 7.88359 3.50415 92.8733
252 2 8.44554 2.12867 90.8304
253 1 9.87753 4.2245 91.0568
254 1 5.82104 2.03803 91.5702
255 1 8.10916 0.75814 92.853
256 1 9.76844 4.12207 94.6797
257 1 6.84356 3.98902 89.9409
258 1 9.01969 2.91861 88.5666
259 1 12.2794 2.78763 100.519
260 2 10.4926 3.69565 102.054
261 1 12.3121 5.44987 100.528
262 2 12.8789 4.18939 98.4328
263 1 14.6385 4.14057 100.395
264 1 11.0697 6.04891 97.8508
265 1 13.2454 4.86823 96.0223
266 2 6.06467 1.82076 94.164
267 2 4.79559 2.689 89.1528
268 1 10.5165 5.35051 88.5412
269 1 17.4143 4.10849 99.795
270 1 13.2313 2.10427 96.9385
271 1 10.5077 1.99652 92.5671
272 1 11.1265 1.83756 89.9145
273 2 13.721 2.03157 89.1503
274 1 11.6931 3.15566 87.7693
275 2 2.63045 4.04199 97.1877
276 1 15.3473 3.65998 97.7576
277 1 15.8362 5.21403 95.7283
278 2 12.1662 2.60894 94.5001
279 1 13.212 2.19004 91.9345
280 2 13.9973 6.60648 94.171
281 1 12.0491 4.66977 92.7795
282 1 12.6846 4.34326 90.1553
283 1 14.8905 4.01346 93.385
284 1 15.5817 3.45685 90.7162
285 1 9.16637 0.082149 89.0653
286 1 14.2307 6.34621 102.751
287 1 5.21409 0.24219 95.683
288 2 16.5842 4.951 102.11
289 1 16.0855 6.74315 100.559
290 1 4.51978 5.58879 98.8787
291 1 3.82542 6.06061 101.46
292 1 16.8014 6.13737 98.041
293 1 12.4416 -0.140338 93.3992
294 1 17.0388 6.03867 90.653
295 1 14.4768 5.97687 91.4226
296 2 15.4026 5.50908 88.8051
297 1 5.3405 4.10184 93.5917
298 1 18.3905 5.46129 95.0237
299 1 2.48825 3.84916 92.6864
300 1 4.3614 4.60188 90.7032
301 2 3.70944 6.00502 92.6491
302 1 9.51275 5.94486 101.692
303 1 6.471 6.07218 96.7665
304 1 6.65915 6.01064 100.797
305 1 8.47184 6.65115 98.5989
306 2 7.4932 5.63745 94.4046
307 1 6.42391 6.24779 91.8929
308 1 2.3244 3.94465 88.8699
309 2 6.08203 6.46962 89.3342
310 1 9.44976 6.20701 92.8141
311 2 11.1066 6.37463 90.8338
312 1 4.91198 5.00045 87.7922
313 1 3.44746 1.3866 87.6867
314 1 13.0522 0.948714 87.0388
315 2 12.5915 0.0760628 84.7433
316 1 13.9724 0.244042 82.7056
317 1 5.81826 2.33834 82.8658
318 1 1.76272 0.179501 83.6106
319 2 0.610766 0.891216 81.2363
320 1 18.7233 6.23318 76.8303
321 1 1.35138 0.232083 74.7955
322 1 1.40503 -0.139346 78.741
323 1 13.9171 0.105823 73.9692
324 1 3.91555 1.66973 84.846
325 2 4.48362 0.166929 82.8898
326 1 6.46422 0.193729 84.8145
327 1 2.99215 2.21467 81.9594
328 1 4.9294 1.18756 80.3616
329 1 2.23767 1.45987 72.5305
330 1 8.9784 0.340455 84.0582
331 2 9.32031 -0.176164 81.2686
332 1 6.99337 -0.107813 82.0453
333 1 7.47562 1.19715 79.7291
334 2 5.69914 2.63364 78.2963
335 1 3.58421 0.588959 76.8528
336 1 4.32026 0.312392 74.2769
337 1 6.41946 -0.0574795 77.4829
338 1 11.3198 6.28057 74.835
339 1 5.96859 2.45956 86.7431
340 1 16.4499 2.68624 79.7458
341 2 8.22457 0.930615 86.7299
342 2 9.79417 4.24739 86.1973
343 1 7.90184 2.82029 84.6759
344 1 11.5595 1.79868 82.7227
345 1 10.8952 2.15912 85.3757
346 1 10.2986 4.12173 83.3499
347 1 8.59745 2.34205 82.0547
348 1 8.12724 2.50837 77.4165
349 1 8.785 2.0617 74.7867
350 1 5.8934 1.94441 75.5536
351 2 6.98796 1.34602 72.9419
352 1 14.3469 3.531 87.0089
353 1 13.0836 4.35369 82.8363
354 1 12.3344 4.57681 85.3425
355 2 11.2405 3.55712 80.8214
356 1 10.1813 4.06677 78.4348
357 1 16.6605 4.95453 86.6755
358 1 17.8419 4.38217 84.0428
359 1 12.1861 0.180078 77.823
360 1 10.0392 1.31411 79.2352
361 1 12.3579 2.79421 78.6381
362 1 9.38488 -0.0173836 76.6794
363 1 11.31 0.576397 74.7669
364 2 10.6213 2.10874 76.9517
365 1 1.27291 2.37589 85.6716
366 1 15.452 5.78287 82.783
367 2 15.0501 4.38762 84.7904
368 1 13.6579 2.41583 80.895
369 1 13.8377 2.31801 84.5637
370 1 15.6413 2.96002 82.6611
371 2 14.6497 1.50699 78.5154
372 1 13.3523 2.22239 75.9542
373 1 14.77 4.23911 77.5971
374 1 12.585 5.46717 79.0593
375 1 9.4642 0.186728 72.8118
376 1 11.0095 3.61434 74.6682
377 2 12.9852 2.52267 73.3815
378 1 13.8043 4.7033 74.7489
379 2 12.1345 4.44629 76.753
380 1 11.0684 3.48502 71.9864
381 1 3.92962 3.81281 79.5183
382 1 16.5574 2.16351 76.9185
383 1 2.48497 4.00409 72.8985
384 1 15.5124 2.82343 74.039
385 2 2.83291 2.38148 74.8703
386 1 12.1124 0.819372 71.8279
387 1 14.3679 6.40073 86.5111
388 1 19.0611 6.38012 85.552
389 2 3.50779 3.69401 86.3951
390 2 17.3029 4.47228 81.4346
391 1 15.1853 5.2195 80.0953
392 1 7.84169 5.16944 87.6266
393 1 5.42874 4.40481 84.8475
394 2 7.06276 4.56179 82.8224
395 1 4.54855 4.99159 81.8944
396 1 6.65031 3.56679 80.5111
397 1 18.0244 6.30815 80.0236
398 1 6.86968 6.22626 80.9565
399 2 4.06763 4.72581 74.8311
400 1 16.8868 4.57705 75.6428
401 1 3.86963 3.36642 76.9171
402 1 4.76581 5.54607 72.5233
403 1 8.13811 5.47752 84.8352
404 2 6.1409 6.58529 86.2384
405 2 17.2375 4.53438 78.2663
406 2 15.741 5.28727 73.2481
407 1 9.11427 4.85636 81.0754
408 1 6.13923 4.73353 76.636
409 1 6.78774 4.16515 73.9517
410 2 9.42749 4.94087 73.3717
411 1 7.36201 5.83724 71.8802
412 2 7.92487 5.39658 78.6727
413 1 8.76771 4.90389 75.8839
414 1 4.72323 2.73993 73.088
415 2 1.45039 0.308405 70.2998
416 1 5.84562 6.43667 67.6466
417 1 10.017 5.98068 71.1327
418 1 8.55776 6.74097 66.7754
419 1 3.91063 0.342389 69.5682
420 2 6.97396 5.97103 65.0367
421 1 6.05889 6.98223 62.7652
422 1 8.1984 0.846936 70.7278
423 1 9.14389 0.226525 68.1699
424 1 8.25132 5.39242 62.6953
425 1 6.9204 1.5481 66.752
426 2 6.53726 0.0841647 68.8661
427 1 6.50578 0.153299 61.8696
428 1 4.56361 1.5904 63.2726
429 1 6.95138 6.21386 58.9079
430 1 5.49948 0.6817 58.824
431 2 3.93207 0.545992 60.9545
432 1 6.80779 5.52235 56.2818
433 1 14.5802 5.69444 63.7058
434 1 9.65707 0.045599 57.0431
435 1 11.3114 5.63695 58.1661
436 1 13.8806 4.13584 71.7368
437 1 5.92099 2.05285 70.5853
438 1 10.5961 2.16424 69.6329
439 1 8.44006 3.43698 71.3828
440 2 14.3284 6.18141 70.4254
441 2 7.89046 2.48415 68.8941
442 1 9.59776 2.56814 66.8196
443 2 8.97315 0.308001 65.5173
444 1 7.35991 1.74468 64.0492
445 1 14.9495 1.53832 71.6577
446 1 16.2688 6.8318 68.8823
447 1 16.6717 4.83192 66.9696
448 2 13.8914 0.390503 66.9104
449 1 12.638 2.664 67.5921
450 1 11.3593 0.699263 66.0104
451 1 17.4265 6.06315 64.4074
452 1 10.1938 1.94205 63.9274
453 1 13.6975 2.04802 65.075
454 2 11.7145 3.38257 65.2673
455 1 10.669 2.117 61.0679
456 2 11.3612 0.753783 58.9638
457 1 12.5161 2.89049 59.0364
458 1 8.67392 0.696778 59.6681
459 1 14.8833 5.97557 60.9445
460 1 12.8019 3.08863 62.8676
461 1 9.71886 2.70123 58.0998
462 1 11.8318 1.5592 56.5899
463 1 15.1382 1.16772 68.9983
464 2 13.0215 2.41749 70.1009
465 1 14.7653 4.18224 68.9758
466 2 15.3629 2.66868 66.9289
467 1 1.97023 2.69753 68.9244
468 1 13.8527 4.73381 66.1645
469 1 16.0241 3.48119 64.7078
470 2 8.90332 0.465773 62.3075
471 2 7.43388 1.20146 57.487
472 1 13.5731 4.07328 56.709
473 1 4.63997 2.75135 68.1699
474 1 0.679611 0.479609 65.169
475 1 13.2576 0.75289 60.9668
476 1 13.9204 0.435482 58.4347
477 2 0.973113 0.213356 57.5844
478 1 14.4908 1.57976 56.0672
479 2 5.36788 2.869 65.4217
480 1 2.57779 2.18928 66.3018
481 1 3.21411 3.69746 64.0209
482 2 15.1071 1.53095 62.9598
483 1 0.616086 0.853379 60.2737
484 2 16.4728 4.63828 62.4333
485 1 14.8547 3.37602 60.8241
486 1 15.8473 2.96322 58.1614
487 1 2.38006 2.7118 61.5243
488 1 3.10914 2.18981 58.9484
489 1 15.9274 5.47381 57.2861
490 1 16.7664 4.74141 70.7633
491 1 11.5859 5.48843 64.0198
492 2 3.70896 3.31121 70.7535
493 1 3.44898 5.244 68.862
494 1 7.06874 4.1797 67.0321
495 1 6.32584 4.56148 69.7799
496 1 4.06578 4.79243 66.2985
497 1 3.73414 5.38668 61.9064
498 1 4.56716 4.86775 59.1124
499 1 17.1656 4.74143 59.8733
500 2 2.88816 4.14295 57.1284
501 1 8.16076 2.85581 61.6611
502 1 5.7463 4.08161 63.1852
503 1 5.34994 2.70869 60.731
504 1 7.24047 3.34301 58.9498
505 2 6.35601 4.93259 60.9902
506 1 12.1792 4.71415 69.6418
507 1 9.26191 4.42642 65.0009
508 1 9.28299 4.55742 68.7676
509 1 11.0926 5.21197 66.8593
510 2 10.3901 4.09623 62.435
511 1 9.31068 4.87108 60.0422
512 1 5.3227 2.99408 57.1341
513 2 8.78915 4.90156 57.578
514 1 12.2377 4.85755 60.8089
515 2 13.9482 4.98353 58.9313
516 1 7.85951 3.05162 56.0179
517 1 5.57434 0.0605518 56.0077
518 1 3.96059 5.72418 55.4708
519 2 3.49145 4.78744 53.1962
520 1 5.16034 4.92442 51.0102
521 1 8.39049 0.557275 51.2755
522 1 8.41105 5.0729 51.7508
523 2 7.18552 5.72762 49.3723
524 1 6.24951 4.41374 45.2251
525 1 8.17713 5.2824 43.0938
526 1 8.50183 5.55715 47.0707
527 1 5.44002 5.303 42.4041
528 1 10.3276 6.56444 53.0778
529 2 11.1569 5.0591 51.0436
530 1 13.052 5.06492 52.8481
531 1 5.56198 0.418392 50.1078
532 1 11.7955 5.88811 48.8444
533 1 9.25022 6.60874 40.8057
534 1 15.7357 5.15781 52.4562
535 2 16.3258 5.1217 49.6281
536 1 13.8144 4.47573 50.2057
537 1 14.2983 6.17148 48.1393
538 2 8.28146 0.520284 46.5549
539 1 10.342 5.64207 45.0906
540 1 11.0895 5.35003 42.6659
541 1 13.2501 4.9099 45.9792
542 1 13.996 4.66402 43.3679
543 1 8.27542 0.389926 54.8893
544 1 3.5446 1.2571 48.1699
545 2 14.7105 5.70952 54.8193
546 2 12.6357 2.89731 54.4122
547 1 10.5274 0.967119 53.2453
548 1 13.9652 -0.15005 51.2783
549 1 13.3675 0.373672 53.8528
550 1 12.9293 2.40731 51.8274
551 1 11.1254 0.610191 50.4985
552 1 10.7821 0.717371 45.7728
553 1 11.4824 0.467002 43.3345
554 1 8.87778 0.459284 44.0307
555 2 13.8031 6.4737 41.4089
556 1 1.73947 1.5527 55.5125
557 1 15.5801 2.31082 51.0598
558 1 14.9064 2.72624 53.557
559 2 13.8041 1.63233 49.1875
560 1 12.7648 2.46623 46.8855
561 1 3.85566 3.06656 54.8543
562 1 4.77679 2.48205 52.3155
563 1 3.78888 4.96168 45.8795
564 1 16.9274 6.34901 47.4862
565 1 15.1784 1.06455 46.8534
566 1 16.1522 4.92046 45.1804
567 1 17.9734 5.63126 43.1824
568 2 13.4286 0.404599 45.2588
569 1 3.72294 0.428239 53.9928
570 1 2.55891 3.76667 50.9892
571 2 2.08106 2.45691 52.9957
572 1 4.84314 6.67033 49.1497
573 1 0.958844 0.223616 52.9988
574 1 2.85662 0.885412 51.0183
575 2 5.87916 6.53706 46.6368
576 1 0.670226 0.51485 44.1857
577 1 2.12591 2.57748 45.9318
578 1 15.4621 3.69358 47.6233
579 1 15.8748 5.13586 41.4594
580 1 13.7164 1.93189 43.287
581 2 15.6294 0.647607 41.6429
582 1 16.4158 2.99715 43.3382
583 2 14.826 2.82338 45.3425
584 1 14.5845 2.78692 40.8663
585 1 6.3881 1.46102 47.8169
586 1 3.86304 0.69056 45.1754
587 1 5.03859 2.68633 41.2817
588 1 3.02879 0.994194 42.0432
589 2 5.26484 0.84708 43.2174
590 1 13.0753 0.729086 40.8628
591 1 16.7896 4.23219 54.7483
592 1 6.31043 4.55804 53.7306
593 2 6.0834 1.97279 54.6466
594 2 4.66371 2.73806 49.6523
595 1 2.89696 4.03904 48.3541
596 1 10.7373 3.95898 55.8511
597 1 8.03894 2.54232 53.1268
598 2 9.58711 2.60198 51.198
599 1 6.94679 3.07741 50.2121
600 1 8.98732 1.78364 48.7904
601 1 5.86574 4.25557 47.9429
602 1 9.25136 4.34044 49.3113
603 2 6.90495 3.099 43.09
604 1 4.01685 3.16738 43.6456
605 1 6.48386 1.71323 45.2751
606 1 7.45409 4.03803 40.7036
607 1 10.738 3.72275 53.0739
608 2 8.8446 4.84765 54.4929
609 2 4.64827 2.69029 46.5808
610 2 2.69097 3.70751 41.2611
611 1 11.6616 3.1111 49.3585
612 1 8.81646 3.22368 45.1909
613 1 9.45352 2.91205 42.5461
614 2 11.9736 2.99738 41.619
615 1 10.2747 4.25209 40.4148
616 2 10.6211 3.85931 47.1496
617 1 11.4811 3.27084 44.5058
618 1 7.58746 1.08956 41.7256
ITEM: TIMESTEP
2600
ITEM: NUMBER OF ATOMS
618
ITEM: BOX BOUNDS xy xz yz pp pp ff
0.0000000000000000e+00 1.9317770367296919e+01 4.0025167278329121e+00
0.0000000000000000e+00 6.6702723500479264e+00 0.0000000000000000e+00
0.0000000000000000e+00 1.0921147561319708e+02 0.0000000000000000e+00
ITEM: ATOMS id type x y z
1 1 4.93935 5.64395 6.21301
2 1 6.33967 6.01931 8.64227
3 1 4.98813 5.752 13.4417
4 1 5.8384 0.0765853 6.1237
5 1 8.13731 6.36263 11.0452
6 1 6.47639 6.27659 15.6937
7 1 4.85581 5.86808 20.4631
8 1 12.3609 5.47638 5.64081
9 1 7.38254 0.471983 8.62977
10 1 5.85589 0.137907 13.1823
11 1 4.13329 -0.234523 17.9925
12 1 6.54322 6.27554 22.753
13 1 4.89529 5.81594 27.2715
14 1 10.6562 0.907823 6.05664
15 1 14.18 6.1701 8.53958
16 1 9.14039 0.624937 10.8611
17 1 12.5823 5.8005 13.332
18 1 7.41111 0.489606 15.463
19 1 5.95694 0.112969 20.2121
20 1 8.21117 6.40449 24.8414
21 1 6.4176 6.23368 29.5304
22 1 4.95454 6.06942 34.1447
23 1 13.2809 -0.0300317 6.25959
24 1 12.9509 2.65772 6.04038
25 1 12.6392 1.36245 8.64078
26 1 15.7142 6.54694 11.0518
27 1 11.368 2.74068 10.8801
28 1 10.8277 1.1769 13.2074
29 1 14.0824 6.159 15.6074
30 1 9.14782 0.861231 17.8063
31 1 12.6257 5.95965 20.1744
32 1 7.50301 0.452487 22.6287
33 1 5.67513 0.13489 27.2486
34 1 7.94218 6.58438 31.9112
35 1 6.38555 6.39956 36.6176
36 1 15.6195 1.76388 6.36496
37 1 15.098 0.421959 8.91927
38 1 14.7292 3.23352 8.66856
39 1 14.0405 1.54057 11.0951
40 1 13.4189 -0.10025 13.2832
41 1 13.1077 2.97729 13.3729
42 1 12.3438 1.37226 15.623
43 1 11.8293 -0.16607 17.8552
44 1 11.4546 2.64114 17.8489
45 1 10.7008 1.2123 20.1571
46 1 14.2205 6.24193 22.455
47 1 9.14296 0.814729 24.869
48 1 12.5238 6.04219 27.4459
49 1 7.46539 0.64424 29.5043
50 1 5.78658 0.332548 34.154
51 1 7.58481 6.50364 39.0009
52 1 3.16897 1.01361 6.2701
53 1 2.59799 3.80204 6.10888
54 1 2.08904 2.28439 8.78368
55 1 1.45114 0.694169 11.0665
56 1 16.2696 3.56155 11.0643
57 1 15.6052 1.99231 13.4408
58 1 15.1236 0.330414 15.5793
59 1 14.5975 3.13623 15.7601
60 1 13.9979 1.65928 17.8591
61 1 13.4223 0.111674 20.155
62 1 13.0162 2.99394 20.2724
63 1 12.4726 1.43572 22.5371
64 1 15.886 6.63391 24.7971
65 1 11.4276 2.68883 25.0231
66 1 10.6782 1.22919 27.1732
67 1 14.2184 6.26759 29.7245
68 1 9.13895 1.00244 31.9151
69 1 12.2996 6.0365 34.3456
70 1 7.51713 0.760858 36.639
71 1 5.31701 2.935 6.14971
72 1 4.73668 1.26147 8.63051
73 1 4.2332 4.15649 8.61598
74 1 3.75643 2.53639 11.0988
75 1 3.08977 1.05341 13.4498
76 1 2.7868 3.93466 13.3803
77 1 2.04892 2.4008 15.6968
78 1 1.346 0.685128 17.9483
79 1 16.2235 3.64197 17.8886
80 1 15.4773 1.95619 20.2745
81 1 15.0595 0.507565 22.6829
82 1 14.5828 3.25931 22.6939
83 1 14.0535 1.75548 25.0297
84 1 13.4568 0.314314 27.3108
85 1 13.137 3.03258 27.3023
86 1 12.4432 1.50329 29.5768
87 1 15.7495 6.80595 32.1299
88 1 11.2639 2.88572 31.91
89 1 10.6136 1.3514 34.2923
90 1 14.1116 6.33761 36.8419
91 1 8.83363 0.837037 38.9938
92 1 8.16292 1.84277 6.27064
93 1 7.6395 4.82728 6.27022
94 1 7.06195 3.16536 8.54502
95 1 6.47042 1.74149 10.888
96 1 5.80589 4.32365 11.0361
97 1 5.45472 2.82821 13.3573
98 1 4.76696 1.39065 15.8532
99 1 4.26435 4.21916 15.938
100 1 3.7599 2.49581 18.1994
101 1 3.06117 1.08732 20.46
102 1 2.53983 3.86435 20.4609
103 1 1.99706 2.33077 22.7415
104 1 1.36761 0.700162 24.9508
105 1 16.1963 3.65817 24.9389
106 1 15.9154 2.17971 27.2151
107 1 15.0045 0.633723 29.6308
108 1 14.695 3.36692 29.7674
109 1 14.057 1.82697 31.9954
110 1 17.3652 6.85378 34.1366
111 1 12.9507 3.25638 34.2359
112 1 12.4865 1.57212 36.3172
113 1 15.2861 6.25027 39.1133
114 1 11.5139 2.19102 38.9779
115 1 10.1747 3.77046 5.98545
116 1 9.96007 2.35344 8.52911
117 1 9.31398 5.17166 8.5545
118 1 8.64659 3.52313 10.8703
119 1 8.07237 1.97799 13.185
120 1 7.68084 4.8106 13.4643
121 1 6.85035 3.25359 15.646
122 1 6.70485 1.76096 18.0796
123 1 6.09244 4.47137 18.0391
124 1 5.42884 3.06485 20.4364
125 1 4.73055 1.25649 22.5962
126 1 4.16502 4.11255 22.6531
127 1 3.57517 2.51069 24.9008
128 1 3.03428 0.95255 27.294
129 1 2.63519 4.09471 27.3222
130 1 2.00382 2.38122 29.532
131 1 1.37875 0.851052 31.8721
132 1 16.1129 3.68137 32.0645
133 1 15.7588 2.29332 34.2825
134 1 15.0189 0.693269 36.3113
135 1 14.5326 3.52044 36.5591
136 1 13.9489 1.60829 38.4883
137 1 12.014 4.48695 8.42319
138 1 10.8835 5.55259 10.9779
139 1 10.4008 3.90268 13.269
140 1 9.55491 2.34304 15.4931
141 1 9.24713 5.21388 15.6491
142 1 8.76889 3.62667 17.9912
143 1 8.03451 2.04018 20.3966
144 1 7.65195 5.00864 20.5284
145 1 6.96821 3.26001 22.7212
146 1 6.29369 1.62935 24.9314
147 1 5.82422 4.59445 24.9346
148 1 5.2578 3.11721 27.2739
149 1 4.53452 1.41912 29.617
150 1 4.2251 4.33141 29.5806
151 1 3.58989 2.71012 31.8406
152 1 3.18258 1.25063 34.2552
153 1 2.63048 4.16287 34.2194
154 1 1.91219 2.50255 36.5644
155 1 1.03183 0.771362 39.0769
156 1 16.1851 3.60481 39.0242
157 1 15.1695 4.65443 6.21933
158 1 13.5791 4.59837 10.9885
159 1 11.9393 4.25261 15.6459
160 1 10.93 5.5182 17.8773
161 1 10.2679 3.86926 20.3009
162 1 9.71804 2.33077 22.5631
163 1 9.25496 5.10929 22.5378
164 1 8.64009 3.5869 25.0842
165 1 7.799 2.00834 27.1427
166 1 7.73089 4.90665 27.2433
167 1 6.93504 3.44089 29.5103
168 1 6.40548 1.7765 31.8948
169 1 5.95842 4.58723 31.8846
170 1 5.26959 3.14151 34.267
171 1 4.63832 1.73174 36.8824
172 1 3.95906 4.67912 36.7249
173 1 3.5517 2.74021 39.039
174 1 16.8649 5.20882 8.74654
175 1 15.1648 4.82256 13.4449
176 1 13.5478 4.65524 17.9485
177 1 11.8591 4.44503 22.6698
178 1 10.9183 5.66135 24.8465
179 1 10.3354 4.06021 27.1878
180 1 9.55563 2.39333 29.4773
181 1 9.0953 5.35525 29.5913
182 1 8.63888 3.81405 31.8907
183 1 8.01822 2.16009 34.2061
184 1 7.44335 5.10405 34.1721
185 1 6.75516 3.57548 36.7339
186 1 6.52598 1.9885 38.9068
187 1 5.40274 4.72738 39.2543
188 1 18.5616 5.30126 11.0348
189 1 16.7925 5.11126 15.65
190 1 15.2353 4.84256 20.2324
191 1 13.6302 4.74419 24.8855
192 1 11.7625 4.25827 29.4627
193 1 10.8275 5.64481 31.8276
194 1 10.2174 4.28132 34.3794
195 1 9.75534 2.49147 36.3907
196 1 8.96953 5.57108 36.3225
197 1 8.73299 3.73203 38.454
198 1 18.5555 5.31408 18.1612
199 1 16.7932 5.16304 22.6079
200 1 15.1556 4.96675 27.209
201 1 13.4115 4.60208 31.9889
202 1 11.705 4.30962 36.7952
203 1 10.4988 5.85368 38.641
204 1 18.5004 5.53894 24.9867
205 1 16.9026 5.35017 29.748
206 1 14.9011 5.15576 34.2986
207 1 13.2612 4.67861 38.9569
208 1 18.4403 5.61512 31.8911
209 1 16.7715 5.37602 36.6524
210 1 18.0585 5.59278 39.1642
211 2 14.1524 1.78158 101.975
212 1 14.7417 1.30726 99.3283
213 1 3.14061 0.912229 103.156
214 1 2.05144 1.42453 98.7243
215 1 1.20644 1.76213 101.422
216 2 15.535 0.665241 96.6006
217 1 14.529 1.33312 94.2534
218 1 5.60875 2.13875 102.579
219 1 6.536 1.66614 100.036
220 1 1.55184 0.011261 94.5267
221 1 4.28439 2.96603 98.5829
222 2 3.9924 1.55 100.819
223 1 3.66423 1.55615 93.57
224 1 1.53949 2.90282 95.0025
225 1 15.4141 1.01961 90.5361
226 1 2.8925 2.02503 90.582
227 2 1.24541 1.88196 92.7083
228 1 15.7883 1.15361 87.8749
229 1 7.98803 0.707153 95.4419
230 1 6.98404 1.48638 88.8243
231 1 8.6441 6.74393 89.9121
232 1 11.5679 5.06868 103.035
233 1 3.14522 3.51141 102.351
234 1 7.78031 3.53381 101.665
235 1 5.61286 5.06209 102.971
236 2 7.75883 0.908945 102.368
237 2 5.26856 3.97884 100.769
238 1 6.90471 4.07031 98.6531
239 2 6.19058 1.74458 97.4785
240 1 4.39684 3.00078 95.9178
241 1 12.0949 2.11002 103.057
242 1 9.893 1.91693 101.017
243 1 13.8738 6.32147 98.698
244 2 11.1443 1.73962 98.643
245 1 9.77157 4.09587 99.4617
246 1 8.64331 2.13282 97.8221
247 1 10.6398 0.777122 96.3359
248 1 7.19223 3.36572 95.6998
249 1 11.077 3.52748 96.8469
250 2 8.83059 4.654 97.072
251 1 7.87214 3.58063 92.6098
252 2 8.59148 2.0098 90.5977
253 1 9.90878 4.212 90.8788
254 1 5.79636 2.12873 91.4533
255 1 8.19607 0.619881 92.6655
256 1 9.76477 4.06013 94.6205
257 1 7.05407 4.06064 89.8068
258 1 9.30231 2.77959 88.4829
259 1 12.4815 2.8431 100.383
260 2 10.4189 3.83047 101.915
261 1 12.0108 5.60999 100.336
262 2 12.9667 4.00771 98.2743
263 1 14.7542 4.22199 100.247
264 1 11.0744 6.18686 97.895
265 1 13.3324 4.72052 95.789
266 2 6.28407 1.76535 94.0751
267 2 4.80975 2.80037 89.0856
268 1 10.6391 5.50857 88.3263
269 1 17.3528 4.32156 99.6258
270 1 13.2459 1.97916 96.8662
271 1 10.3629 2.23085 92.662
272 1 11.2094 1.57003 90.0919
273 2 13.7218 1.99685 89.1717
274 1 11.7884 3.24885 87.7903
275 2 2.75836 4.18984 97.1354
276 1 15.525 3.64741 97.6114
277 1 16.0273 5.30091 95.563
278 2 12.0799 2.46986 94.6145
279 1 13.1583 2.22765 91.939
280 2 14.0283 6.56656 94.0339
281 1 12.0297 4.5244 92.695
282 1 12.5749 4.17383 90.1042
283 1 14.9152 4.08477 93.4643
284 1 15.6583 3.78436 90.8709
285 1 9.13644 -0.0710052 88.9161
286 1 14.212 6.04169 102.313
287 1 5.18853 0.203491 95.7643
288 2 16.5091 4.92447 102.403
289 1 16.2284 6.82806 100.48
290 1 4.53665 5.60899 98.7492
291 1 3.65443 6.00455 101.256
292 1 16.6748 6.22993 97.89
293 1 12.4529 -0.0279772 93.2017
294 1 17.0943 6.06312 90.4856
295 1 14.4175 6.07059 91.35
296 2 15.331 5.30065 88.764
297 1 5.32622 3.92412 93.4697
298 1 18.5585 5.27861 94.8385
299 1 2.61591 4.06462 92.5098
300 1 4.51224 4.78839 90.5351
301 2 3.76309 6.32711 92.5993
302 1 9.38821 6.08896 101.771
303 1 6.61197 6.02084 96.8154
304 1 6.67222 6.05809 100.679
305 1 8.59205 6.67562 98.6876
306 2 7.57149 5.47792 94.3272
307 1 6.25773 6.25665 91.9653
308 1 2.24306 3.9171 88.7744
309 2 6.18844 6.52882 89.3965
310 1 9.59603 6.28146 92.8943
311 2 11.1484 6.30581 90.8273
312 1 5.03615 4.98062 87.6826
313 1 3.30053 1.47589 87.6456
314 1 13.107 1.08532 86.8727
315 2 12.2772 -0.12061 84.5585
316 1 13.9759 0.168898 82.6134
317 1 5.71461 2.31496 82.8084
318 1 1.70063 0.084524 83.4504
319 2 0.719123 0.710687 81.0568
320 1 18.7702 6.11582 76.7839
321 1 1.35563 0.232269 74.9783
322 1 1.42015 -0.00610076 78.663
323 1 13.9914 0.0444193 73.8805
324 1 3.85656 1.65712 84.7413
325 2 4.3863 0.153459 82.7217
326 1 6.35962 0.301323 84.7428
327 1 2.98217 2.24283 81.9094
328 1 5.07951 1.02189 80.2788
329 1 2.2405 1.53507 72.5736
330 1 9.0582 0.219431 83.9791
331 2 9.57529 -0.19994 81.2712
332 1 7.07876 -0.193883 82.0702
333 1 7.63266 1.13585 79.7223
334 2 5.6912 2.41954 78.1462
335 1 3.74193 0.45431 76.7716
336 1 4.22941 0.263011 74.1435
337 1 6.38518 -0.0805381 77.6838
338 1 11.126 6.26054 74.8677
339 1 5.88953 2.52035 86.6607
340 1 16.3816 2.73865 79.6608
341 2 8.20889 0.932964 86.5596
342 2 9.62761 4.18357 86.2345
343 1 7.9006 2.75534 84.479
344 1 11.5729 1.76251 82.6829
345 1 10.9427 2.15909 85.4332
346 1 10.2734 4.01935 83.6106
347 1 8.79542 2.37473 81.8847
348 1 8.17172 2.31104 77.3659
349 1 8.77561 2.00209 74.7605
350 1 5.99767 1.92761 75.4287
351 2 6.84736 1.26999 72.8487
352 1 14.6028 3.53981 86.9578
353 1 13.006 4.27375 82.9491
354 1 12.4106 4.74574 85.6183
355 2 11.4063 3.78101 80.8886
356 1 10.0297 3.96696 78.5569
357 1 16.7683 5.0652 86.4671
358 1 17.6795 4.40927 83.9254
359 1 12.2626 0.0383576 77.4018
360 1 10.1421 1.051 79.0602
361 1 12.3409 2.63085 78.6654
362 1 9.47854 -0.0757778 76.6635
363 1 11.3011 0.680244 74.6756
364 2 10.8037 2.08475 76.7682
365 1 1.24763 2.32183 85.4575
366 1 15.3847 5.59334 82.5829
367 2 15.0301 4.32431 84.6417
368 1 13.7653 2.3338 80.8269
369 1 13.7616 2.11748 84.5881
370 1 15.7403 2.73441 82.5852
371 2 14.5178 1.55521 78.4442
372 1 13.4059 2.11334 75.953
373 1 14.7041 4.16784 77.6587
374 1 12.5064 5.32695 79.1262
375 1 9.266 0.0955372 72.9193
376 1 11.0935 3.59716 74.6736
377 2 13.0276 2.42202 73.5042
378 1 13.781 4.67536 74.833
379 2 11.9031 4.57162 76.7952
380 1 11.1871 3.67602 72.0804
381 1 3.81418 3.51057 79.422
382 1 16.5628 2.20636 76.8196
383 1 2.48422 4.22681 72.952
384 1 15.545 2.73183 74.0527
385 2 2.68913 2.35176 74.9143
386 1 11.9269 0.911728 71.8738
387 1 14.4149 6.38327 86.5596
388 1 19.0283 6.35521 85.4766
389 2 3.47282 3.57274 86.2936
390 2 17.2579 4.55156 81.2719
391 1 15.3324 5.4093 79.882
392 1 8.00899 5.38478 87.5282
393 1 5.43288 4.42829 84.8104
394 2 7.0701 4.36698 82.6171
395 1 4.51919 4.76333 81.9465
396 1 6.66915 3.54473 80.3658
397 1 18.1181 6.3096 79.7667
398 1 6.80432 6.24838 80.8554
399 2 4.2772 4.65746 74.7133
400 1 16.8076 4.78346 75.467
401 1 3.82878 3.32447 76.8392
402 1 4.91837 5.70937 72.4183
403 1 8.06373 5.37362 84.6887
404 2 6.20141 6.61558 86.1419
405 2 17.2133 4.43395 78.1315
406 2 15.6308 5.47019 73.2281
407 1 9.0985 4.94906 81.0759
408 1 6.13272 4.5635 76.6669
409 1 6.94363 4.39366 73.9228
410 2 9.37225 4.61133 73.3357
411 1 7.4373 5.88859 71.7876
412 2 7.80466 5.27853 78.6937
413 1 8.77384 4.70971 76.0592
414 1 4.6845 2.85902 73.0783
415 2 1.46109 0.543182 70.3746
416 1 5.93731 6.72457 67.6911
417 1 9.97213 5.90469 71.0534
418 1 8.6746 6.63123 66.7066
419 1 3.91919 0.551576 69.446
420 2 6.79795 5.90085 65.1033
421 1 5.94702 6.85198 62.7117
422 1 8.1253 0.6457 70.7008
423 1 9.45054 0.0638368 68.0513
424 1 8.22026 5.42487 62.7399
425 1 7.06896 1.50139 66.8726
426 2 6.67561 0.12483 68.7786
427 1 6.44174 0.171655 61.8894
428 1 4.5613 1.37824 63.4846
429 1 6.90438 6.34387 58.873
430 1 5.67044 0.702672 58.9581
431 2 4.03422 0.49759 60.9526
432 1 6.91015 5.87756 56.2865
433 1 14.6904 5.63354 63.6986
434 1 9.69725 0.0182483 57.2023
435 1 11.4447 5.3405 58.3125
436 1 14.111 4.09958 71.8004
437 1 5.92382 2.17756 70.536
438 1 10.5809 2.10351 69.7497
439 1 8.38375 3.41037 71.1451
440 2 14.3047 6.24884 70.5049
441 2 8.05766 2.41175 68.8536
442 1 9.7529 2.71117 66.8445
443 2 8.96531 0.505623 65.4764
444 1 7.40944 1.79859 64.2095
445 1 14.836 1.25904 71.6031
446 1 16.341 6.82132 68.9387
447 1 16.6167 4.81243 66.9997
448 2 13.9162 0.162689 66.8701
449 1 12.5858 2.65333 67.6089
450 1 11.3489 0.66696 65.9152
451 1 17.5036 5.96482 64.4278
452 1 10.1936 1.95936 63.8641
453 1 13.63 1.88127 65.0829
454 2 11.6711 3.32244 65.2503
455 1 10.6116 2.3054 61.0654
456 2 11.3606 0.647457 59.1091
457 1 12.6388 2.76679 59.2514
458 1 8.63904 0.549195 59.6815
459 1 15.1118 5.97737 61.0402
460 1 12.8564 3.07287 62.9665
461 1 9.77129 2.68218 58.1385
462 1 11.7442 1.61237 56.7575
463 1 14.9572 1.23373 69.0029
464 2 12.9309 2.52031 70.3239
465 1 14.634 4.14142 68.9798
466 2 15.4468 2.66364 66.9032
467 1 2.01157 2.62973 68.8152
468 1 13.7986 4.62102 65.9766
469 1 16.0039 3.37804 64.5813
470 2 9.06268 0.46809 62.3225
471 2 7.53746 1.29966 57.2805
472 1 13.5318 3.98877 56.7723
473 1 4.64793 2.93709 68.1612
474 1 0.689247 0.64976 65.2249
475 1 13.2501 0.770825 61.0732
476 1 14.0057 0.343465 58.4592
477 2 1.09057 0.353658 57.4496
478 1 14.3709 1.50879 56.1038
479 2 5.37264 2.63244 65.5046
480 1 2.90132 2.29557 66.1715
481 1 3.31371 3.73833 64.0121
482 2 15.1249 1.47129 62.8148
483 1 0.695539 0.937387 60.193
484 2 16.5897 4.6035 62.417
485 1 14.8811 3.2695 60.8834
486 1 15.5972 2.81423 58.2742
487 1 2.48696 2.60033 61.6221
488 1 3.21487 2.20481 59.0575
489 1 15.9445 5.40366 57.3946
490 1 16.6335 4.72567 70.709
491 1 11.8005 5.58869 63.9791
492 2 3.60176 3.3144 70.7919
493 1 3.49169 5.2787 68.8789
494 1 7.09919 4.14127 66.9719
495 1 6.34538 4.75017 69.5808
496 1 4.26194 4.89046 66.2126
497 1 3.80163 5.2933 61.8031
498 1 4.53972 4.79335 59.1675
499 1 17.1867 4.60261 59.7648
500 2 2.74213 3.96774 57.1056
501 1 8.30523 2.77192 61.8471
502 1 5.84692 4.13713 63.3553
503 1 5.38515 2.67358 60.9913
504 1 7.11409 3.38887 58.9445
505 2 6.45857 4.92657 60.9778
506 1 12.1802 4.74181 69.6182
507 1 9.14672 4.44274 64.9981
508 1 9.34327 4.56631 68.6785
509 1 11.1252 5.38606 66.6352
510 2 10.3632 4.2292 62.7648
511 1 9.09059 4.70734 60.2115
512 1 5.32614 3.10357 57.0548
513 2 8.85355 5.10528 57.5978
514 1 12.339 4.85689 61.1337
515 2 13.9546 4.94555 59.0961
516 1 8.08863 3.16717 55.9279
517 1 5.58325 0.214486 55.9746
518 1 4.01336 5.8527 55.2404
519 2 3.51737 4.77 53.0065
520 1 5.40326 4.9212 51.0388
521 1 8.23786 0.514091 51.1804
522 1 8.26048 5.09775 51.8771
523 2 7.3264 5.67217 49.5123
524 1 6.23505 4.81987 45.1225
525 1 8.36667 5.30076 43.0977
526 1 8.13376 5.22331 47.0695
527 1 5.5625 5.35888 42.205
528 1 10.345 6.55474 53.2035
529 2 11.0037 4.95231 51.1307
530 1 12.8918 4.95305 52.963
531 1 5.39094 0.478478 50.2989
532 1 11.7718 5.84325 48.8498
533 1 9.21323 6.58181 40.8298
534 1 15.5741 5.18489 52.4395
535 2 16.3232 5.16665 49.5636
536 1 13.6388 4.57625 50.4247
537 1 14.2522 6.11829 48.1487
538 2 8.19895 0.758193 46.6849
539 1 10.3394 5.71996 45.0513
540 1 11.2357 5.2665 42.6002
541 1 13.2948 5.14124 45.9423
542 1 13.9917 4.48921 43.2338
543 1 8.37039 0.316241 55.0221
544 1 3.40455 1.23449 48.2146
545 2 14.6943 5.75127 54.9758
546 2 12.5539 2.92111 54.5656
547 1 10.3708 0.851449 53.0202
548 1 14.0233 -0.133117 51.1629
549 1 13.1352 0.371412 53.7897
550 1 12.9667 2.27319 51.8622
551 1 11.2266 0.606038 50.4632
552 1 10.7255 1.04898 45.832
553 1 11.4343 0.293078 43.3031
554 1 8.73008 0.404433 43.9996
555 2 13.5057 6.30967 41.2227
556 1 1.54849 1.62749 55.2897
557 1 15.4838 2.4556 51.1479
558 1 14.9249 2.88618 53.6173
559 2 13.6983 1.61607 49.1831
560 1 12.6761 2.63725 46.9105
561 1 3.9105 3.0518 54.969
562 1 5.05954 2.63233 52.282
563 1 3.74089 5.32009 45.9195
564 1 16.7898 6.44983 47.3336
565 1 15.0482 1.24117 46.987
566 1 16.0398 5.09883 45.1579
567 1 18.1264 5.60915 43.1567
568 2 13.4487 0.626454 45.155
569 1 3.68182 0.532536 53.8599
570 1 2.53611 3.9227 50.9212
571 2 2.22788 2.50467 52.9471
572 1 4.82152 6.8823 49.1619
573 1 0.858962 0.31464 52.8577
574 1 2.77386 1.02533 50.9858
575 2 5.86643 6.60478 46.7926
576 1 0.834693 0.604128 44.2253
577 1 2.12406 2.68776 45.9979
578 1 15.4075 3.85134 47.5523
579 1 15.9655 5.10198 41.452
580 1 13.7539 1.76574 43.155
581 2 15.4947 0.692136 41.535
582 1 16.4346 3.18593 43.2764
583 2 14.8656 2.98237 45.1592
584 1 14.4356 2.97156 40.975
585 1 6.22141 1.57288 48.0322
586 1 4.0014 0.7057 45.1629
587 1 5.13342 2.67172 41.2228
588 1 2.73941 1.05626 41.8611
589 2 5.72271 0.762282 43.164
590 1 13.0561 0.73504 40.8124
591 1 16.9667 4.32343 54.7342
592 1 6.2728 4.4397 54.0705
593 2 6.04596 2.00297 54.661
594 2 4.50159 2.78902 49.6898
595 1 2.94632 4.26957 48.2664
596 1 10.7539 4.27907 55.8717
597 1 7.9748 2.49732 53.2074
598 2 9.60824 2.78615 51.1451
599 1 7.05367 3.01128 50.3075
600 1 9.06944 1.7641 48.8489
601 1 5.71805 4.34597 48.119
602 1 9.42427 4.44969 49.3291
603 2 6.87168 3.26072 43.1728
604 1 3.99205 3.05961 43.6818
605 1 6.46064 2.00912 45.3235
606 1 7.54017 4.08305 40.756
607 1 10.602 3.61703 53.1522
608 2 8.68652 4.95561 54.3828
609 2 4.48585 2.94229 46.322
610 2 2.69898 3.70912 41.1808
611 1 11.6379 3.0857 49.3688
612 1 8.85307 3.15154 45.1091
613 1 9.61667 2.60364 42.5306
614 2 12.0376 2.90147 41.6103
615 1 10.2908 4.05862 40.5135
616 2 10.5608 3.83527 46.9889
617 1 11.5699 3.27781 44.3594
618 1 7.52304 1.20575 41.6225
ITEM: TIMESTEP
2700
ITEM: NUMBER OF ATOMS
618
ITEM: BOX BOUNDS xy xz yz pp pp ff
0.0000000000000000e+00 1.9317770367296919e+01 4.0025167278329121e+00
0.0000000000000000e+00 6.6702723500479264e+00 0.0000000000000000e+00
0.0000000000000000e+00 1.0921147561319708e+02 0.0000000000000000e+00
ITEM: ATOMS id type x y z
1 1 4.84277 5.62772 6.31807
2 1 6.63255 6.07781 8.67396
3 1 4.7944 5.9223 13.4796
4 1 5.94703 -0.0979433 6.19452
5 1 8.43072 6.57021 11.0765
6 1 6.55918 6.09001 15.7965
7 1 4.79446 5.61969 20.3285
8 1 12.7675 5.68952 6.28806
9 1 7.54794 0.305532 8.63659
10 1 5.78728 0.161306 13.4826
11 1 8.12304 6.41824 18.0857
12 1 6.50335 5.98791 22.5936
13 1 4.81251 5.9734 27.2274
14 1 10.7117 0.861506 6.17429
15 1 14.1591 5.99146 8.78225
16 1 9.11446 0.796072 11.0785
17 1 12.4552 5.88474 13.2333
18 1 7.52444 0.476563 15.7806
19 1 5.65853 -0.0787609 20.4969
20 1 8.0264 6.52147 25.0329
21 1 6.47089 6.32385 29.6887
22 1 4.6078 5.90673 34.3689
23 1 17.5181 6.65539 6.23252
24 1 13.0835 2.64479 6.3381
25 1 12.2997 1.12702 8.58294
26 1 15.9128 6.32069 10.979
27 1 11.3354 2.44561 11.0099
28 1 10.6007 1.00685 13.285
29 1 14.1637 6.14849 15.6441
30 1 9.21595 0.698323 18.071
31 1 12.5118 5.89099 20.443
32 1 7.46309 0.428924 22.7262
33 1 5.80805 0.144801 27.287
34 1 8.06609 6.60288 31.9766
35 1 6.25615 6.16825 36.6044
36 1 15.7534 1.91969 6.18909
37 1 15.146 0.200672 8.72491
38 1 14.7567 3.10876 8.67548
39 1 14.1063 1.59276 10.8642
40 1 17.5917 6.91334 13.4086
41 1 12.8699 3.05252 13.3207
42 1 12.4892 1.55627 15.7245
43 1 15.851 6.48005 17.9794
44 1 11.445 2.72012 18.0563
45 1 10.8496 1.00091 20.4348
46 1 14.1297 6.21269 22.7985
47 1 9.01999 0.809505 25.1321
48 1 12.4468 5.88561 27.2403
49 1 7.36024 0.476256 29.6739
50 1 5.55944 0.131015 34.2362
51 1 7.67057 6.39795 38.9152
52 1 3.14246 0.9894 6.24441
53 1 2.64827 3.73841 6.41843
54 1 1.97853 2.17202 8.66079
55 1 1.49693 0.753162 11.009
56 1 16.371 3.45061 11.0787
57 1 15.802 2.03246 13.4002
58 1 15.118 0.536643 15.8048
59 1 14.7404 3.37743 15.5197
60 1 14.0219 1.6605 18.126
61 1 13.6244 0.133406 20.4238
62 1 13.1416 2.94892 20.2315
63 1 12.5299 1.32565 22.8226
64 1 15.7095 6.54104 25.1257
65 1 11.3039 2.66853 24.9528
66 1 10.7953 1.16176 27.3269
67 1 13.9534 6.43156 29.5976
68 1 8.89919 1.0492 31.9117
69 1 12.4875 5.99595 34.1502
70 1 7.21213 0.568632 36.5129
71 1 5.25398 2.7749 6.31656
72 1 4.92478 1.38318 8.69662
73 1 4.31487 4.21212 8.83429
74 1 3.71936 2.72726 11.1078
75 1 3.08638 1.03543 13.4388
76 1 2.45416 3.89414 13.3584
77 1 1.89971 2.26601 15.7011
78 1 1.4831 0.677856 18.0436
79 1 16.2824 3.59394 18.0982
80 1 15.7554 1.95517 20.3477
81 1 15.1744 0.484721 22.6474
82 1 14.756 3.43441 22.648
83 1 14.0616 1.75185 24.8769
84 1 13.4574 0.221622 27.3275
85 1 12.8704 3.04031 27.2916
86 1 12.302 1.51093 29.6651
87 1 11.7555 -0.0790183 31.7957
88 1 11.2313 2.7836 31.9014
89 1 10.7565 1.17546 34.0784
90 1 14.0877 6.1982 36.621
91 1 9.03843 0.755944 39.0472
92 1 7.96163 1.96462 6.14348
93 1 7.5254 4.73598 6.19397
94 1 7.00821 3.20062 8.76478
95 1 6.29165 1.68889 11.1609
96 1 6.007 4.51854 11.0628
97 1 5.35529 3.12948 13.4638
98 1 4.69503 1.3582 15.5974
99 1 4.33511 4.21535 15.5981
100 1 3.52168 2.72859 17.8683
101 1 3.09993 0.831577 20.3806
102 1 2.61824 3.8636 20.2893
103 1 2.01709 2.2585 22.6187
104 1 1.46446 0.752965 24.8993
105 1 16.2622 3.56691 24.9974
106 1 15.4165 2.1181 27.3302
107 1 15.0208 0.509044 29.6975
108 1 14.4872 3.39245 29.6116
109 1 13.9465 2.03543 31.8326
110 1 13.3942 0.36401 34.1932
111 1 12.8688 3.23046 34.1957
112 1 12.2735 1.4913 36.6337
113 1 15.3232 6.23247 39.0494
114 1 11.4049 2.28036 39.1502
115 1 10.3826 3.72442 6.23901
116 1 9.37841 2.13802 8.64555
117 1 9.26877 5.12344 8.52007
118 1 8.65222 3.53582 11.0409
119 1 7.90647 2.07372 13.5376
120 1 7.48183 4.91395 13.3192
121 1 7.13824 3.29535 15.7919
122 1 6.13757 1.69983 18.0067
123 1 5.77815 4.44136 17.9242
124 1 5.29053 2.76538 20.3463
125 1 4.60139 1.36238 22.7778
126 1 4.2196 4.07572 22.6099
127 1 3.55634 2.75687 24.9219
128 1 3.01517 1.17685 27.3802
129 1 2.48871 3.81658 27.3593
130 1 1.88889 2.39084 29.7216
131 1 1.35599 0.904979 31.978
132 1 16.2369 3.73529 31.8198
133 1 15.5313 2.13836 34.183
134 1 15.0237 0.522214 36.6657
135 1 14.4998 3.54832 36.3854
136 1 13.9978 1.87546 38.6688
137 1 11.9579 4.05674 8.61907
138 1 10.9827 5.39415 10.8898
139 1 10.1984 3.99433 13.2647
140 1 9.80739 2.35736 15.81
141 1 9.19416 5.22664 15.7741
142 1 8.6129 3.44937 17.9659
143 1 8.22636 1.94742 20.2977
144 1 7.58998 4.57903 20.2789
145 1 7.00709 3.16489 22.4636
146 1 6.45208 1.64887 24.9979
147 1 5.93904 4.61571 25.0686
148 1 5.30734 2.96134 27.3539
149 1 4.64874 1.41539 29.6543
150 1 4.0709 4.33014 29.6326
151 1 3.55932 2.74436 32.0216
152 1 2.64077 1.05626 34.288
153 1 2.52581 3.93258 34.3191
154 1 1.98927 2.43023 36.6756
155 1 1.19319 0.899974 39.2679
156 1 16.2192 3.77287 39.0608
157 1 15.3421 4.66972 6.07125
158 1 13.5384 4.4442 10.9507
159 1 11.9051 4.36336 15.6226
160 1 10.9506 5.54061 18.0517
161 1 10.3578 3.93978 20.43
162 1 9.71623 2.37964 22.6087
163 1 9.24684 5.34789 22.675
164 1 8.58697 3.60686 24.9585
165 1 8.21614 2.11216 27.4753
166 1 7.28127 4.8757 27.4474
167 1 6.9114 3.37159 29.6375
168 1 6.16919 1.98786 32.0212
169 1 5.80042 4.84241 31.9718
170 1 5.15104 3.11363 34.3213
171 1 4.61439 1.41522 36.4152
172 1 4.17525 4.16474 36.7051
173 1 3.56916 2.5966 39.0356
174 1 16.9484 4.93647 8.71058
175 1 15.1719 4.90331 13.1924
176 1 13.6449 4.4663 17.8752
177 1 11.9791 4.20183 22.7076
178 1 10.7869 5.45782 25.0499
179 1 10.1608 3.94858 27.4178
180 1 9.65173 2.52549 29.833
181 1 9.13556 5.22437 29.6005
182 1 8.34292 3.71092 31.9671
183 1 7.96718 2.11711 34.1804
184 1 7.41294 5.06703 34.2848
185 1 6.95256 3.34155 36.5337
186 1 6.25226 2.0527 38.7145
187 1 5.46054 4.74647 39.302
188 1 3.25708 5.61841 11.1848
189 1 16.9084 5.2277 15.7141
190 1 15.2476 4.93178 20.4365
191 1 13.5938 4.515 24.9914
192 1 11.9026 4.51406 29.7707
193 1 10.6433 5.618 32.1207
194 1 10.0639 4.06964 34.2219
195 1 9.63508 2.22342 36.3525
196 1 8.90855 5.30963 36.6168
197 1 8.6786 3.45633 38.5956
198 1 3.15152 5.66705 17.8626
199 1 16.91 5.17569 22.6825
200 1 15.2073 4.9027 27.2758
201 1 13.6121 4.79213 31.9324
202 1 11.6367 4.53059 36.4478
203 1 10.7547 6.10117 38.7816
204 1 18.5047 5.6497 24.9544
205 1 16.8164 5.40774 29.5497
206 1 15.3122 4.96113 34.2138
207 1 12.9314 4.4943 39.1766
208 1 18.4572 5.77485 31.9975
209 1 16.7948 5.32282 36.619
210 1 18.2149 5.55069 39.0002
211 2 14.0155 1.76279 101.822
212 1 14.561 1.31225 99.3662
213 1 3.10166 0.749411 102.938
214 1 1.92667 1.43566 98.5239
215 1 1.1543 2.01679 101.302
216 2 15.5254 0.767479 96.6335
217 1 14.5725 1.57864 94.4028
218 1 5.46968 2.1698 102.567
219 1 6.29801 1.83956 99.8952
220 1 1.65226 0.308712 94.3231
221 1 4.29189 2.90873 98.4099
222 2 3.86116 1.57451 100.693
223 1 3.81199 1.56239 93.4334
224 1 17.1301 2.94975 95.0254
225 1 15.5105 0.963893 90.5275
226 1 2.90956 2.16716 90.5377
227 2 1.1882 1.90199 92.6416
228 1 15.6533 1.07906 87.8084
229 1 8.12933 0.659436 95.5289
230 1 6.82873 1.39875 88.7944
231 1 4.61219 0.161423 89.5322
232 1 11.6258 5.18525 103.142
233 1 3.14049 3.50483 102.253
234 1 7.91352 3.31893 101.87
235 1 5.7028 4.86437 103.004
236 2 7.73977 0.821307 101.72
237 2 5.38975 3.95181 100.713
238 1 6.87571 4.10975 98.5871
239 2 6.27165 1.7563 97.1821
240 1 4.54693 2.93944 95.7766
241 1 12.2556 2.16416 103.126
242 1 9.93871 1.92491 101.029
243 1 14.0253 6.23738 98.6706
244 2 11.1853 1.86226 98.7296
245 1 9.77439 4.32631 99.5428
246 1 8.71381 2.20871 97.8153
247 1 10.6546 0.673598 96.4704
248 1 7.39688 3.45495 95.6131
249 1 10.9956 3.50976 96.8568
250 2 8.89097 4.77717 96.9748
251 1 7.91729 3.51554 92.7486
252 2 8.57456 1.96313 90.7597
253 1 9.81641 4.16838 90.6271
254 1 6.01106 1.88248 91.3171
255 1 8.16606 0.59903 92.8224
256 1 9.99102 4.14625 94.5634
257 1 7.01566 4.09226 89.9091
258 1 9.04312 2.92492 88.4143
259 1 12.4308 2.83921 100.42
260 2 10.488 3.79964 102.118
261 1 12.0853 5.57349 100.454
262 2 12.8944 4.02467 98.3333
263 1 14.7115 4.30618 100.271
264 1 11.1773 6.19536 97.9278
265 1 13.2318 4.89101 96.0167
266 2 6.24676 1.84566 93.9772
267 2 4.83451 2.81597 88.9209
268 1 10.6562 5.40381 88.137
269 1 17.4568 4.33826 99.6305
270 1 13.2693 1.98045 96.9128
271 1 10.54 2.0637 92.4952
272 1 11.2212 1.8284 89.9965
273 2 13.8432 2.08353 89.1932
274 1 11.7983 3.02102 87.6403
275 2 2.82197 4.16103 97.1313
276 1 15.4842 3.59498 97.6638
277 1 16.0371 5.18385 95.6701
278 2 12.1346 2.54148 94.4723
279 1 13.3034 2.3761 91.8775
280 2 14.0425 6.4699 94.1305
281 1 11.9062 4.60095 92.5643
282 1 12.7048 4.33027 89.9856
283 1 15.0061 4.1402 93.455
284 1 15.9129 3.68176 90.6423
285 1 13.2776 6.86233 89.0113
286 1 14.0872 6.30448 102.68
287 1 5.33963 0.102259 95.5325
288 2 16.4901 4.94116 102.131
289 1 11.9782 0.14888 100.529
290 1 4.46866 5.50303 98.7317
291 1 19.1317 6.14244 101.341
292 1 16.8389 6.29354 98.0465
293 1 16.6247 6.72715 93.3983
294 1 17.065 6.34557 90.6876
295 1 14.505 6.10658 91.3845
296 2 15.3646 5.5555 88.7296
297 1 5.3476 4.21929 93.3499
298 1 3.28072 5.51399 94.8788
299 1 2.53794 4.21214 92.5307
300 1 4.40026 4.81908 90.3922
301 2 19.1542 6.38491 92.6213
302 1 9.46743 6.12795 101.709
303 1 6.56849 6.14247 96.6438
304 1 6.61364 6.05004 100.563
305 1 4.59287 0.0884183 98.5493
306 2 7.60537 5.53726 94.3118
307 1 6.51376 6.2611 91.6526
308 1 17.7228 4.07016 88.6537
309 2 6.06939 6.50882 89.0369
310 1 9.45702 6.086 92.5796
311 2 11.1517 6.35902 90.5479
312 1 4.99214 4.8734 87.5403
313 1 3.17279 1.38258 87.4746
314 1 12.9417 0.708555 86.8068
315 2 16.4697 6.65546 84.5952
316 1 13.8866 0.0109942 82.5343
317 1 5.71964 2.33167 82.7974
318 1 1.91309 0.147924 83.4648
319 2 0.518766 0.75227 81.0447
320 1 18.8872 6.22662 76.808
321 1 1.50527 0.0418446 74.7389
322 1 1.49474 -0.0682139 78.7309
323 1 18.0321 6.72642 74.0373
324 1 3.89639 1.63758 84.7453
325 2 4.52933 0.146498 82.6504
326 1 6.49373 0.353661 84.672
327 1 2.90907 2.09969 81.7995
328 1 5.06901 0.876949 80.2576
329 1 2.23989 1.45357 72.5231
330 1 9.12684 0.29264 83.9342
331 2 13.4839 6.39756 81.2115
332 1 11.0802 6.41413 82.0478
333 1 7.50531 1.053 79.705
334 2 5.69879 2.52857 78.2453
335 1 3.55105 0.529313 76.8939
336 1 4.37314 0.230079 74.2362
337 1 10.5534 6.60719 77.469
338 1 11.2122 6.05498 74.9145
339 1 5.88519 2.33537 86.5043
340 1 16.4413 2.73861 79.606
341 2 8.26594 0.85987 86.605
342 2 9.75176 4.12329 86.1035
343 1 8.03876 2.85716 84.6196
344 1 11.5362 1.75016 82.4135
345 1 11.052 2.17275 85.1208
346 1 10.31 4.02049 83.4302
347 1 8.65377 2.37769 82.0092
348 1 8.09405 2.55595 77.4495
349 1 8.78091 1.89234 74.6349
350 1 6.09234 1.89378 75.5725
351 2 7.06054 1.32131 72.9643
352 1 14.2645 3.35471 86.9464
353 1 13.0765 4.31414 82.7498
354 1 12.3041 4.74338 85.3724
355 2 11.3858 3.73283 80.6863
356 1 10.0042 4.0983 78.5132
357 1 16.6005 4.68381 86.4767
358 1 17.6885 4.22724 83.9651
359 1 12.2506 0.152156 77.6356
360 1 10.1416 1.27681 79.2913
361 1 12.381 2.79016 78.5995
362 1 13.4188 6.60644 76.6506
363 1 11.2326 0.442081 74.681
364 2 10.6422 2.08786 76.7088
365 1 16.612 2.18481 85.4961
366 1 15.3928 5.56109 82.6236
367 2 14.9144 4.27576 84.6883
368 1 13.7583 2.34876 80.761
369 1 13.7274 2.08038 84.4387
370 1 15.7273 2.69128 82.5924
371 2 14.5466 1.51425 78.3006
372 1 13.2153 2.03503 75.9786
373 1 14.7981 4.13179 77.5654
374 1 12.5785 5.46356 78.9731
375 1 9.21723 -0.235843 72.8804
376 1 11.009 3.43731 74.6498
377 2 12.971 2.2909 73.416
378 1 13.7193 4.57693 74.6969
379 2 12.0891 4.39951 76.6995
380 1 11.314 3.57504 72.0948
381 1 3.94817 3.46368 79.4929
382 1 16.5314 2.03669 76.7215
383 1 17.8376 4.13284 72.9471
384 1 15.5061 2.62704 73.9985
385 2 2.80579 2.28804 74.7508
386 1 12.0042 0.712643 71.8157
387 1 14.3728 6.15482 86.461
388 1 18.8827 6.2291 85.4239
389 2 3.49509 3.54101 86.2195
390 2 17.3357 4.45315 81.2916
391 1 15.3209 5.30885 79.9535
392 1 7.7449 5.02189 87.3544
393 1 5.3762 4.33182 84.7664
394 2 7.11505 4.54694 82.7657
395 1 4.54165 4.82967 81.9456
396 1 6.60515 3.448 80.4747
397 1 18.2203 6.15892 79.6969
398 1 6.80306 6.20986 80.9309
399 2 4.18402 4.61545 74.7091
400 1 16.7624 4.6685 75.4512
401 1 3.8784 3.30083 76.82
402 1 4.71357 5.52618 72.1996
403 1 8.1928 5.54109 84.779
404 2 6.09848 6.43171 85.951
405 2 17.3225 4.42915 78.1653
406 2 15.7183 5.25026 73.1925
407 1 8.97013 4.86077 80.9293
408 1 6.12045 4.72082 76.6751
409 1 6.9184 4.23004 73.9626
410 2 9.62465 4.86805 73.3459
411 1 7.46043 5.88373 71.8698
412 2 7.8867 5.23982 78.5965
413 1 8.83639 4.78216 76.0549
414 1 4.76246 2.60911 73.1048
415 2 1.58766 0.402429 70.2085
416 1 1.94345 -0.11006 67.6064
417 1 10.1149 6.0021 71.1281
418 1 4.63234 -0.00866028 66.6492
419 1 3.90198 0.541935 69.4662
420 2 6.94678 5.9451 64.9323
421 1 1.96344 0.0536945 62.6324
422 1 8.34339 0.89136 70.7659
423 1 9.08858 0.241664 68.265
424 1 8.22554 5.39845 62.8169
425 1 7.07884 1.47013 66.814
426 2 6.50014 0.331811 68.8093
427 1 6.54683 0.277293 61.9319
428 1 4.52219 1.47154 63.5627
429 1 6.83179 6.26389 58.8642
430 1 5.58112 0.751315 58.949
431 2 3.91632 0.582118 61.0098
432 1 6.68805 5.59826 56.2492
433 1 14.7077 5.76433 63.8238
434 1 9.73487 0.207188 57.2005
435 1 11.3793 5.45524 58.215
436 1 14.2343 3.96039 71.6428
437 1 5.95291 2.15882 70.6243
438 1 10.7104 2.17962 69.7934
439 1 8.5989 3.5385 71.3126
440 2 14.3845 6.10709 70.5092
441 2 7.94307 2.58365 68.9737
442 1 9.60196 2.47061 66.8664
443 2 9.00925 0.329172 65.6111
444 1 7.30859 1.68698 64.192
445 1 15.0022 1.23711 71.5745
446 1 12.3268 0.0988493 68.9655
447 1 16.7139 4.74693 67.0809
448 2 14.0436 0.256253 67.0047
449 1 12.7563 2.63652 67.6501
450 1 11.4397 0.62495 66.2913
451 1 17.448 6.04264 64.5965
452 1 10.2026 1.91113 64.0784
453 1 13.6757 2.01113 65.0516
454 2 11.5944 3.24675 65.3801
455 1 10.6907 2.08173 61.1954
456 2 11.3627 0.566939 59.0849
457 1 12.6127 2.79294 59.2553
458 1 8.68584 0.77031 59.806
459 1 15.0703 5.93443 61.1226
460 1 12.7737 3.07207 62.791
461 1 9.92593 2.88083 58.1984
462 1 11.9028 1.62418 56.7701
463 1 15.08 1.30136 69.0487
464 2 13.1115 2.28011 70.2411
465 1 14.6751 4.18552 68.9037
466 2 15.3325 2.62847 66.9073
467 1 1.99313 2.74559 68.7354
468 1 13.8988 4.74576 66.2041
469 1 16.1459 3.48304 64.5274
470 2 8.99717 0.410197 62.516
471 2 7.54804 1.32797 57.4559
472 1 13.437 4.15772 56.6952
473 1 4.7968 2.85223 68.0367
474 1 0.588726 0.700483 65.1575
475 1 13.3083 0.629497 60.9041
476 1 13.9713 0.397863 58.3496
477 2 1.00055 0.331078 57.6356
478 1 14.5514 1.69988 56.0298
479 2 5.41541 2.97002 65.4438
480 1 2.77057 2.09093 66.1148
481 1 3.36159 3.7707 63.8548
482 2 15.098 1.52222 62.8497
483 1 0.646437 0.903268 60.2867
484 2 16.5793 4.81503 62.3966
485 1 14.83 3.2304 60.8533
486 1 15.55 2.85925 58.2901
487 1 2.39997 2.60594 61.5806
488 1 3.00567 2.28798 58.9589
489 1 15.9226 5.42308 57.2356
490 1 16.6452 4.68625 70.713
491 1 11.8748 5.4073 64.0519
492 2 3.54771 3.07918 70.7393
493 1 3.53009 5.24394 68.9975
494 1 7.08258 4.10997 66.9903
495 1 6.33868 4.64533 69.6902
496 1 4.1065 4.82983 66.3793
497 1 3.86323 5.20915 61.614
498 1 4.65554 4.6348 59.0577
499 1 17.2008 4.68037 59.7209
500 2 2.83931 4.03501 57.1583
501 1 8.31711 2.75293 61.6904
502 1 5.98212 3.93242 63.255
503 1 5.22344 2.65059 60.8425
504 1 7.27588 3.41604 58.9413
505 2 6.62496 4.77775 60.9598
506 1 12.1204 4.63638 69.6908
507 1 9.26737 4.38409 65.024
508 1 9.32965 4.69168 68.7383
509 1 11.2218 5.31611 66.8182
510 2 10.2406 4.17937 62.5487
511 1 9.41455 4.87365 60.2369
512 1 5.34059 2.84336 57.0774
513 2 8.73308 4.95809 57.7334
514 1 12.4094 4.96156 60.9533
515 2 13.986 5.10377 58.9302
516 1 8.06701 3.08248 56.0067
517 1 5.48196 0.103383 56.1699
518 1 4.04532 5.72935 55.3978
519 2 3.69594 5.04566 53.0967
520 1 5.19988 5.04325 50.931
521 1 8.16954 0.59414 51.2862
522 1 8.27781 5.00835 51.8059
523 2 7.14478 5.87412 49.3195
524 1 6.12347 4.65209 45.1498
525 1 7.98882 5.44242 43.3012
526 1 8.21958 5.50906 46.9745
527 1 5.53869 5.32401 42.2813
528 1 10.3565 6.54936 53.1085
529 2 10.8639 5.04736 51.0926
530 1 13.0339 5.11307 52.898
531 1 5.34521 0.479211 50.1005
532 1 11.5256 6.02362 48.7869
533 1 9.30337 6.58557 41.0058
534 1 15.5948 5.3027 52.3072
535 2 16.2178 5.36939 49.689
536 1 13.4028 4.66434 50.3771
537 1 14.1938 6.25564 48.1866
538 2 8.12465 0.533706 46.4705
539 1 10.223 5.75001 45.0133
540 1 11.3025 5.38438 42.6685
541 1 13.3592 5.24237 45.7371
542 1 14.1745 4.7128 43.3488
543 1 8.22017 0.276964 55.1364
544 1 3.32686 1.29937 48.0634
545 2 14.6479 5.83838 54.9214
546 2 12.4605 2.78222 54.6232
547 1 10.3854 1.01984 53.1326
548 1 18.0408 6.73884 51.2578
549 1 13.4165 0.478413 53.8948
550 1 12.9022 2.39255 51.9107
551 1 11.0775 0.658347 50.5868
552 1 10.737 1.19695 45.9482
553 1 11.585 0.596237 43.3981
554 1 8.9515 0.548528 43.8665
555 2 13.7742 6.35423 41.3352
556 1 1.68084 1.59072 55.4023
557 1 15.5575 2.4074 50.9
558 1 14.9554 3.03085 53.4671
559 2 13.8102 1.82583 49.3027
560 1 12.7256 2.69439 46.9781
561 1 3.97556 3.03109 54.8187
562 1 4.87392 2.57792 52.2646
563 1 3.53203 5.23238 45.9176
564 1 16.8805 6.52626 47.454
565 1 15.0464 1.34483 47.0006
566 1 16.1554 5.18034 45.3305
567 1 18.0281 5.83497 43.1295
568 2 13.4322 0.644729 45.2666
569 1 3.78462 0.439351 53.8785
570 1 2.51983 4.11854 51.1194
571 2 2.20616 2.63746 53.0107
572 1 0.795592 0.319717 49.0341
573 1 1.02897 0.429441 52.9121
574 1 2.7439 1.16734 50.9155
575 2 5.89825 6.54688 46.6014
576 1 0.749737 0.579307 44.2776
577 1 2.05796 2.65594 45.9964
578 1 15.2207 3.95448 47.6215
579 1 15.9696 5.1288 41.4181
580 1 13.7474 1.95498 43.2522
581 2 15.6007 0.69071 41.675
582 1 16.463 3.17841 43.3477
583 2 14.861 3.04401 45.232
584 1 14.5682 2.87552 40.9757
585 1 6.28437 1.71523 47.8906
586 1 3.77393 0.920117 44.9911
587 1 5.17173 2.59997 41.2569
588 1 2.78958 0.924797 41.7796
589 2 5.57051 0.827214 43.1244
590 1 13.1267 0.755227 40.8819
591 1 17.0093 4.39122 54.7797
592 1 6.19593 4.49322 53.7367
593 2 6.098 1.90572 54.6977
594 2 4.57796 2.84418 49.5913
595 1 2.6331 4.04632 48.3357
596 1 10.7263 4.19625 55.8829
597 1 7.89279 2.48632 53.2283
598 2 9.47697 2.80088 51.0806
599 1 6.9864 3.17898 50.2049
600 1 8.93333 1.76575 48.7659
601 1 5.54098 4.50121 48.0311
602 1 9.19879 4.49963 49.3135
603 2 6.73829 3.27827 43.1896
604 1 4.03736 3.25345 43.7314
605 1 6.51621 1.89976 45.1738
606 1 7.57065 4.1342 40.7958
607 1 10.6283 3.78036 53.1035
608 2 8.73648 4.89305 54.5313
609 2 4.5434 2.85786 46.4645
610 2 2.73447 3.63509 41.2099
611 1 11.4744 3.09247 49.4224
612 1 8.80732 3.4008 45.1601
613 1 9.52469 3.06875 42.525
614 2 11.9814 3.01124 41.6371
615 1 10.4451 4.25246 40.4891
616 2 10.5856 3.86203 47.0962
617 1 11.4753 3.35409 44.4064
618 1 7.58931 1.30338 41.5567
ITEM: TIMESTEP
2800
ITEM: NUMBER OF ATOMS
618
ITEM: BOX BOUNDS xy xz yz pp pp ff
0.0000000000000000e+00 1.9317770367296919e+01 4.0025167278329121e+00
0.0000000000000000e+00 6.6702723500479264e+00 0.0000000000000000e+00
0.0000000000000000e+00 1.0921147561319708e+02 0.0000000000000000e+00
ITEM: ATOMS id type x y z
1 1 5.10285 5.67009 6.1503
2 1 6.40563 5.99464 8.75084
3 1 4.77479 5.78733 13.2823
4 1 9.77801 6.56811 6.37221
5 1 7.92948 6.32032 11.1942
6 1 6.41982 6.21899 15.5734
7 1 4.87662 6.03208 20.3354
8 1 12.3539 5.62308 6.27664
9 1 7.40967 0.338263 8.82325
10 1 5.85734 0.074167 13.4058
11 1 8.14204 6.40605 17.9253
12 1 6.59061 6.29968 22.8071
13 1 4.8237 5.83897 27.3491
14 1 10.9278 0.874874 6.38311
15 1 14.1698 6.03342 8.71852
16 1 9.1697 0.544007 11.0814
17 1 12.5992 5.78024 13.6014
18 1 7.43743 0.365839 15.6386
19 1 9.76562 6.71839 20.3284
20 1 8.20351 6.41443 24.8912
21 1 6.33509 6.22366 29.6156
22 1 4.74831 5.93278 34.3561
23 1 17.6795 6.59236 6.21135
24 1 13.1175 2.97251 6.15026
25 1 12.5938 1.28134 8.84311
26 1 15.6919 6.47334 11.1191
27 1 11.2659 2.68595 11.2319
28 1 10.8221 1.14522 13.436
29 1 14.1947 6.22058 15.8161
30 1 9.05822 0.766835 18.1019
31 1 12.5323 5.76305 20.4603
32 1 7.39661 0.327183 22.7018
33 1 5.68227 0.285743 27.5443
34 1 7.81017 6.63882 32.0096
35 1 6.12509 6.1038 36.6058
36 1 15.8843 1.87947 6.29554
37 1 15.3108 0.464541 8.73919
38 1 14.5402 3.1645 8.64984
39 1 14.0487 1.64534 11.1536
40 1 13.3577 -0.0578481 13.2534
41 1 13.0369 3.06408 13.4639
42 1 12.4263 1.31283 15.8506
43 1 15.9157 6.47402 18.1327
44 1 11.2574 2.53136 18.0609
45 1 10.5823 1.03313 20.3704
46 1 14.2412 5.93687 22.6884
47 1 9.04406 0.664647 24.9781
48 1 12.3421 6.00569 27.4789
49 1 7.35522 0.572958 29.6388
50 1 5.62039 0.159678 34.2989
51 1 7.67711 6.21828 38.6265
52 1 3.13401 0.770885 6.1835
53 1 2.80976 3.66196 6.12644
54 1 2.11878 2.40452 8.70459
55 1 1.27565 0.733706 11.0735
56 1 16.2145 3.60353 10.9506
57 1 15.7307 2.11045 13.3402
58 1 15.1139 0.457671 15.5443
59 1 14.5177 3.33037 15.8033
60 1 14.0886 1.77112 18.0858
61 1 13.4772 0.0803077 20.3435
62 1 12.9314 2.85904 20.462
63 1 12.3104 1.37704 22.7194
64 1 15.8088 6.43569 24.9393
65 1 11.301 2.63191 25.0958
66 1 10.4713 1.13961 27.3721
67 1 14.1055 6.20203 29.6789
68 1 9.14459 0.820512 31.8684
69 1 12.2721 5.80355 34.2309
70 1 7.29415 0.608348 36.4516
71 1 5.57788 2.71823 6.16025
72 1 4.74221 1.18745 8.82391
73 1 4.32508 4.09036 8.53854
74 1 3.72531 2.52599 11.0173
75 1 3.14538 1.19609 13.4262
76 1 2.71356 3.95172 13.3303
77 1 2.03335 2.32869 15.5363
78 1 1.3836 0.822944 17.879
79 1 16.3961 3.58083 17.925
80 1 15.638 2.01909 20.4184
81 1 15.0701 0.311655 22.7534
82 1 14.6827 3.1273 22.8598
83 1 13.9442 1.71599 25.0695
84 1 13.183 0.14187 27.2887
85 1 12.9109 3.04516 27.3116
86 1 12.2993 1.50522 29.6657
87 1 15.6834 6.57164 31.9478
88 1 11.2143 2.66213 31.8862
89 1 10.4564 1.11533 34.2632
90 1 14.0044 6.23635 36.6663
91 1 8.81627 0.739252 39.0349
92 1 8.21805 1.75153 6.46898
93 1 7.71122 4.61866 6.25718
94 1 7.03997 3.14073 8.67644
95 1 6.54398 1.67226 11.0461
96 1 5.92721 4.44232 11.1479
97 1 5.42488 2.73724 13.3133
98 1 4.74345 1.35892 15.7105
99 1 4.21549 4.42358 15.8129
100 1 3.83602 2.51398 18.081
101 1 3.08579 1.14343 20.3519
102 1 2.65889 3.95337 20.4373
103 1 2.15252 2.35217 22.8227
104 1 1.37848 0.726238 25.0273
105 1 16.2401 3.5909 25.0256
106 1 15.733 2.10231 27.3404
107 1 14.937 0.583825 29.4848
108 1 14.5355 3.29854 29.5864
109 1 13.8993 1.65201 31.9888
110 1 13.2623 0.0300685 34.303
111 1 12.8835 2.87644 34.2162
112 1 12.1585 1.30432 36.721
113 1 15.3919 6.48935 39.0647
114 1 11.4896 2.47819 39.2071
115 1 10.2137 3.88174 6.28722
116 1 9.82967 2.08776 8.81979
117 1 9.23664 4.92575 8.96422
118 1 8.67082 3.56551 11.2023
119 1 8.23767 1.949 13.279
120 1 7.62742 4.87046 13.6213
121 1 6.89124 3.30667 15.616
122 1 6.58171 1.66502 17.9217
123 1 5.9562 4.57076 17.9921
124 1 5.36922 3.04627 20.4077
125 1 4.87711 1.25395 22.5605
126 1 4.32405 4.26663 22.6804
127 1 3.62421 2.49905 25.023
128 1 3.02678 1.04842 27.3034
129 1 2.52298 4.11089 27.2454
130 1 1.95885 2.53725 29.5742
131 1 1.25087 0.872273 31.9825
132 1 15.9629 3.76018 31.9292
133 1 15.6473 2.09546 34.3124
134 1 14.8436 0.381309 36.6271
135 1 14.4487 3.26485 36.5033
136 1 13.9302 1.76921 38.7491
137 1 11.9841 4.30606 8.85805
138 1 10.7908 5.45292 11.3128
139 1 10.3501 3.87584 13.5935
140 1 9.49054 2.35042 15.8297
141 1 9.1513 5.07186 15.7276
142 1 8.58631 3.63653 18.059
143 1 7.90209 2.08057 20.5692
144 1 7.54697 4.97251 20.4748
145 1 6.93184 3.25082 22.7441
146 1 6.32073 1.68497 25.0625
147 1 5.84763 4.64222 25.0651
148 1 5.20308 3.1795 27.3996
149 1 4.47379 1.62441 29.6373
150 1 4.13415 4.40188 29.698
151 1 3.39241 2.76094 31.922
152 1 3.02411 1.2395 34.3276
153 1 2.31796 3.98537 34.3632
154 1 1.85856 2.40287 36.7412
155 1 1.18874 0.845691 39.3002
156 1 16.2764 3.83383 39.05
157 1 15.1609 4.79504 6.39345
158 1 13.5426 4.56526 11.1806
159 1 12.0333 4.1045 15.9065
160 1 10.7552 5.338 18.092
161 1 10.05 3.89804 20.4381
162 1 9.61362 2.2503 22.8362
163 1 9.11931 5.02466 22.6912
164 1 8.5844 3.62121 25.136
165 1 7.80889 2.08308 27.3283
166 1 7.55493 4.9291 27.2742
167 1 6.9005 3.48639 29.7259
168 1 6.3108 1.70884 31.8912
169 1 5.64767 4.56484 32.0549
170 1 4.94155 3.13721 34.3488
171 1 4.50864 1.43957 36.7886
172 1 3.9984 4.34548 36.8123
173 1 3.5135 2.83841 38.9809
174 1 16.9981 5.10349 8.71318
175 1 15.2522 4.75053 13.4699
176 1 13.4943 4.55898 18.2783
177 1 11.834 4.22183 22.7979
178 1 10.899 5.64062 25.0961
179 1 10.1589 4.03722 27.2975
180 1 9.46852 2.41108 29.5296
181 1 9.01161 5.39159 29.7354
182 1 8.60594 3.58319 31.9232
183 1 7.82639 2.11646 34.1074
184 1 7.33468 4.94168 34.2338
185 1 6.67256 3.2046 36.6422
186 1 6.44433 1.9851 38.9193
187 1 5.49023 4.80939 39.221
188 1 18.4609 5.41476 10.8441
189 1 16.9046 5.31221 15.7495
190 1 15.3641 4.76126 20.3916
191 1 13.5244 4.56208 25.0462
192 1 11.7224 4.22071 29.5752
193 1 10.8143 5.6885 31.8402
194 1 10.2607 4.03235 34.0046
195 1 9.54586 2.4177 36.3296
196 1 9.03586 5.24192 36.0837
197 1 8.94183 3.63337 38.3467
198 1 18.5272 5.40101 18.1324
199 1 16.9073 5.16584 22.581
200 1 15.1092 4.95639 27.2643
201 1 13.4383 4.50848 31.8928
202 1 11.8888 4.09578 36.6246
203 1 10.6891 5.68437 38.3456
204 1 18.6002 5.44738 24.9945
205 1 16.7807 5.22751 29.6821
206 1 14.8937 4.91724 34.2983
207 1 13.3349 4.78172 39.2258
208 1 18.3102 5.57295 31.8593
209 1 16.5925 5.09039 36.5565
210 1 18.1033 5.66635 39.1752
211 2 14.1482 1.57395 102.034
212 1 14.5289 1.37284 99.287
213 1 3.25425 0.668505 102.84
214 1 2.1027 1.45402 98.4485
215 1 1.24464 1.79738 101.279
216 2 15.6145 0.784544 96.5656
217 1 14.5825 1.54053 94.1891
218 1 5.72286 2.07304 102.347
219 1 6.57951 1.4645 99.7189
220 1 1.57781 0.355371 94.3947
221 1 4.29047 2.99696 98.4462
222 2 3.85293 1.60945 100.512
223 1 3.87689 1.55377 93.5632
224 1 1.76275 2.95852 94.8178
225 1 15.5243 0.844825 90.5083
226 1 2.67789 2.01615 90.3642
227 2 1.25882 1.95633 92.4244
228 1 15.6624 1.08573 87.7879
229 1 8.03073 0.72615 95.3265
230 1 6.89655 1.42873 88.7669
231 1 4.63665 -0.0175205 89.9528
232 1 11.5151 5.31307 103.048
233 1 3.36259 3.443 102.211
234 1 7.89145 3.46337 101.453
235 1 5.85588 4.79193 103.009
236 2 7.89723 0.777419 102.054
237 2 5.25844 3.91956 100.524
238 1 6.93192 4.08932 98.5613
239 2 6.23588 1.94289 97.1562
240 1 4.49412 3.07379 95.8144
241 1 12.217 2.12574 103.178
242 1 9.97038 1.83836 101.238
243 1 13.8266 6.4214 98.8102
244 2 11.2039 1.81233 98.8014
245 1 9.84522 3.96618 99.4121
246 1 8.64088 2.11019 97.7388
247 1 10.6322 0.828397 96.4852
248 1 7.34217 3.56872 95.5136
249 1 11.0981 3.49588 96.785
250 2 8.90204 4.86683 96.917
251 1 7.89017 3.56541 92.72
252 2 8.63216 2.12011 90.6165
253 1 9.81307 4.25502 90.8206
254 1 5.87926 2.16706 91.3159
255 1 8.29082 0.779865 92.6753
256 1 9.94061 4.54152 94.4829
257 1 6.98915 4.12627 89.7314
258 1 9.24189 2.9775 88.3049
259 1 12.5756 2.67843 100.459
260 2 10.4644 3.83449 102.013
261 1 12.019 5.44481 100.435
262 2 12.9762 4.19942 98.3563
263 1 14.837 4.13625 100.208
264 1 11.1339 6.07255 97.5783
265 1 13.4578 5.0148 96.1566
266 2 6.29889 1.85275 93.8767
267 2 4.75936 2.69176 89.0324
268 1 10.6046 5.48783 88.1823
269 1 17.5189 4.11028 99.5564
270 1 13.3279 2.14346 96.8425
271 1 10.5133 2.29512 92.4911
272 1 11.2499 1.66395 89.9392
273 2 13.808 1.98011 89.077
274 1 11.8232 3.02648 87.4891
275 2 2.62735 4.32412 97.0125
276 1 15.5018 3.67131 97.6043
277 1 16.0018 5.3543 95.4837
278 2 12.3453 2.94988 94.4188
279 1 13.1912 2.26141 91.8008
280 2 14.0837 6.67142 94.0513
281 1 12.0784 4.62611 92.5285
282 1 12.5955 4.17808 89.9369
283 1 14.9359 4.17529 93.2794
284 1 15.5999 3.52633 90.6094
285 1 9.2225 0.138061 88.8294
286 1 14.2072 5.98483 102.183
287 1 5.09807 0.327459 95.6028
288 2 16.6868 4.89435 102.23
289 1 12.1798 -0.0362643 100.458
290 1 4.44994 5.72288 98.6537
291 1 3.86764 5.91145 101.231
292 1 16.6611 6.26114 97.8968
293 1 12.5831 -0.124723 93.1172
294 1 17.2439 6.08331 90.564
295 1 14.5537 6.12226 91.3477
296 2 15.6468 5.7649 88.6787
297 1 5.35931 4.22011 93.3703
298 1 3.1893 5.53193 94.7418
299 1 2.64335 4.03598 92.3929
300 1 4.46122 4.65746 90.5191
301 2 3.82314 6.21623 92.518
302 1 9.39343 6.14331 101.401
303 1 6.45814 5.97359 96.5593
304 1 6.81306 5.94729 100.526
305 1 4.58979 0.119488 98.4494
306 2 7.61881 5.66175 94.1009
307 1 6.51861 6.3454 91.7635
308 1 17.7294 3.98809 88.6262
309 2 6.15113 6.50778 89.3336
310 1 9.66891 6.37405 92.7035
311 2 11.1967 6.48421 90.503
312 1 4.95644 4.94745 87.7795
313 1 3.24071 1.49889 87.5344
314 1 12.9538 0.798364 86.8109
315 2 16.4183 6.53446 84.5544
316 1 13.9918 0.138654 82.5894
317 1 5.80099 2.17069 82.7977
318 1 1.79993 0.0201584 83.4985
319 2 0.686948 0.670247 80.9678
320 1 18.9111 6.12629 76.6142
321 1 1.48456 -0.0060879 74.8871
322 1 5.41486 6.41798 78.593
323 1 13.934 -0.118158 73.8827
324 1 3.85049 1.5895 84.8326
325 2 4.39119 0.104066 82.709
326 1 6.3948 0.0181404 84.7146
327 1 2.91786 2.17335 81.9495
328 1 5.00019 1.26051 80.2242
329 1 2.28107 1.2617 72.7034
330 1 9.04429 0.102296 83.9179
331 2 13.4085 6.38013 81.215
332 1 11.0736 6.48586 82.0192
333 1 7.55941 1.00568 79.6388
334 2 5.75252 2.47833 78.107
335 1 3.63132 0.551757 76.8379
336 1 4.36729 0.185233 74.1924
337 1 6.59628 -0.151564 77.4769
338 1 11.3363 6.16258 74.8565
339 1 5.86216 2.46542 86.5227
340 1 16.5481 2.59105 79.6382
341 2 8.23061 1.05432 86.5481
342 2 9.60869 4.02546 86.0296
343 1 8.0268 2.59749 84.4894
344 1 11.4634 1.68515 82.5575
345 1 10.8055 2.01962 85.1242
346 1 10.2557 4.11962 83.5284
347 1 8.79463 2.33264 81.8685
348 1 8.17636 2.48571 77.4668
349 1 8.91699 2.11526 74.7232
350 1 6.19626 1.98072 75.4832
351 2 6.99183 1.22359 72.9117
352 1 14.3493 3.45457 86.9165
353 1 13.0546 4.2175 82.8013
354 1 12.2478 4.70129 85.3667
355 2 11.3747 3.6311 80.8742
356 1 10.1106 4.005 78.517
357 1 16.6922 4.84383 86.472
358 1 17.7022 4.30262 83.8915
359 1 12.3773 0.0515139 77.463
360 1 10.2517 1.12239 79.298
361 1 12.3605 2.68815 78.6344
362 1 13.5776 6.61405 76.5846
363 1 11.5171 0.652712 74.6714
364 2 10.8752 2.02872 76.7828
365 1 1.18737 2.24433 85.4426
366 1 15.3583 5.64032 82.5124
367 2 14.892 4.22783 84.5517
368 1 13.8565 2.35629 80.771
369 1 13.5674 2.07771 84.5351
370 1 15.6462 2.81454 82.5532
371 2 14.5988 1.37462 78.3426
372 1 13.5379 2.14122 76.0721
373 1 14.8346 4.10112 77.5028
374 1 12.6409 5.31182 78.944
375 1 13.4099 6.61511 72.9552
376 1 11.114 3.55272 74.7076
377 2 13.1836 2.28571 73.4771
378 1 13.8266 4.5843 74.7136
379 2 12.2119 4.4285 76.7499
380 1 11.2057 3.52677 72.0837
381 1 3.92474 3.84928 79.3678
382 1 16.5246 2.01922 76.9937
383 1 2.64903 3.88727 72.9149
384 1 15.5236 2.48432 73.9865
385 2 2.79733 2.26777 74.9355
386 1 11.8458 0.636997 71.8046
387 1 14.3615 6.07799 86.3074
388 1 19.0517 6.14835 85.4575
389 2 3.43847 3.66605 86.2104
390 2 17.2088 4.46653 81.2061
391 1 15.2614 5.14522 79.8612
392 1 7.84983 5.27733 87.318
393 1 5.44996 4.24393 84.6362
394 2 7.07942 4.38887 82.5898
395 1 4.47137 4.8139 81.7306
396 1 6.67027 3.40336 80.3434
397 1 17.9474 6.24059 79.797
398 1 6.94073 6.30694 80.7024
399 2 4.25089 4.57855 74.6118
400 1 16.8703 4.44353 75.4722
401 1 3.88929 3.27122 76.8216
402 1 4.86097 5.3347 72.1646
403 1 7.97458 5.33162 84.696
404 2 6.16863 6.5239 86.0324
405 2 17.16 4.3895 78.1067
406 2 15.7274 5.16349 73.253
407 1 9.15944 4.84713 80.9226
408 1 6.17326 4.6104 76.4993
409 1 6.96678 4.30075 73.9112
410 2 9.55495 4.67383 73.4088
411 1 7.58239 5.88879 71.8079
412 2 7.84777 5.195 78.5324
413 1 8.93775 4.86241 76.0939
414 1 4.8206 2.44364 73.0534
415 2 1.61026 0.465369 70.3159
416 1 6.06131 6.68361 67.6089
417 1 10.2189 5.87093 71.1051
418 1 8.69643 6.84488 66.9677
419 1 4.01581 0.601814 69.6099
420 2 6.81107 5.99736 65.0627
421 1 2.02212 0.166807 62.7122
422 1 8.33946 0.763589 70.6038
423 1 9.39362 0.198629 67.9622
424 1 8.12066 5.40685 62.857
425 1 7.05009 1.5144 66.8967
426 2 6.63119 0.0992688 68.8026
427 1 6.53832 0.0620441 61.8086
428 1 4.48968 1.54 63.2245
429 1 6.89429 6.23082 58.9223
430 1 5.5675 0.605892 58.8658
431 2 4.0268 0.441832 61.0441
432 1 6.82516 5.81269 56.2685
433 1 14.5186 5.7638 63.6449
434 1 9.57491 0.0528278 57.1576
435 1 11.2608 5.3394 58.0919
436 1 14.0402 3.98913 71.8495
437 1 6.08525 2.02478 70.5332
438 1 10.5829 2.1112 69.7868
439 1 8.52838 3.34352 71.3133
440 2 14.4389 5.93672 70.4066
441 2 7.99813 2.48612 68.8931
442 1 9.7123 2.54546 66.8291
443 2 8.90688 0.507085 65.4862
444 1 7.16289 1.68725 64.15
445 1 14.9929 1.19314 71.6112
446 1 12.3903 0.0256385 69.0018
447 1 16.6853 4.70919 67.1058
448 2 14.0179 0.320146 66.9212
449 1 12.7408 2.51626 67.652
450 1 11.4071 0.718864 66.0751
451 1 17.3797 5.99559 64.6786
452 1 10.1571 1.92766 63.8702
453 1 13.7772 1.98741 65.1614
454 2 11.667 3.43225 65.3398
455 1 10.6059 2.29617 61.0352
456 2 11.3602 0.77421 59.0021
457 1 12.4893 2.94411 59.0199
458 1 8.59272 0.652277 59.7302
459 1 14.9866 6.06477 61.0286
460 1 12.9082 2.97437 62.9537
461 1 9.68946 2.75339 58.1678
462 1 11.7742 1.6357 56.6338
463 1 15.0553 1.23695 68.9868
464 2 13.0391 2.37276 70.2586
465 1 14.7845 4.01598 68.9097
466 2 15.425 2.49672 66.9716
467 1 2.04324 2.66843 68.7541
468 1 13.8258 4.69215 66.1489
469 1 16.1057 3.48928 64.6293
470 2 8.92585 0.453273 62.2453
471 2 7.38773 1.13066 57.4312
472 1 13.5459 4.09655 56.7976
473 1 4.86762 2.81952 68.0812
474 1 0.677888 0.618282 65.256
475 1 13.1933 0.937544 60.9821
476 1 13.925 0.394026 58.4581
477 2 1.02339 0.328686 57.536
478 1 14.3502 1.66471 56.0994
479 2 5.50263 2.68554 65.46
480 1 2.83112 2.31518 66.1677
481 1 3.36416 3.83193 64.03
482 2 15.0915 1.48219 62.9181
483 1 0.706625 0.956799 60.2934
484 2 16.5545 4.76392 62.5481
485 1 14.83 3.32664 60.8366
486 1 15.6815 2.7532 58.2377
487 1 2.44416 2.6197 61.5823
488 1 3.14735 2.25162 59.0424
489 1 15.9583 5.53415 57.3845
490 1 16.7073 4.57048 70.7913
491 1 11.6492 5.69219 64.106
492 2 3.70859 3.03054 70.8141
493 1 3.54403 5.17415 68.8641
494 1 7.26724 4.27143 67.0292
495 1 6.374 4.617 69.6615
496 1 4.35674 4.79587 66.4167
497 1 3.83707 5.26615 61.6976
498 1 4.59593 4.87521 59.1046
499 1 17.2474 4.6248 59.772
500 2 2.88222 4.34428 57.1064
501 1 8.07448 2.81825 61.7311
502 1 5.90824 4.09846 63.2912
503 1 5.29583 2.65762 60.8195
504 1 7.14495 3.36063 58.8638
505 2 6.47547 4.83366 60.9683
506 1 12.2746 4.74027 69.6796
507 1 9.13781 4.39353 65.0394
508 1 9.31534 4.60118 68.916
509 1 11.1777 5.27913 66.8807
510 2 10.2905 4.09087 62.6368
511 1 9.14283 4.88413 60.2173
512 1 5.15243 2.8402 57.1797
513 2 8.92426 4.89492 57.6111
514 1 12.4465 4.69179 61.0652
515 2 13.9687 5.01486 59.0958
516 1 7.91826 3.09632 56.0191
517 1 5.54529 0.141733 56.1132
518 1 4.08068 6.07647 55.2265
519 2 3.60773 4.91137 53.0244
520 1 5.21324 5.0223 51.1145
521 1 8.18461 0.779764 51.0915
522 1 8.15608 5.10802 51.8046
523 2 7.1018 5.83776 49.5641
524 1 6.28438 4.80395 45.0597
525 1 8.28099 5.21899 43.1096
526 1 8.11783 5.5122 47.1357
527 1 5.61259 5.42952 42.4059
528 1 10.2543 6.57362 53.0726
529 2 11.1094 5.11342 51.0649
530 1 12.9518 5.22987 52.8216
531 1 5.47242 0.515594 50.307
532 1 11.5764 5.83486 48.7793
533 1 5.26326 0.076115 40.7782
534 1 15.5652 5.27885 52.2714
535 2 16.3381 5.33896 49.6954
536 1 13.7304 4.67998 50.3479
537 1 14.2041 6.31168 48.1642
538 2 8.0213 0.518037 46.6119
539 1 10.3863 5.97986 45.1045
540 1 11.1048 5.26376 42.5849
541 1 13.2983 5.08595 45.9231
542 1 14.0061 4.849 43.3253
543 1 8.16945 0.312225 54.9667
544 1 3.26816 1.39511 48.1492
545 2 14.6967 5.85234 54.8722
546 2 12.5761 3.11071 54.5747
547 1 10.305 1.00003 53.0874
548 1 14.0549 0.0149018 51.1604
549 1 13.3048 0.508957 53.6566
550 1 12.8402 2.53704 51.8285
551 1 11.0169 0.831067 50.5216
552 1 10.6237 1.09448 45.8718
553 1 11.5098 0.706256 43.3367
554 1 8.78585 0.4138 43.9859
555 2 13.6664 6.67164 41.3014
556 1 1.67192 1.78811 55.5688
557 1 15.4986 2.55977 51.0941
558 1 15.0123 2.9076 53.7549
559 2 13.7551 1.86992 49.2519
560 1 12.7277 2.71206 46.818
561 1 3.89477 3.34607 54.9535
562 1 4.85716 2.58466 52.4294
563 1 3.75013 5.45296 45.8583
564 1 16.6744 6.63473 47.4011
565 1 15.0371 1.34167 47.0199
566 1 16.1107 5.20336 45.1667
567 1 17.9358 5.79836 43.3478
568 2 13.3329 0.672128 45.2791
569 1 3.73242 0.617339 54.0169
570 1 2.50661 3.98172 51.0152
571 2 2.29637 2.53526 53.0897
572 1 0.654531 0.372035 49.3051
573 1 0.903045 0.434182 52.8703
574 1 2.7551 1.02892 50.9941
575 2 5.81158 6.66618 46.8603
576 1 0.689349 0.695809 44.2046
577 1 2.05983 2.69886 45.8785
578 1 15.5356 3.96614 47.5703
579 1 16.0255 5.32672 41.4314
580 1 13.6651 2.12403 43.2797
581 2 15.5142 0.745006 41.7186
582 1 16.382 3.22231 43.3079
583 2 14.824 2.9925 45.265
584 1 14.6012 3.07802 40.9162
585 1 6.02782 1.54748 47.9902
586 1 3.79389 0.657587 45.1273
587 1 5.0895 2.8647 41.2827
588 1 2.91285 1.0914 42.1841
589 2 5.34504 0.94457 43.1489
590 1 13.1784 0.902932 41.0022
591 1 16.8106 4.63674 54.684
592 1 6.1002 4.58204 54.012
593 2 5.95739 2.07734 54.6761
594 2 4.48815 2.89821 49.7169
595 1 2.9315 4.49817 48.2366
596 1 10.6681 4.10667 55.8113
597 1 7.83509 2.67173 53.1984
598 2 9.4674 2.81195 51.1316
599 1 6.88282 3.0302 50.2159
600 1 8.86227 1.94257 48.528
601 1 5.70167 4.36278 48.0278
602 1 9.16323 4.54213 49.3688
603 2 6.94483 3.27873 43.1054
604 1 4.06869 3.37149 43.7887
605 1 6.43934 1.90157 45.2543
606 1 7.63503 4.15117 40.65
607 1 10.6143 3.79359 53.065
608 2 8.70847 4.93277 54.4484
609 2 4.45855 2.97419 46.4822
610 2 2.78702 3.91716 41.2709
611 1 11.5523 3.19999 49.4224
612 1 8.90231 3.29812 45.3105
613 1 9.61447 2.77101 42.5961
614 2 12.1243 3.02085 41.7769
615 1 10.2977 4.25126 40.4149
616 2 10.5743 4.11596 47.0921
617 1 11.4613 3.34043 44.5142
618 1 7.50975 1.33642 41.6491
ITEM: TIMESTEP
2900
ITEM: NUMBER OF ATOMS
618
ITEM: BOX BOUNDS xy xz yz pp pp ff
0.0000000000000000e+00 1.9317770367296919e+01 4.0025167278329121e+00
0.0000000000000000e+00 6.6702723500479264e+00 0.0000000000000000e+00
0.0000000000000000e+00 1.0921147561319708e+02 0.0000000000000000e+00
ITEM: ATOMS id type x y z
1 1 4.83847 5.68442 6.37923
2 1 6.55325 6.01363 8.74688
3 1 4.95545 5.76704 13.5508
4 1 10.0692 6.58028 6.27749
5 1 8.26758 6.26053 10.8914
6 1 6.55402 6.05835 15.7901
7 1 4.72061 5.74145 20.4763
8 1 12.8437 5.62412 6.33347
9 1 7.59665 0.354292 8.96826
10 1 5.67798 -0.0919821 13.5229
11 1 8.13708 6.51963 18.1769
12 1 6.45128 6.1041 22.6636
13 1 4.75293 5.84616 27.314
14 1 10.7028 0.86373 6.23868
15 1 14.2066 6.20034 8.86225
16 1 9.13332 0.721105 11.2993
17 1 12.4552 5.67528 13.407
18 1 7.4104 0.480203 15.9185
19 1 9.78884 6.88072 20.5378
20 1 7.92698 6.57366 25.113
21 1 6.40431 6.25457 29.5609
22 1 4.61329 5.68534 34.3233
23 1 17.4982 6.76149 6.24229
24 1 13.1429 2.86548 6.40533
25 1 12.3966 1.39416 8.78443
26 1 16.0485 6.38974 11.1978
27 1 11.4355 2.52175 11.2091
28 1 10.7073 0.951373 13.4801
29 1 14.1739 5.85672 15.8038
30 1 9.11036 0.719241 18.0877
31 1 12.3505 5.74929 20.3421
32 1 7.32841 0.592164 22.8038
33 1 5.79946 0.0741892 27.1921
34 1 8.139 6.51747 31.8374
35 1 6.27106 6.2001 36.5975
36 1 15.6378 1.85012 6.19764
37 1 15.041 0.247214 8.73711
38 1 14.904 3.32669 8.83555
39 1 14.2469 1.56038 11.0461
40 1 13.6213 0.0736257 13.6144
41 1 13.0014 2.86028 13.5457
42 1 12.3433 1.29115 15.9104
43 1 15.799 6.43239 18.0553
44 1 11.3374 2.62589 18.1252
45 1 10.8257 0.966613 20.401
46 1 13.9521 6.22277 22.7324
47 1 8.95675 0.75486 25.0745
48 1 12.4573 5.80388 27.2357
49 1 7.29116 0.541964 29.5168
50 1 5.57972 0.111865 34.2208
51 1 7.68072 6.42916 38.6831
52 1 3.17939 1.02224 6.29
53 1 2.66602 3.95521 6.36644
54 1 1.94873 2.10035 8.64489
55 1 1.5498 0.584238 10.9605
56 1 16.3989 3.57798 11.1918
57 1 15.7001 1.87273 13.5376
58 1 15.2246 0.258639 15.9128
59 1 14.6769 3.13064 15.7616
60 1 13.9087 1.57057 18.0784
61 1 13.2842 -0.0437074 20.393
62 1 12.9747 2.9927 20.3173
63 1 12.3923 1.25173 22.7018
64 1 15.621 6.44738 25.0165
65 1 11.221 2.62456 24.9168
66 1 10.7311 0.984395 27.3064
67 1 13.9571 6.22269 29.6233
68 1 8.71855 0.719384 31.8602
69 1 12.4061 5.87559 34.2165
70 1 7.18579 0.563187 36.415
71 1 5.39697 2.94266 6.45041
72 1 4.75036 1.36139 8.72064
73 1 4.23011 4.18271 8.73201
74 1 3.58225 2.58047 11.1307
75 1 3.02032 0.867979 13.3959
76 1 2.50181 3.74216 13.4722
77 1 2.18639 2.22754 15.8558
78 1 1.50862 0.721688 18.324
79 1 16.1346 3.62214 18.317
80 1 15.5645 1.96871 20.2617
81 1 15.1074 0.523868 22.7061
82 1 14.417 3.39236 22.585
83 1 13.9431 1.73383 24.9169
84 1 13.5675 0.0456093 27.3709
85 1 12.861 3.02564 27.2941
86 1 12.1674 1.28131 29.6226
87 1 15.48 6.29058 31.9215
88 1 11.1028 2.59936 31.9556
89 1 10.5864 0.946559 34.1506
90 1 13.8989 6.08935 36.7673
91 1 8.83593 0.905371 38.9491
92 1 8.14019 1.87716 6.3001
93 1 7.59206 4.69031 6.45673
94 1 7.04068 3.02099 8.81657
95 1 6.27438 1.58025 11.2309
96 1 5.84268 4.41585 10.9487
97 1 5.15176 2.92972 13.3537
98 1 4.70749 1.26817 15.7943
99 1 4.32668 4.204 15.7288
100 1 3.5162 2.92482 18.1272
101 1 3.13436 1.1053 20.4315
102 1 2.55091 4.03305 20.4137
103 1 1.92111 2.40431 22.6292
104 1 1.45753 0.809263 24.9377
105 1 16.1206 3.59792 24.951
106 1 15.6301 2.15987 27.3258
107 1 14.8608 0.362334 29.7887
108 1 14.4848 3.37138 29.7856
109 1 13.7324 1.71867 31.9091
110 1 13.1169 0.0175261 34.2991
111 1 12.6303 3.12301 34.2903
112 1 12.1937 1.46542 36.5828
113 1 15.3328 6.52643 39.1094
114 1 11.556 2.59507 39.1358
115 1 10.3995 3.71402 6.41896
116 1 9.66319 2.39706 8.95829
117 1 9.34595 5.20291 8.64333
118 1 8.73123 3.58899 11.1632
119 1 7.81983 1.93178 13.6497
120 1 7.63356 4.73675 13.2294
121 1 7.12369 3.29475 15.957
122 1 6.27597 1.82609 18.2662
123 1 5.91339 4.58682 18.0532
124 1 5.33506 3.06426 20.4751
125 1 4.61174 1.46049 22.8405
126 1 4.05577 4.35937 22.7506
127 1 3.59107 2.90035 25.0687
128 1 2.93859 1.18996 27.4131
129 1 2.50966 3.92849 27.5253
130 1 1.79735 2.36124 29.6669
131 1 1.28316 0.708887 31.9578
132 1 16.208 3.48498 32.0457
133 1 15.4386 1.99126 34.2265
134 1 15.0191 0.509797 36.6232
135 1 14.3911 3.38105 36.472
136 1 14.1926 1.86141 38.6053
137 1 12.0613 4.14826 8.74086
138 1 10.973 5.3985 11.1088
139 1 10.2376 3.74453 13.338
140 1 9.82819 2.30794 15.8176
141 1 9.16544 5.20885 15.8772
142 1 8.76525 3.644 18.1043
143 1 8.04576 2.00627 20.3107
144 1 7.75483 4.82394 20.4205
145 1 7.05422 3.35633 22.5821
146 1 6.37234 1.73512 25.0275
147 1 5.82765 4.62722 25.0442
148 1 5.2671 2.94682 27.312
149 1 4.63406 1.40128 29.5518
150 1 4.02892 4.21295 29.6322
151 1 3.6169 2.59917 31.9903
152 1 2.78082 1.0767 34.2028
153 1 2.40363 3.84656 34.3892
154 1 1.85341 2.52438 36.7254
155 1 1.27751 0.873247 39.4167
156 1 16.3141 3.70856 39.0065
157 1 15.3537 4.72359 6.11978
158 1 13.7383 4.54 11.1891
159 1 11.7985 4.22744 15.6662
160 1 10.8369 5.54725 18.1616
161 1 10.3267 3.93954 20.3077
162 1 9.61661 2.35747 22.555
163 1 9.19381 5.36706 22.6345
164 1 8.55553 3.67882 25.0077
165 1 7.9964 2.01958 27.3433
166 1 7.35972 4.98876 27.4035
167 1 6.72752 3.20022 29.4852
168 1 6.19815 1.90277 31.8377
169 1 5.6841 4.73497 31.7051
170 1 5.24983 3.03063 34.2946
171 1 4.68921 1.58796 36.5171
172 1 4.08905 4.31021 36.7113
173 1 3.49352 2.64407 39.1033
174 1 16.8834 5.03841 8.7727
175 1 15.3108 4.80373 13.4941
176 1 13.5535 4.33531 17.9525
177 1 11.8301 4.17791 22.6701
178 1 10.7636 5.35895 24.8373
179 1 10.1568 3.88821 27.3329
180 1 9.53116 2.29462 29.7204
181 1 9.1374 5.10897 29.4315
182 1 8.37547 3.64242 31.8325
183 1 7.8166 1.8599 34.1096
184 1 7.42631 5.00472 34.2122
185 1 6.81486 3.46699 36.5791
186 1 6.25533 2.14557 38.8469
187 1 5.36092 4.81345 39.1847
188 1 18.5958 5.4836 11.2141
189 1 16.8683 5.09306 15.7922
190 1 15.0246 4.90216 20.4883
191 1 13.4677 4.49209 24.8753
192 1 11.7993 4.22976 29.6338
193 1 10.5576 5.34413 31.9983
194 1 9.908 3.91474 34.2933
195 1 9.4522 2.35021 36.4353
196 1 8.96383 5.37221 36.5842
197 1 8.86849 3.50097 38.5934
198 1 18.482 5.61886 18.0813
199 1 16.716 5.18362 22.7254
200 1 15.1374 4.82041 27.3428
201 1 13.3321 4.60368 32.0418
202 1 11.5051 4.33423 36.6641
203 1 10.5999 6.07755 38.6912
204 1 18.4062 5.57007 25.0765
205 1 16.7017 5.11171 29.7403
206 1 15.0771 4.739 34.3285
207 1 13.2604 4.91899 39.089
208 1 18.2612 5.39358 31.9607
209 1 16.7075 5.20977 36.8054
210 1 18.1997 5.53831 39.1481
211 2 14.2899 1.74749 101.826
212 1 14.6792 1.31346 99.2493
213 1 3.37628 0.612461 102.847
214 1 2.0665 1.41485 98.6023
215 1 1.26727 1.92052 101.26
216 2 15.5319 0.830641 96.5009
217 1 14.4163 1.63774 94.1605
218 1 5.75649 2.0805 102.531
219 1 6.56684 1.57377 99.8596
220 1 1.51826 0.341535 94.3261
221 1 4.29581 2.91116 98.4037
222 2 4.10817 1.31129 100.555
223 1 3.79444 1.65757 93.4002
224 1 1.84363 2.92585 94.9752
225 1 15.4015 0.965351 90.4847
226 1 2.90831 2.14794 90.5112
227 2 1.1449 2.00317 92.4786
228 1 15.6636 0.998732 87.7261
229 1 7.88563 0.35457 95.2118
230 1 6.9524 1.5919 88.7104
231 1 4.68232 0.169813 89.7187
232 1 11.7156 4.90619 103.066
233 1 3.49775 3.52982 102.041
234 1 7.95661 3.3905 101.693
235 1 5.97087 4.88469 102.885
236 2 7.83061 0.765531 101.872
237 2 5.54971 3.77897 100.494
238 1 6.95663 4.0078 98.3422
239 2 6.34517 1.75018 97.1198
240 1 4.7171 3.17802 95.704
241 1 12.2196 2.08228 103.011
242 1 9.92188 1.85102 100.748
243 1 14.0934 6.19274 98.6039
244 2 11.3147 1.84857 98.492
245 1 9.73467 4.09094 99.3677
246 1 8.68845 1.96802 97.5471
247 1 10.6566 0.867609 96.2786
248 1 7.49651 3.41638 95.4268
249 1 11.0686 3.65186 96.7145
250 2 9.03008 4.77139 96.8705
251 1 8.15365 3.7344 92.5422
252 2 8.64402 2.20665 90.5788
253 1 9.95959 4.30584 90.5104
254 1 5.96829 2.22021 91.3132
255 1 8.16421 0.935593 92.6722
256 1 10.0995 4.41499 94.357
257 1 7.04763 4.28251 89.7493
258 1 9.18515 2.9102 88.2492
259 1 12.5823 2.88043 100.402
260 2 10.6253 3.61252 101.862
261 1 12.1949 5.5143 100.435
262 2 13.0783 4.03952 98.3573
263 1 14.8449 4.29153 100.232
264 1 11.1834 6.1307 97.7537
265 1 13.4257 4.85001 96.0957
266 2 6.21407 1.92073 94.0322
267 2 4.91221 2.84836 88.9433
268 1 10.6809 5.50785 88.2597
269 1 17.4565 4.24153 99.4858
270 1 13.2161 2.02657 96.679
271 1 10.5185 2.23467 92.4764
272 1 11.24 1.69383 89.9277
273 2 13.7543 2.07136 89.0772
274 1 11.5982 3.19348 87.583
275 2 2.76708 4.33 97.0138
276 1 15.5656 3.44093 97.552
277 1 16.013 5.32113 95.5428
278 2 12.3348 2.9832 94.3785
279 1 13.2824 2.38022 91.6138
280 2 13.986 6.53496 93.9465
281 1 11.968 4.84582 92.3767
282 1 12.7258 4.37938 89.8157
283 1 14.8182 4.14718 93.2593
284 1 15.7034 3.60977 90.6252
285 1 9.27032 0.219502 88.7337
286 1 14.3808 6.18115 102.407
287 1 4.99109 0.343124 95.6521
288 2 16.4956 4.58987 102.086
289 1 12.1554 0.132352 100.536
290 1 4.52778 5.50657 98.5446
291 1 3.92186 5.9162 101.057
292 1 16.882 6.4086 97.8279
293 1 12.4916 0.0867264 93.2103
294 1 17.2327 6.22575 90.5901
295 1 14.3923 6.14196 91.329
296 2 15.5142 5.60455 88.5833
297 1 5.54632 4.24553 93.2949
298 1 3.19733 5.51065 94.7501
299 1 2.45455 4.15539 92.4595
300 1 4.40952 4.93638 90.3987
301 2 3.83571 6.22097 92.5409
302 1 9.40781 5.94876 101.728
303 1 6.311 6.00423 96.5629
304 1 6.74795 6.02112 100.447
305 1 4.55439 -0.0581115 98.4593
306 2 7.60886 5.68245 94.2114
307 1 6.5442 6.38759 91.7362
308 1 17.8977 4.17169 88.8103
309 2 6.19143 6.53091 89.1502
310 1 9.64984 6.45508 92.6665
311 2 11.1503 6.51834 90.6145
312 1 5.08608 4.90815 87.5187
313 1 3.17038 1.55272 87.5274
314 1 12.8116 0.840932 86.8936
315 2 16.3276 6.64241 84.6789
316 1 14.0176 0.0732713 82.5919
317 1 5.71126 2.30266 82.6126
318 1 1.80795 0.059841 83.4681
319 2 0.693578 0.731373 81.0548
320 1 18.8976 6.06386 76.7791
321 1 1.58035 -0.0192941 75.008
322 1 5.35797 6.35431 78.7236
323 1 14.0857 0.0720362 74.0584
324 1 3.85742 1.6711 84.6894
325 2 4.48599 0.158063 82.6976
326 1 6.42372 0.216636 84.6499
327 1 2.86439 2.08371 81.7236
328 1 5.13703 0.800891 80.1178
329 1 2.318 1.28147 72.6538
330 1 9.1269 0.225897 83.9413
331 2 13.4838 6.35687 81.2583
332 1 11.1133 6.38349 82.1644
333 1 7.69896 1.08781 79.7428
334 2 5.82066 2.37994 78.1583
335 1 3.73351 0.289101 76.7902
336 1 4.41456 0.0193755 74.1216
337 1 6.49469 -0.0996163 77.4348
338 1 11.3306 5.97611 74.794
339 1 5.92762 2.36984 86.4436
340 1 16.5688 2.58669 79.6203
341 2 8.17691 1.02811 86.4942
342 2 9.66747 4.19621 85.9946
343 1 7.923 2.77831 84.5244
344 1 11.5019 1.61283 82.5565
345 1 10.9323 2.01703 85.2245
346 1 10.2953 4.00994 83.3517
347 1 8.64354 2.27138 81.9203
348 1 8.10842 2.2604 77.3707
349 1 8.81219 1.83345 74.769
350 1 6.13289 1.85447 75.4025
351 2 7.20415 1.1468 72.8148
352 1 14.4075 3.33187 86.9014
353 1 13.0402 4.22705 82.9026
354 1 12.3354 4.68052 85.4025
355 2 11.3949 3.56622 80.6917
356 1 10.1379 4.01408 78.4076
357 1 16.6508 4.90816 86.5528
358 1 17.6548 4.26224 83.9163
359 1 12.3565 -0.11567 77.6169
360 1 10.1941 1.11044 79.1395
361 1 12.4232 2.59273 78.527
362 1 13.5411 6.47386 76.7948
363 1 11.4298 0.465825 74.758
364 2 10.7587 2.00771 76.7177
365 1 1.23575 2.22236 85.4608
366 1 15.4127 5.62685 82.5826
367 2 15.0447 4.37463 84.6976
368 1 13.8805 2.49294 80.7251
369 1 13.772 2.13582 84.4895
370 1 15.7093 2.75293 82.6521
371 2 14.5624 1.44688 78.2987
372 1 13.4667 1.94711 75.9463
373 1 14.8161 3.9595 77.5359
374 1 12.6544 5.37223 79.0468
375 1 13.5292 6.70134 72.9397
376 1 11.1834 3.27951 74.6688
377 2 13.1138 2.38467 73.4261
378 1 13.8379 4.53876 74.7644
379 2 12.229 4.40574 76.7333
380 1 11.2506 3.25285 72.0615
381 1 3.95688 3.4705 79.456
382 1 16.519 2.0529 76.8643
383 1 2.63846 3.97768 72.9478
384 1 15.5863 2.64299 74.0925
385 2 2.85716 2.06967 74.8644
386 1 12.3193 0.620696 71.8666
387 1 14.3533 6.16169 86.3384
388 1 18.9265 6.16449 85.4779
389 2 3.43555 3.55606 86.2941
390 2 17.3366 4.36508 81.2784
391 1 15.3324 5.1328 79.9946
392 1 7.91815 5.26631 87.2651
393 1 5.52014 4.31875 84.67
394 2 7.06413 4.40791 82.7173
395 1 4.35634 4.69324 81.8666
396 1 6.59853 3.5172 80.4825
397 1 18.054 6.19345 79.9132
398 1 6.81825 6.22351 80.8195
399 2 4.25703 4.53522 74.7861
400 1 16.8833 4.66144 75.5215
401 1 3.82108 3.11113 76.8314
402 1 4.87874 5.4473 72.4656
403 1 8.07393 5.50017 84.686
404 2 6.13081 6.51173 85.9786
405 2 17.3627 4.32011 78.1308
406 2 15.8799 5.29248 73.1295
407 1 9.10142 4.77659 80.9309
408 1 6.20011 4.54398 76.6448
409 1 6.97949 4.04916 74.0443
410 2 9.57681 4.61652 73.237
411 1 7.54282 5.68984 71.8369
412 2 7.83136 5.05378 78.6049
413 1 8.91308 4.61254 76.0076
414 1 4.80526 2.53814 73.0168
415 2 1.59184 0.359424 70.3096
416 1 6.01459 6.47259 67.5701
417 1 10.0578 5.86127 71.0753
418 1 8.70846 6.57465 66.8774
419 1 3.97131 0.362274 69.4753
420 2 6.82959 5.90752 65.0274
421 1 1.91882 0.320003 62.7501
422 1 8.3985 0.686287 70.7049
423 1 9.35041 -0.0361602 68.091
424 1 8.07173 5.37809 62.7269
425 1 7.00946 1.44024 66.8901
426 2 6.75153 0.0897509 68.8016
427 1 6.40444 0.362242 61.8349
428 1 4.50742 1.4675 63.4645
429 1 6.74055 6.27723 58.936
430 1 5.50733 0.727764 58.7908
431 2 3.84107 0.621269 60.8533
432 1 6.69413 5.95684 56.2235
433 1 14.8103 5.67538 63.7001
434 1 9.55003 0.0613533 57.2247
435 1 11.2625 5.37762 58.2482
436 1 14.0126 4.03586 71.836
437 1 6.05162 1.96018 70.6018
438 1 10.5872 1.9263 69.7543
439 1 8.64608 3.37797 71.2269
440 2 14.4158 6.17098 70.5524
441 2 8.17382 2.32922 68.8604
442 1 9.74397 2.47969 66.8028
443 2 9.04913 0.311918 65.5339
444 1 7.38681 1.8057 64.2192
445 1 15.1997 1.42307 71.6728
446 1 12.3402 0.131268 68.9206
447 1 16.7009 4.7115 67.015
448 2 13.9655 0.258934 66.9165
449 1 12.6732 2.58071 67.6731
450 1 11.4514 0.555217 65.991
451 1 17.4566 5.98011 64.476
452 1 10.1535 1.95527 63.9006
453 1 13.7366 1.9161 65.115
454 2 11.6366 3.23442 65.2159
455 1 10.6034 2.14952 61.0452
456 2 11.2439 0.801824 58.9417
457 1 12.635 2.90171 59.0972
458 1 8.75423 0.744295 59.6438
459 1 14.8668 6.11656 61.0448
460 1 12.7491 2.90099 62.7959
461 1 9.78898 2.82345 58.0109
462 1 11.7521 1.66872 56.4926
463 1 15.0625 1.14428 68.9538
464 2 13.2029 2.37193 70.219
465 1 14.791 4.15122 68.9815
466 2 15.422 2.64794 66.9307
467 1 2.07502 2.57763 68.8491
468 1 13.8628 4.46814 66.1012
469 1 15.8808 3.3193 64.66
470 2 9.03226 0.444745 62.4226
471 2 7.41718 1.3155 57.2827
472 1 13.3767 4.0476 56.7536
473 1 4.71847 2.71962 68.2042
474 1 0.629073 0.626007 65.2681
475 1 13.1272 0.842348 61.036
476 1 13.7998 0.388269 58.3478
477 2 0.848811 0.374157 57.5904
478 1 14.433 1.74608 56.0105
479 2 5.32733 2.7663 65.5052
480 1 2.73187 2.1658 66.2582
481 1 3.16775 3.57778 63.9899
482 2 15.0116 1.59008 62.8156
483 1 0.592929 0.972738 60.2237
484 2 16.5801 4.61389 62.4107
485 1 14.7748 3.45558 60.853
486 1 15.5007 2.82886 58.1702
487 1 2.48022 2.67066 61.5325
488 1 2.93659 2.27983 58.9142
489 1 15.908 5.46035 57.2516
490 1 16.8003 4.68551 70.6754
491 1 11.8814 5.54708 63.8753
492 2 3.83368 3.38306 70.8003
493 1 3.49941 5.17649 68.8832
494 1 7.07417 4.05113 67.116
495 1 6.62446 4.48883 69.6947
496 1 4.07095 4.75018 66.3578
497 1 3.7742 5.42366 61.9221
498 1 4.52865 4.77869 59.2069
499 1 17.1473 4.69583 59.7591
500 2 2.93652 4.23788 57.1972
501 1 8.1427 2.83894 61.7955
502 1 5.82997 4.033 63.3881
503 1 5.2407 2.78929 60.9861
504 1 7.10189 3.25068 58.9567
505 2 6.40744 5.03524 60.9825
506 1 12.2394 4.60595 69.7856
507 1 9.18584 4.45374 64.9375
508 1 9.41192 4.47795 68.5931
509 1 11.2906 5.25165 66.6918
510 2 10.339 4.21711 62.4747
511 1 9.18988 4.7833 60.0437
512 1 5.26011 2.98967 57.1176
513 2 8.6581 5.14868 57.633
514 1 12.2021 4.93946 61.0113
515 2 13.8923 5.04284 59.0459
516 1 7.8997 3.34992 55.8636
517 1 5.57007 0.170068 56.0168
518 1 4.11169 5.91252 55.374
519 2 3.50736 5.04884 53.1183
520 1 5.21974 5.17331 51.2141
521 1 8.38509 0.593978 51.297
522 1 8.41197 5.15993 51.7472
523 2 7.27358 5.85024 49.5102
524 1 6.22696 4.71474 45.2726
525 1 8.05902 5.48129 43.1869
526 1 8.3774 5.86943 47.134
527 1 5.42436 5.55083 42.3991
528 1 10.3094 6.69558 53.1316
529 2 10.896 5.13156 51.2358
530 1 12.8772 5.21496 52.9756
531 1 5.41343 0.673739 50.1405
532 1 11.721 6.12325 48.9131
533 1 4.97418 0.00835094 40.9789
534 1 15.5651 5.41543 52.4457
535 2 16.2887 5.32047 49.7784
536 1 13.5943 4.562 50.4347
537 1 14.2539 6.31656 48.097
538 2 8.03591 0.691602 46.6005
539 1 10.2571 5.91239 45.0282
540 1 11.1477 5.48201 42.5686
541 1 13.203 5.27624 45.7262
542 1 13.9772 4.69034 43.3184
543 1 8.38578 0.548116 54.9399
544 1 3.11053 1.46677 48.333
545 2 14.5964 5.81138 54.9772
546 2 12.4934 2.99643 54.3558
547 1 10.5538 1.0809 53.1441
548 1 13.9909 0.0526273 51.3494
549 1 13.226 0.436228 53.9955
550 1 12.8437 2.44208 51.8598
551 1 11.0053 0.743437 50.4807
552 1 10.7214 1.2935 45.9042
553 1 11.4089 0.507646 43.373
554 1 8.7704 0.623749 44.1205
555 2 13.6312 6.61904 41.2431
556 1 1.64159 1.71055 55.4894
557 1 15.4512 2.5453 51.0599
558 1 14.9294 3.1108 53.7097
559 2 13.686 1.68611 49.261
560 1 12.8417 2.80125 46.8937
561 1 3.82681 3.28012 54.9617
562 1 4.90225 2.69599 52.3086
563 1 3.71483 5.269 45.9579
564 1 16.9492 6.57803 47.4698
565 1 15.1067 1.38274 47.0186
566 1 16.006 5.39538 45.2612
567 1 18.052 5.86208 43.3196
568 2 13.468 0.747602 45.2376
569 1 3.69174 0.693275 53.836
570 1 2.52819 4.06552 51.0843
571 2 2.13401 2.76032 53.0612
572 1 0.576864 0.0903142 49.1409
573 1 0.780452 0.607131 53.1328
574 1 2.70104 1.06598 51.1237
575 2 5.93195 6.77101 46.7541
576 1 0.898241 0.820433 44.3
577 1 2.01097 2.86128 46.1186
578 1 15.2454 3.94282 47.7652
579 1 16.0043 5.26708 41.4287
580 1 13.7569 2.08153 43.2129
581 2 15.5131 0.911643 41.6421
582 1 16.5369 3.39841 43.4676
583 2 14.7989 3.15659 45.3636
584 1 14.4574 3.15407 40.968
585 1 6.04537 1.58566 47.8108
586 1 3.70897 0.812123 45.1529
587 1 5.15464 2.88798 41.3548
588 1 2.86356 1.14724 42.1182
589 2 5.3555 1.08166 43.2059
590 1 13.1444 0.891245 40.9539
591 1 16.8873 4.50359 54.9867
592 1 6.21413 4.51379 53.8694
593 2 6.08936 2.03474 54.6621
594 2 4.58095 2.88763 49.6944
595 1 2.77537 4.1852 48.4332
596 1 10.7069 4.2504 55.9418
597 1 7.965 2.66289 53.0295
598 2 9.58358 2.73822 51.0838
599 1 6.93343 3.13469 50.2034
600 1 9.02874 1.9682 48.7429
601 1 5.96468 4.34591 47.9072
602 1 9.35753 4.64275 49.2347
603 2 6.77029 3.35985 43.3302
604 1 3.98068 3.32406 43.6994
605 1 6.46035 1.91843 45.2584
606 1 7.44386 4.10164 40.8764
607 1 10.5251 3.83127 53.2689
608 2 8.68872 5.06838 54.4061
609 2 4.49991 2.97934 46.5475
610 2 2.65311 3.79987 41.2719
611 1 11.5732 3.23609 49.3668
612 1 8.84418 3.30837 45.185
613 1 9.48241 3.02179 42.7107
614 2 11.9601 3.12163 41.6879
615 1 10.2316 4.28754 40.5376
616 2 10.6678 4.25149 47.0604
617 1 11.5001 3.33589 44.4491
618 1 7.54696 1.42388 41.4366
ITEM: TIMESTEP
3000
ITEM: NUMBER OF ATOMS
618
ITEM: BOX BOUNDS xy xz yz pp pp ff
0.0000000000000000e+00 1.9317770367296919e+01 4.0025167278329121e+00
0.0000000000000000e+00 6.6702723500479264e+00 0.0000000000000000e+00
0.0000000000000000e+00 1.0921147561319708e+02 0.0000000000000000e+00
ITEM: ATOMS id type x y z
1 1 4.76522 5.73303 6.30614
2 1 6.59269 6.13309 8.94797
3 1 4.77859 5.68763 13.6083
4 1 9.75981 6.90536 6.37209
5 1 8.15146 6.4037 11.3521
6 1 6.49024 6.04931 15.8836
7 1 4.69449 5.93956 20.3501
8 1 12.5915 5.78715 6.37402
9 1 7.55654 0.332673 8.69596
10 1 5.93116 0.0696498 13.3816
11 1 8.21431 6.3152 18.0842
12 1 6.30251 6.33077 22.8552
13 1 4.6295 5.76064 27.2817
14 1 10.9705 1.07065 6.40625
15 1 14.2487 5.85687 8.80582
16 1 9.12899 0.650298 10.9796
17 1 12.5117 5.72438 13.3438
18 1 7.33035 0.287315 15.5589
19 1 9.653 6.7083 20.3327
20 1 8.17741 6.45319 24.9233
21 1 6.27234 5.97698 29.6599
22 1 4.6558 5.98311 34.3304
23 1 17.5106 6.5767 6.42045
24 1 13.0487 2.85418 6.22373
25 1 12.4897 1.18678 8.93033
26 1 15.7505 6.25244 11.2317
27 1 11.2607 2.58012 11.0798
28 1 10.8304 0.99164 13.3663
29 1 14.2793 6.19581 15.7868
30 1 8.98773 0.830789 18.0458
31 1 12.4765 5.91477 20.3147
32 1 7.33053 0.38326 22.5728
33 1 5.55531 0.164385 27.3692
34 1 7.75561 6.38092 31.9587
35 1 6.20399 6.10904 36.6449
36 1 15.7546 2.00999 6.49081
37 1 15.3053 0.36985 8.92519
38 1 14.5202 3.05124 8.75184
39 1 13.9263 1.48277 11.251
40 1 13.4328 -0.119154 13.4327
41 1 12.935 2.87992 13.439
42 1 12.4883 1.36113 15.6732
43 1 15.7726 6.42826 18.0858
44 1 11.3225 2.56779 17.9599
45 1 10.715 1.17532 20.3286
46 1 14.2279 6.09409 22.7313
47 1 9.00721 0.737428 24.9358
48 1 12.3535 5.76983 27.3326
49 1 7.29351 0.308226 29.6335
50 1 5.57851 0.276853 34.1394
51 1 7.55716 6.5578 38.9281
52 1 3.2301 1.00244 6.38613
53 1 2.6875 3.75842 6.32631
54 1 2.1542 2.31701 9.06416
55 1 1.47285 0.59877 11.273
56 1 16.3564 3.46413 11.2061
57 1 15.8754 1.86132 13.5005
58 1 14.9843 0.205523 15.6598
59 1 14.5645 3.38902 15.749
60 1 14.0269 1.70999 18.1484
61 1 13.4595 0.171073 20.3352
62 1 12.7706 3.06665 20.3838
63 1 12.1797 1.58988 22.6899
64 1 15.7069 6.52686 24.9833
65 1 11.3592 2.81295 24.9842
66 1 10.4134 1.01911 27.3072
67 1 13.9976 5.96175 29.6281
68 1 9.0782 0.628528 32.0014
69 1 12.1368 5.83055 34.2205
70 1 7.1199 0.557498 36.5751
71 1 5.21252 2.97548 6.26456
72 1 4.8439 1.15283 8.82451
73 1 4.41679 4.19198 8.91506
74 1 3.92264 2.56193 11.2305
75 1 3.24306 1.00455 13.6548
76 1 2.73168 3.74898 13.5415
77 1 1.94369 2.22788 15.7553
78 1 1.34992 0.564293 17.9662
79 1 16.3241 3.38872 18.0382
80 1 15.6549 2.06936 20.5929
81 1 14.8621 0.312885 22.7968
82 1 14.5735 3.42039 22.8761
83 1 13.865 1.76151 25.0553
84 1 13.0632 0.0196754 27.3823
85 1 12.7723 2.94986 27.3373
86 1 12.1554 1.28451 29.8134
87 1 15.7159 6.47104 32.0219
88 1 11.0657 2.65728 31.8794
89 1 10.5053 1.13088 34.2395
90 1 13.9356 6.11066 36.5938
91 1 8.90373 1.04725 39.1454
92 1 8.14963 2.08783 6.3636
93 1 7.80079 4.92905 6.16226
94 1 7.04362 3.42113 8.72899
95 1 6.46807 1.50816 10.981
96 1 6.09215 4.41111 11.3407
97 1 5.45162 2.84491 13.5686
98 1 4.6749 1.17525 15.8107
99 1 4.19035 4.15246 16.0553
100 1 3.72024 2.34509 18.1779
101 1 2.92205 1.08413 20.4743
102 1 2.44697 3.87622 20.4014
103 1 1.81846 2.38919 22.8891
104 1 1.16268 0.708931 25.1038
105 1 16.0851 3.70812 25.1652
106 1 15.4694 1.87406 27.431
107 1 15.0078 0.21216 29.5796
108 1 14.496 3.11684 29.5632
109 1 13.9772 1.6877 31.9233
110 1 13.2563 0.196432 34.3508
111 1 12.8245 2.96468 34.3506
112 1 12.2526 1.28483 36.6614
113 1 15.2371 6.34634 39.1038
114 1 11.2184 2.39274 39.3212
115 1 10.3964 3.85504 6.24489
116 1 9.8604 2.11928 8.62985
117 1 9.25341 4.9531 8.92178
118 1 8.76997 3.54172 11.1495
119 1 8.3022 2.01744 13.2959
120 1 7.50295 4.86553 13.5646
121 1 6.91018 3.17167 15.8072
122 1 6.45361 1.63425 18.0706
123 1 5.76678 4.39466 18.215
124 1 5.17846 2.88176 20.4125
125 1 4.734 1.43046 22.5679
126 1 4.15956 4.2636 22.6511
127 1 3.47449 2.55042 24.994
128 1 2.95436 0.961244 27.2577
129 1 2.40949 3.85227 27.2499
130 1 1.98044 2.30164 29.5582
131 1 1.21882 0.73638 31.9536
132 1 15.9723 3.74394 31.8661
133 1 15.6345 2.24609 34.3447
134 1 14.8623 0.453452 36.6851
135 1 14.4613 3.43485 36.5547
136 1 13.9523 1.91628 38.7515
137 1 11.8779 4.14598 8.82105
138 1 10.8416 5.39968 11.1537
139 1 10.3232 3.94511 13.5106
140 1 9.59101 2.34926 15.7206
141 1 9.29393 5.10693 15.833
142 1 8.43665 3.55265 18.0473
143 1 7.81699 2.31536 20.4483
144 1 7.39121 4.93435 20.4762
145 1 6.76985 3.32259 22.7108
146 1 6.21237 1.78841 24.9837
147 1 5.75036 4.66325 25.1266
148 1 5.12369 3.00511 27.3708
149 1 4.645 1.3176 29.6802
150 1 4.09994 4.13317 29.598
151 1 3.35204 2.71336 31.8076
152 1 2.90769 1.14775 34.2615
153 1 2.41676 3.99362 34.149
154 1 1.6723 2.58593 36.7278
155 1 1.1474 1.01658 39.0947
156 1 16.1972 3.84797 39.0632
157 1 15.1924 4.81369 6.57327
158 1 13.5429 4.38724 11.1794
159 1 11.992 4.0424 15.8037
160 1 10.7369 5.3886 18.0861
161 1 10.1479 4.17674 20.4129
162 1 9.54249 2.42864 22.7166
163 1 9.09076 5.32334 22.6552
164 1 8.54639 3.56968 24.9288
165 1 7.84568 1.90194 27.295
166 1 7.46702 4.72795 27.2166
167 1 6.866 3.13879 29.6351
168 1 6.10446 1.46772 31.8469
169 1 5.72272 4.27799 32.0577
170 1 4.94521 2.91896 34.3243
171 1 4.53359 1.46403 36.6866
172 1 4.09258 4.36366 36.7629
173 1 3.40145 2.81281 38.9925
174 1 17.0318 5.08058 8.98365
175 1 15.1604 4.71645 13.4621
176 1 13.5475 4.66234 18.1531
177 1 11.9764 4.41083 22.7681
178 1 10.8215 5.66448 25.1114
179 1 10.1609 3.9788 27.2621
180 1 9.50854 2.21211 29.5323
181 1 8.97911 5.11624 29.6688
182 1 8.4966 3.45855 31.8899
183 1 7.8074 2.00353 34.2413
184 1 7.25097 4.88829 34.2465
185 1 6.75264 3.31854 36.5137
186 1 6.44944 2.22687 39.0882
187 1 5.23651 4.85063 39.33
188 1 18.4947 5.31105 11.1715
189 1 16.8572 5.19362 15.7425
190 1 15.2552 4.82955 20.2807
191 1 13.4257 4.59618 25.0816
192 1 11.6798 4.1447 29.6409
193 1 10.8546 5.50585 31.922
194 1 10.1861 3.98805 34.192
195 1 9.57325 2.37006 36.4606
196 1 8.91103 5.40883 36.208
197 1 8.76157 3.79959 38.421
198 1 18.4821 5.31412 18.2556
199 1 16.77 5.25781 22.5935
200 1 14.9809 4.84028 27.3315
201 1 13.3528 4.47016 31.9367
202 1 11.7035 4.38851 36.6026
203 1 10.6796 5.99984 38.5456
204 1 18.3728 5.51602 25.0193
205 1 16.7994 5.14674 29.609
206 1 14.947 4.92023 34.1641
207 1 13.0783 4.65427 39.1647
208 1 18.4066 5.47876 31.8473
209 1 16.7048 5.08361 36.4852
210 1 18.0684 5.67094 39.1266
211 2 14.2422 1.60459 101.577
212 1 14.8105 1.19191 99.0355
213 1 3.16842 0.660476 102.947
214 1 2.17093 1.28625 98.4018
215 1 1.32321 1.81743 100.966
216 2 15.755 0.67381 96.5386
217 1 14.6544 1.58616 94.205
218 1 5.80982 2.05311 102.394
219 1 6.70951 1.43158 99.801
220 1 1.63692 0.354009 94.3515
221 1 4.47448 2.82844 98.5195
222 2 3.96011 1.49664 100.58
223 1 3.9084 1.73642 93.3194
224 1 1.81549 2.97078 94.9275
225 1 15.5102 1.18688 90.4876
226 1 2.92353 2.25437 90.5644
227 2 1.44203 2.03603 92.6327
228 1 15.7606 1.16496 87.8182
229 1 8.12273 0.601028 95.331
230 1 6.9978 1.78551 88.7556
231 1 4.57751 0.277272 89.5998
232 1 11.84 4.79155 102.844
233 1 3.35528 3.55213 102.173
234 1 8.08528 3.27858 101.407
235 1 5.76461 4.71945 102.909
236 2 7.8466 0.643276 102.117
237 2 5.52491 3.82122 100.684
238 1 7.03702 3.98991 98.521
239 2 6.39392 1.79788 97.1317
240 1 4.70366 3.14354 95.7751
241 1 12.1974 1.90499 102.821
242 1 10.1226 1.73346 100.738
243 1 13.87 6.29084 98.6109
244 2 11.3374 1.60197 98.4485
245 1 9.95172 4.09132 99.3245
246 1 8.82148 2.07039 97.6069
247 1 10.8824 0.793306 96.3009
248 1 7.63324 3.27897 95.2891
249 1 11.1165 3.50832 96.6183
250 2 8.91225 4.69189 96.8812
251 1 7.88777 3.53941 92.6255
252 2 8.60453 2.25368 90.6711
253 1 9.78819 4.43272 90.6864
254 1 5.85097 1.99182 91.2614
255 1 8.26923 0.774861 92.6574
256 1 10.0985 4.56095 94.2578
257 1 7.04322 4.27789 89.7995
258 1 9.14578 3.09041 88.3846
259 1 12.5986 2.73699 100.297
260 2 10.6338 3.58498 101.828
261 1 12.1281 5.36499 100.303
262 2 13.1321 3.99461 98.1489
263 1 14.8494 4.07522 100.12
264 1 11.0981 6.08055 97.5718
265 1 13.4269 4.81393 95.962
266 2 6.30937 1.82382 93.8209
267 2 4.79425 2.88017 88.9892
268 1 10.7278 5.68725 88.0709
269 1 17.5925 4.18046 99.6489
270 1 13.3936 1.95995 96.7027
271 1 10.5859 2.33881 92.5188
272 1 11.2239 1.97957 90.0006
273 2 13.7405 2.03596 89.1773
274 1 11.801 3.25626 87.4946
275 2 2.89489 4.15047 96.9651
276 1 15.7319 3.56016 97.5162
277 1 16.1087 5.3072 95.4958
278 2 12.2882 2.95436 94.5353
279 1 13.31 2.36198 91.8684
280 2 14.0094 6.31814 93.9025
281 1 12.0209 4.81588 92.3232
282 1 12.7276 4.33875 89.9182
283 1 15.0595 4.23578 93.1986
284 1 15.9121 3.8029 90.7135
285 1 9.24483 0.232124 88.8241
286 1 14.2218 6.01156 102.285
287 1 5.10997 0.361041 95.5089
288 2 16.6121 4.76768 102.073
289 1 12.0282 -0.0412412 100.329
290 1 4.63209 5.39925 98.6784
291 1 4.07547 6.06129 101.206
292 1 16.9497 6.23698 97.7996
293 1 12.5137 0.0872782 93.1786
294 1 17.4226 6.37975 90.5139
295 1 14.5413 6.2384 91.4026
296 2 15.2902 5.42556 88.726
297 1 5.43392 4.22537 93.3644
298 1 3.3527 5.62136 94.6457
299 1 2.67965 4.27074 92.4152
300 1 4.44434 4.91753 90.4431
301 2 3.8533 6.61381 92.3998
302 1 9.43466 5.98911 101.542
303 1 6.42493 5.76863 96.5541
304 1 6.92817 5.92131 100.675
305 1 4.62571 -0.1339 98.4892
306 2 7.57387 5.58999 94.1032
307 1 6.46667 6.41692 91.7531
308 1 17.7365 4.14748 88.7255
309 2 6.09399 6.6398 89.2235
310 1 9.46938 6.39605 92.4535
311 2 11.1387 6.38244 90.3915
312 1 5.1784 4.99027 87.5607
313 1 3.07121 1.59758 87.5748
314 1 13.0146 0.977093 86.8037
315 2 16.5389 6.573 84.4542
316 1 13.99 -0.0252928 82.419
317 1 5.79179 2.21172 82.9357
318 1 1.93933 0.14617 83.4133
319 2 0.783972 0.663215 81.0849
320 1 18.9509 6.02207 76.8583
321 1 1.58934 0.0900954 74.9888
322 1 5.49541 6.60493 78.6416
323 1 14.0287 -0.194795 73.9119
324 1 3.90273 1.66413 84.7069
325 2 4.52684 0.0362252 82.5921
326 1 6.38523 0.206979 84.6154
327 1 2.93741 2.10539 81.8491
328 1 5.02545 0.972225 80.2269
329 1 2.38386 1.31569 72.5365
330 1 9.09274 0.336674 83.8482
331 2 13.5125 6.3346 81.1952
332 1 11.1218 6.46794 82.0145
333 1 7.60997 0.947484 79.7351
334 2 5.72318 2.29804 78.2113
335 1 3.72965 0.440662 76.9527
336 1 4.43616 0.104404 74.2416
337 1 6.44713 -0.180408 77.5451
338 1 11.3993 6.04869 74.8438
339 1 5.80529 2.15011 86.4911
340 1 16.4058 2.69842 79.8371
341 2 8.31317 0.977674 86.5627
342 2 9.80202 4.21484 86.1445
343 1 8.062 2.87154 84.7352
344 1 11.5842 1.73306 82.6121
345 1 11.0227 2.084 85.1961
346 1 10.3713 4.13339 83.3657
347 1 8.7524 2.16103 81.9374
348 1 8.25764 2.33638 77.4103
349 1 8.94176 1.94696 74.8555
350 1 6.23621 1.98863 75.6888
351 2 7.0035 1.19473 72.9358
352 1 14.3971 3.48827 86.9828
353 1 13.1416 4.23559 82.7775
354 1 12.4502 4.78592 85.3962
355 2 11.439 3.69494 80.8091
356 1 10.1963 3.93853 78.514
357 1 16.7102 4.96736 86.4168
358 1 17.6675 4.24658 83.8733
359 1 12.3061 -0.0836207 77.5333
360 1 10.2321 1.09442 79.0989
361 1 12.5985 2.64879 78.5711
362 1 13.5425 6.4499 76.5859
363 1 11.5273 0.56291 74.7003
364 2 10.7741 1.9432 76.8692
365 1 1.23147 2.33838 85.3987
366 1 15.3325 5.67206 82.5987
367 2 14.9552 4.31832 84.6136
368 1 13.7243 2.10805 80.8502
369 1 13.6947 2.17527 84.4438
370 1 15.6588 2.68584 82.6598
371 2 14.7251 1.36942 78.406
372 1 13.5454 2.05821 76.0037
373 1 14.8526 3.95721 77.5865
374 1 12.7099 5.34608 79.0216
375 1 13.4645 6.48933 72.8174
376 1 11.2367 3.28037 74.5793
377 2 13.1379 2.14937 73.386
378 1 13.8095 4.31464 74.6676
379 2 12.0679 4.33352 76.7742
380 1 11.4695 3.60767 71.9786
381 1 3.84438 3.43823 79.6385
382 1 16.5558 2.10821 76.8378
383 1 2.66349 3.90641 72.9575
384 1 15.6191 2.50418 73.9887
385 2 2.88215 2.16727 74.8757
386 1 12.101 0.692383 71.8474
387 1 14.5118 6.38119 86.2032
388 1 19.0536 6.37352 85.4138
389 2 3.56518 3.68316 86.2121
390 2 17.3082 4.43799 81.3224
391 1 15.3201 5.24175 80.006
392 1 7.93061 5.55462 87.362
393 1 5.4902 4.39749 84.8235
394 2 7.11084 4.32694 82.6743
395 1 4.47921 4.7338 81.9155
396 1 6.74457 3.29096 80.5056
397 1 18.2065 6.01819 79.623
398 1 6.84524 5.97675 80.8862
399 2 4.36019 4.49213 74.8524
400 1 16.9955 4.49511 75.5485
401 1 3.8585 3.19722 76.9906
402 1 5.00299 5.43022 72.3796
403 1 8.12242 5.4537 84.7209
404 2 6.16103 6.56732 86.051
405 2 17.2318 4.33739 78.1694
406 2 15.848 5.22104 73.2812
407 1 9.10864 4.81952 80.9174
408 1 6.33816 4.6052 76.5876
409 1 7.06307 4.08886 73.9699
410 2 9.53367 4.60069 73.3711
411 1 7.55964 5.71038 71.8386
412 2 7.88789 4.99807 78.6459
413 1 8.98337 4.75283 76.0759
414 1 4.94402 2.52127 73.1058
415 2 1.60065 0.2586 70.356
416 1 5.96414 6.53857 67.6045
417 1 10.1741 5.95802 71.0317
418 1 8.68925 6.62036 66.7815
419 1 3.95584 0.331287 69.4185
420 2 6.82529 5.78379 65.0962
421 1 1.90392 0.00881458 62.6816
422 1 8.38815 0.640169 70.6071
423 1 9.29789 0.119312 68.0716
424 1 8.21389 5.47187 62.94
425 1 6.96858 1.43669 66.7643
426 2 6.56436 -0.0217608 68.7287
427 1 6.4023 0.308464 61.8038
428 1 4.43355 1.43847 63.2542
429 1 6.85013 6.30368 58.9847
430 1 5.50729 0.873854 58.8782
431 2 3.88343 0.63847 60.9598
432 1 6.59832 5.84431 56.3579
433 1 14.6081 5.78629 63.6771
434 1 9.55411 0.280526 57.1868
435 1 11.2864 5.63794 58.0845
436 1 14.1775 3.80765 71.8339
437 1 5.98683 1.92686 70.5761
438 1 10.7442 2.005 69.5862
439 1 8.51806 3.28219 71.2477
440 2 14.5598 6.05263 70.3579
441 2 7.85165 2.37259 68.8276
442 1 9.58276 2.57794 66.8541
443 2 8.85281 0.339476 65.4508
444 1 7.26363 1.65965 63.9904
445 1 15.0512 1.1665 71.6331
446 1 12.5456 0.0768517 68.9656
447 1 16.7259 4.67976 66.919
448 2 13.9764 0.0774648 66.8542
449 1 12.7292 2.54844 67.5825
450 1 11.4015 0.694231 65.9402
451 1 17.411 6.11323 64.4607
452 1 10.1432 1.94222 63.7603
453 1 13.756 2.06738 65.001
454 2 11.568 3.18579 65.32
455 1 10.5621 2.03963 61.0556
456 2 11.1904 0.647506 59.1181
457 1 12.362 2.96804 59.0456
458 1 8.43283 0.7723 59.7381
459 1 14.7779 5.93279 61.0099
460 1 12.7611 3.03168 62.8952
461 1 9.76496 2.88313 58.3087
462 1 11.8031 1.78226 56.7071
463 1 15.0763 1.08856 68.8805
464 2 13.0777 2.31011 70.2451
465 1 14.8868 3.96966 68.9616
466 2 15.4779 2.47705 66.8049
467 1 2.07171 2.52406 68.7175
468 1 13.9125 4.61844 66.0869
469 1 16.0709 3.4579 64.5475
470 2 8.99139 0.455504 62.3201
471 2 7.43335 1.60632 57.5227
472 1 13.3129 4.19395 56.8382
473 1 4.7909 2.70536 67.9876
474 1 0.766928 0.643049 65.042
475 1 13.1438 0.737 61.067
476 1 13.8599 0.386906 58.4193
477 2 0.941825 0.292875 57.5479
478 1 14.3937 1.7879 56.0798
479 2 5.40577 2.71697 65.2992
480 1 2.87298 2.10372 66.0717
481 1 3.36915 3.8014 63.8866
482 2 14.9934 1.4058 62.8196
483 1 0.626301 0.844586 60.2505
484 2 16.4686 4.70289 62.4547
485 1 14.6037 3.18443 60.8089
486 1 15.493 2.84283 58.3324
487 1 2.2755 2.54654 61.602
488 1 3.05726 2.28533 58.8831
489 1 15.7732 5.45451 57.1189
490 1 16.7597 4.46372 70.6959
491 1 11.6553 5.4479 64.0464
492 2 3.85886 3.29091 70.7035
493 1 3.44307 5.0822 68.8401
494 1 7.13724 4.09948 66.972
495 1 6.4504 4.51973 69.5177
496 1 4.21087 4.84523 66.1396
497 1 3.77232 5.18307 61.6054
498 1 4.55509 4.83667 58.9416
499 1 17.1049 4.6369 59.7118
500 2 2.71389 4.2476 57.0272
501 1 8.10441 2.92744 61.7631
502 1 5.96752 3.95291 63.222
503 1 5.18288 2.73494 60.7973
504 1 7.17496 3.5895 58.8834
505 2 6.47837 4.82849 60.9411
506 1 12.3281 4.66278 69.5232
507 1 9.17896 4.34215 65.0113
508 1 9.28541 4.52727 68.7489
509 1 11.2534 5.20459 66.7486
510 2 10.2226 4.07858 62.6153
511 1 9.16811 5.06342 60.2114
512 1 5.24258 3.2471 57.0662
513 2 8.85201 5.13782 57.6589
514 1 12.1612 4.95484 61.0207
515 2 13.6754 5.15332 58.9605
516 1 8.05414 3.22871 55.9831
517 1 5.35854 0.320138 56.1611
518 1 4.00045 5.99634 55.2992
519 2 3.64119 5.11418 53.037
520 1 5.19223 5.18697 51.0899
521 1 8.20154 0.759321 51.2152
522 1 8.26664 5.33651 51.8755
523 2 7.17353 5.91626 49.4009
524 1 6.0728 4.80167 45.1004
525 1 8.1915 5.54795 43.2551
526 1 8.17778 5.44098 47.0341
527 1 5.42677 5.46391 42.2208
528 1 10.2645 6.77425 53.0201
529 2 11.0361 5.26043 51.0073
530 1 12.9393 5.25622 52.9352
531 1 5.21703 0.732129 50.308
532 1 11.5138 6.07495 48.7766
533 1 5.20861 0.115643 40.9322
534 1 15.6918 5.44185 52.4454
535 2 16.3348 5.39455 49.7038
536 1 13.7449 4.86873 50.3948
537 1 14.1547 6.3359 48.2639
538 2 8.18173 0.66474 46.5647
539 1 10.3783 6.12744 45.1675
540 1 11.2271 5.53257 42.71
541 1 13.3595 5.13931 45.992
542 1 14.0092 4.80138 43.5656
543 1 8.00417 0.376917 55.0454
544 1 3.47285 1.46909 48.0117
545 2 14.512 5.64936 54.9353
546 2 12.5067 3.12427 54.5809
547 1 10.2653 1.09394 53.2468
548 1 14.0733 0.168193 51.2317
549 1 13.2315 0.614807 53.7888
550 1 12.9176 2.6636 51.922
551 1 11.2635 0.852948 50.6296
552 1 10.6772 1.11099 45.9587
553 1 11.3224 0.720568 43.4186
554 1 8.9012 0.62509 44.078
555 2 13.6572 6.57074 41.3197
556 1 1.59456 1.70127 55.4419
557 1 15.5502 2.60076 50.9969
558 1 14.9948 2.94087 53.7414
559 2 13.6584 1.79329 49.3319
560 1 12.7983 2.64776 47.0184
561 1 3.77051 3.18889 54.908
562 1 4.94008 2.70419 52.2825
563 1 3.583 5.44526 45.8473
564 1 16.6758 6.71699 47.5962
565 1 14.9663 1.35042 47.1355
566 1 16.1342 5.1897 45.4088
567 1 17.8034 5.94425 43.2921
568 2 13.3124 0.737775 45.2923
569 1 3.66212 0.57829 53.9411
570 1 2.53894 4.17036 51.0313
571 2 2.11247 2.52695 53.0601
572 1 0.74876 0.414674 49.2529
573 1 0.941864 0.509235 52.8746
574 1 2.73447 1.39376 50.8623
575 2 5.83734 6.7946 46.7654
576 1 0.614697 0.77044 44.236
577 1 1.99029 2.70449 46.012
578 1 15.4376 3.97898 47.8916
579 1 15.9366 5.33835 41.3203
580 1 13.647 2.1951 43.3656
581 2 15.5481 0.907024 41.7021
582 1 16.4115 3.40409 43.3016
583 2 14.7747 3.07991 45.3907
584 1 14.4349 3.23543 41.0236
585 1 6.24777 1.70056 48.0175
586 1 3.82868 0.832442 45.1607
587 1 5.04223 2.87668 41.2547
588 1 2.85153 1.14982 42.1397
589 2 5.42115 1.02462 43.246
590 1 13.1215 1.00177 41.0221
591 1 16.9402 4.56451 54.7314
592 1 6.167 4.67483 53.8109
593 2 5.90621 2.15259 54.6318
594 2 4.57983 2.96189 49.7503
595 1 2.84431 4.34874 48.419
596 1 10.7212 4.30091 55.9337
597 1 8.00106 2.73818 53.261
598 2 9.52654 2.94718 51.1436
599 1 6.9942 3.3122 50.384
600 1 9.09655 1.94895 48.8146
601 1 5.64798 4.59512 48.1
602 1 9.29929 4.64585 49.3006
603 2 6.83392 3.38663 43.22
604 1 3.95832 3.38482 43.6849
605 1 6.57217 2.16926 45.3217
606 1 7.64074 4.26811 40.8524
607 1 10.6341 3.88351 53.1405
608 2 8.75678 4.98222 54.5049
609 2 4.5413 3.11691 46.5249
610 2 2.59335 3.93053 41.2648
611 1 11.5972 3.33771 49.5172
612 1 8.84984 3.4803 45.1534
613 1 9.59565 3.09539 42.6228
614 2 11.9588 3.20394 41.6963
615 1 10.2896 4.47431 40.488
616 2 10.7267 4.1079 47.0946
617 1 11.532 3.44337 44.5763
618 1 7.52022 1.56069 41.6418
ITEM: TIMESTEP
3100
ITEM: NUMBER OF ATOMS
618
ITEM: BOX BOUNDS xy xz yz pp pp ff
0.0000000000000000e+00 1.9317770367296919e+01 4.0025167278329121e+00
0.0000000000000000e+00 6.6702723500479264e+00 0.0000000000000000e+00
0.0000000000000000e+00 1.0921147561319708e+02 0.0000000000000000e+00
ITEM: ATOMS id type x y z
1 1 4.97856 5.80257 6.54741
2 1 6.54868 6.07537 8.84886
3 1 4.92417 5.72706 13.3908
4 1 9.74496 6.7932 6.20064
5 1 8.38933 6.40387 11.0216
6 1 6.43463 6.06796 15.6477
7 1 4.62844 5.71832 20.4072
8 1 12.5331 5.7028 6.24
9 1 7.28776 0.288511 8.84051
10 1 5.81416 -0.0659814 13.538
11 1 7.91881 6.40988 17.9791
12 1 6.39482 6.00774 22.6606
13 1 4.69014 5.6929 27.3014
14 1 10.7062 0.944426 6.36262
15 1 14.032 6.22485 8.74763
16 1 9.16059 0.59508 11.293
17 1 12.5846 5.69005 13.465
18 1 7.46107 0.499802 15.9833
19 1 9.68699 6.73418 20.4902
20 1 7.83415 6.40146 25.136
21 1 6.16897 6.13625 29.6766
22 1 4.68449 5.80756 34.3421
23 1 17.6942 6.71899 6.44285
24 1 13.1191 2.88507 6.63441
25 1 12.2899 1.28062 8.69437
26 1 15.9423 6.31913 10.9585
27 1 11.4606 2.45777 11.1094
28 1 10.7741 0.959102 13.4972
29 1 14.2069 5.94971 15.7689
30 1 9.19321 0.550806 18.154
31 1 12.3397 5.69165 20.4717
32 1 7.18648 0.568163 22.7789
33 1 5.68131 -0.10309 27.3383
34 1 8.02383 6.52518 32.0395
35 1 6.20193 6.20615 36.6897
36 1 15.6676 1.84985 6.42539
37 1 15.0574 0.195392 8.92385
38 1 14.8461 3.18568 8.81536
39 1 14.1662 1.59503 11.1221
40 1 13.3617 0.0579558 13.5424
41 1 12.9002 2.91491 13.4867
42 1 12.2557 1.34727 15.8173
43 1 15.6943 6.46661 18.0415
44 1 11.308 2.71631 18.1668
45 1 10.6809 1.07923 20.3659
46 1 13.9254 6.17001 22.7948
47 1 8.90773 0.69718 25.1499
48 1 12.3353 5.8273 27.2491
49 1 7.07184 0.398334 29.7417
50 1 5.52451 0.0889591 34.3769
51 1 7.35198 6.72912 39.3184
52 1 3.23396 1.07778 6.35476
53 1 2.91711 3.80433 6.40112
54 1 2.02845 2.13469 8.89583
55 1 1.4638 0.650602 11.1518
56 1 16.3375 3.52743 11.2056
57 1 15.5545 1.92712 13.5884
58 1 15.1104 0.441077 15.8088
59 1 14.4842 3.14398 15.7809
60 1 13.9181 1.73123 18.1231
61 1 13.3055 0.0453358 20.4675
62 1 12.9955 3.0274 20.4225
63 1 12.3418 1.36604 22.7904
64 1 15.6128 6.36838 25.0325
65 1 11.0483 2.60744 25.1033
66 1 10.5437 1.02966 27.3999
67 1 13.9988 6.21703 29.6412
68 1 8.81778 0.739892 31.9256
69 1 12.5024 5.82507 34.2366
70 1 7.27057 0.635313 36.2111
71 1 5.49436 2.8015 6.38009
72 1 4.76234 1.52609 8.82507
73 1 4.30621 4.10589 8.75933
74 1 3.56479 2.52013 11.1982
75 1 3.01078 0.957815 13.4545
76 1 2.50451 3.90685 13.4217
77 1 2.12497 2.11131 15.6494
78 1 1.27898 0.755784 18.2143
79 1 16.1806 3.88727 18.1665
80 1 15.5808 1.91692 20.3119
81 1 15.1388 0.48244 22.7085
82 1 14.3853 3.36294 22.6784
83 1 13.8796 1.71227 24.9774
84 1 13.4196 0.0571871 27.2319
85 1 12.8838 3.04723 27.1463
86 1 12.2764 1.40984 29.4915
87 1 15.5548 6.41161 31.8924
88 1 11.2137 2.55916 31.9495
89 1 10.6966 1.05375 34.2953
90 1 13.9718 6.32242 36.7583
91 1 8.66451 0.945292 39.105
92 1 8.21604 1.92661 6.19666
93 1 7.57402 4.79476 6.49403
94 1 7.12211 3.08791 8.93302
95 1 6.45365 1.66868 11.3096
96 1 6.00145 4.53289 11.1556
97 1 5.21088 2.81367 13.3543
98 1 4.78876 1.30726 15.7808
99 1 4.23563 4.16103 15.5598
100 1 3.56615 2.80951 18.0788
101 1 2.99959 1.05313 20.3851
102 1 2.4285 3.90785 20.385
103 1 2.04329 2.27517 22.4977
104 1 1.30965 0.651004 24.9112
105 1 16.0462 3.4109 24.8137
106 1 15.5485 2.0244 27.2133
107 1 14.8143 0.479027 29.5879
108 1 14.377 3.36477 29.6498
109 1 13.7845 1.65195 31.9882
110 1 13.3128 0.0718793 34.2218
111 1 12.8462 3.07774 34.1858
112 1 12.1879 1.59847 36.5607
113 1 15.199 6.49821 39.279
114 1 11.3874 2.65582 39.2433
115 1 10.1857 3.87584 6.38159
116 1 9.70777 2.40124 8.86153
117 1 9.26313 5.31808 8.73639
118 1 8.67892 3.5667 11.112
119 1 7.96459 1.73733 13.5848
120 1 7.74926 4.72505 13.3508
121 1 7.04056 3.19711 15.8236
122 1 6.15573 1.61815 18.0944
123 1 5.80737 4.52483 17.9045
124 1 5.26564 2.91777 20.4352
125 1 4.51948 1.20279 22.7331
126 1 4.09137 4.19788 22.7735
127 1 3.46349 2.56815 25.171
128 1 2.82063 0.99648 27.3104
129 1 2.45347 3.84747 27.4265
130 1 1.69023 2.26769 29.688
131 1 1.29669 0.691208 31.9149
132 1 16.2757 3.44519 32.1219
133 1 15.4763 1.88751 34.1774
134 1 14.8217 0.609117 36.5166
135 1 14.5415 3.3334 36.4291
136 1 13.8653 1.91629 38.5779
137 1 11.9862 4.17621 8.74898
138 1 10.8817 5.39279 11.1319
139 1 10.421 3.74243 13.3059
140 1 9.77686 2.3505 15.8182
141 1 9.1534 5.09234 15.8142
142 1 8.60697 3.57505 18.1037
143 1 7.88493 1.78723 20.2152
144 1 7.53078 4.68033 20.335
145 1 6.83473 3.2493 22.6442
146 1 6.19148 1.46769 25.038
147 1 5.65404 4.43784 25.0024
148 1 5.1337 2.75006 27.2911
149 1 4.45271 1.32742 29.6598
150 1 3.94165 4.1962 29.7358
151 1 3.63756 2.50897 32.15
152 1 2.91732 1.05005 34.3746
153 1 2.36352 3.81283 34.4181
154 1 1.85227 2.52737 36.6661
155 1 0.940787 1.03544 39.1638
156 1 16.1938 3.8002 39.1153
157 1 15.3977 4.6276 6.29457
158 1 13.5455 4.48009 11.1435
159 1 11.8744 4.21241 15.7241
160 1 10.8067 5.57895 18.0775
161 1 10.1506 3.86312 20.3494
162 1 9.57867 2.39727 22.8952
163 1 9.07433 5.10335 22.6845
164 1 8.36458 3.77306 25.1874
165 1 7.8461 2.04216 27.4054
166 1 7.21327 4.82411 27.4027
167 1 6.66259 3.24058 29.7063
168 1 6.16439 1.73767 32.0449
169 1 5.60643 4.72964 31.9272
170 1 5.19404 3.05025 34.2807
171 1 4.61015 1.26306 36.6959
172 1 3.97293 4.52947 36.8381
173 1 3.47286 2.95006 39.0186
174 1 16.92 5.0282 8.90784
175 1 15.3166 4.85359 13.4668
176 1 13.5096 4.52488 18.0276
177 1 11.674 4.21202 22.6498
178 1 10.6708 5.47854 24.9783
179 1 10.0482 3.79027 27.4428
180 1 9.51387 2.4 29.7552
181 1 9.06655 5.1159 29.6627
182 1 8.28533 3.62455 31.9542
183 1 7.83528 1.98873 34.1872
184 1 7.29513 4.93529 34.2813
185 1 6.72662 3.58075 36.6702
186 1 6.18061 2.17323 38.9036
187 1 5.24412 4.96017 39.2695
188 1 18.5704 5.40982 11.1944
189 1 16.8389 5.15549 15.7781
190 1 15.1503 4.95902 20.5614
191 1 13.339 4.58027 24.9676
192 1 11.7333 4.24629 29.681
193 1 10.6392 5.47822 32.0273
194 1 10.2036 3.93339 34.1127
195 1 9.40735 2.39533 36.2826
196 1 8.938 5.1978 36.329
197 1 8.81461 3.35949 38.5972
198 1 18.4719 5.48399 18.0032
199 1 16.6318 5.15189 22.8777
200 1 15.0596 4.93335 27.2188
201 1 13.5015 4.747 31.9746
202 1 11.674 4.41992 36.5842
203 1 10.296 6.07973 38.3814
204 1 18.3778 5.4871 25.0344
205 1 16.6625 5.08607 29.6444
206 1 15.1922 4.85764 34.3911
207 1 12.9854 4.97425 39.3409
208 1 18.2793 5.47883 31.9079
209 1 16.4926 5.38937 36.7075
210 1 17.9498 5.71652 39.1343
211 2 14.3003 1.58085 101.866
212 1 14.7964 1.29282 99.2363
213 1 3.33465 0.565724 102.839
214 1 2.18108 1.39127 98.4487
215 1 1.27821 1.66357 101.205
216 2 15.6914 0.792337 96.5388
217 1 14.7365 1.58022 94.1692
218 1 5.74593 1.94713 102.552
219 1 6.51535 1.52501 99.7571
220 1 1.79889 0.286405 94.3099
221 1 4.45922 2.81644 98.2847
222 2 4.11463 1.38477 100.456
223 1 4.00464 1.55547 93.3867
224 1 1.9813 2.9503 94.8584
225 1 15.4299 1.1115 90.4968
226 1 2.94912 2.12662 90.5013
227 2 1.31833 2.02085 92.5073
228 1 15.6094 0.940767 87.8188
229 1 8.02111 0.403118 95.3761
230 1 6.92791 1.47727 88.7481
231 1 4.71445 0.252944 89.8761
232 1 11.6172 4.91743 102.91
233 1 3.51768 3.34418 102.142
234 1 7.91656 3.24234 101.707
235 1 5.93812 4.89683 102.869
236 2 7.81324 0.628276 101.806
237 2 5.47239 3.75204 100.542
238 1 7.1429 3.89452 98.496
239 2 6.40098 1.70956 97.1524
240 1 4.71331 3.14186 95.749
241 1 12.2797 1.75521 102.905
242 1 9.98268 1.80581 100.846
243 1 14.0947 6.14389 98.7256
244 2 11.2661 1.65421 98.5058
245 1 9.89316 3.93376 99.4397
246 1 8.86723 1.96386 97.6036
247 1 10.7093 0.772927 96.076
248 1 7.56918 3.41916 95.4765
249 1 11.2371 3.43045 96.7449
250 2 9.11344 4.6299 96.9325
251 1 8.1969 3.6333 92.6689
252 2 8.73681 2.12837 90.5353
253 1 10.0733 4.34951 90.6638
254 1 6.145 2.21001 91.465
255 1 8.36664 0.879833 92.7652
256 1 10.2223 4.25067 94.4253
257 1 7.10853 4.21741 89.7318
258 1 9.10898 2.98277 88.2491
259 1 12.4826 2.73209 100.464
260 2 10.5373 3.54667 101.893
261 1 12.2942 5.34872 100.457
262 2 12.8438 4.02016 98.419
263 1 14.8732 3.98026 100.207
264 1 11.2527 6.07119 97.73
265 1 13.5337 4.74668 96.1728
266 2 6.46805 1.80177 94.0089
267 2 4.88294 2.87809 89.0606
268 1 10.73 5.54203 88.0721
269 1 17.5468 4.14383 99.4693
270 1 13.3456 2.02918 96.7815
271 1 10.7255 2.29381 92.4223
272 1 11.3436 1.95733 89.8463
273 2 13.8472 2.03828 88.9778
274 1 11.7029 3.18332 87.5218
275 2 2.86446 4.2657 96.9273
276 1 15.7903 3.2754 97.3736
277 1 16.1338 5.25124 95.4711
278 2 12.5922 2.85476 94.3436
279 1 13.3748 2.37128 91.5914
280 2 14.0206 6.17767 93.9479
281 1 12.1738 4.73814 92.3709
282 1 12.8145 4.34532 89.6945
283 1 15.2425 4.22089 93.0803
284 1 15.8587 3.75652 90.6042
285 1 9.3274 0.263601 88.8045
286 1 14.3144 6.00295 102.421
287 1 5.23373 0.230573 95.5676
288 2 16.6858 4.64686 102.019
289 1 12.2808 -0.00771209 100.277
290 1 4.69541 5.61776 98.7003
291 1 3.78531 5.88525 101.228
292 1 16.8682 6.26029 97.6614
293 1 12.6126 0.159515 93.3627
294 1 17.212 6.33539 90.7695
295 1 14.5352 6.15342 91.3359
296 2 15.5912 5.65347 88.6438
297 1 5.54556 4.13664 93.4169
298 1 3.51876 5.51808 94.8091
299 1 2.85794 4.06451 92.2772
300 1 4.42489 5.07195 90.2648
301 2 3.88459 6.39128 92.539
302 1 9.43889 5.83036 101.459
303 1 6.65968 5.952 96.547
304 1 6.7762 5.89324 100.476
305 1 4.73133 -0.092428 98.3889
306 2 7.81244 5.52623 94.138
307 1 6.44173 6.29447 91.712
308 1 17.7135 4.08294 88.6341
309 2 6.24428 6.72227 89.1807
310 1 9.82942 6.34914 92.7805
311 2 11.3167 6.55397 90.6423
312 1 5.14285 4.97825 87.5946
313 1 3.38461 1.45354 87.6298
314 1 13.0966 1.02995 86.7298
315 2 16.3899 6.72679 84.5911
316 1 14.1408 0.205999 82.694
317 1 5.91975 2.15482 82.7578
318 1 1.80114 0.10645 83.4191
319 2 0.635993 0.674767 81.0474
320 1 18.9076 6.09554 76.787
321 1 1.58209 0.0239213 75.0097
322 1 5.45554 6.44525 78.6598
323 1 14.096 -0.113748 73.8902
324 1 3.9441 1.52663 84.7981
325 2 4.48248 0.0451516 82.8383
326 1 6.43712 0.186311 84.7895
327 1 3.03294 2.08731 81.754
328 1 5.15469 1.0212 80.2289
329 1 2.14881 1.31264 72.6273
330 1 9.27863 0.119194 83.9652
331 2 13.5774 6.35936 81.2764
332 1 11.219 6.3972 82.1493
333 1 7.7255 1.09866 79.6786
334 2 5.90981 2.47899 78.181
335 1 3.90217 0.410246 76.8667
336 1 4.36865 0.0500919 74.2105
337 1 6.68106 -0.148855 77.5342
338 1 11.2811 6.03055 74.8763
339 1 5.89429 2.37575 86.5609
340 1 16.5551 2.61656 79.6091
341 2 8.32672 1.11792 86.5485
342 2 9.70029 4.18318 85.9925
343 1 8.02968 2.64925 84.5077
344 1 11.6877 1.60557 82.5893
345 1 10.7771 1.99065 85.227
346 1 10.3947 3.9771 83.3721
347 1 8.8007 2.11895 81.8659
348 1 8.19249 2.38831 77.204
349 1 8.88845 1.90286 74.6315
350 1 6.172 1.84538 75.3902
351 2 6.93273 1.03877 72.8188
352 1 14.3987 3.58227 87.0276
353 1 13.2009 4.22498 82.7437
354 1 12.3882 4.56241 85.3548
355 2 11.4174 3.64123 80.8695
356 1 10.1766 4.04412 78.4091
357 1 16.7169 4.93056 86.4443
358 1 17.8427 4.25728 83.799
359 1 12.4018 0.00644988 77.6297
360 1 10.1777 1.17599 79.2054
361 1 12.4219 2.67093 78.6293
362 1 13.4887 6.65133 76.7782
363 1 11.3831 0.604399 74.5087
364 2 10.8798 1.98629 76.6904
365 1 1.28111 2.29747 85.5638
366 1 15.5272 5.54904 82.6016
367 2 15.0248 4.31737 84.6435
368 1 13.8619 2.34657 80.802
369 1 13.8369 2.15866 84.4711
370 1 15.8494 2.84133 82.5377
371 2 14.5882 1.48312 78.3272
372 1 13.3634 2.13843 75.9119
373 1 14.8395 3.94574 77.4918
374 1 12.6712 5.26359 79.1312
375 1 13.217 6.14718 72.783
376 1 11.1576 3.42504 74.6511
377 2 13.1513 2.35774 73.3825
378 1 13.9821 4.50953 74.7217
379 2 12.3022 4.37448 76.723
380 1 11.4475 3.3787 72.0982
381 1 4.01505 3.52307 79.4319
382 1 16.7091 2.00023 76.9144
383 1 2.6682 3.82373 72.8949
384 1 15.5736 2.49116 73.9601
385 2 2.80925 2.26056 74.9219
386 1 12.0226 0.636557 71.7611
387 1 14.5168 6.36779 86.5038
388 1 19.1217 6.28613 85.4688
389 2 3.48624 3.54076 86.2993
390 2 17.416 4.4039 81.2606
391 1 15.4825 5.37431 79.9258
392 1 7.96895 5.37235 87.423
393 1 5.45083 4.28942 84.6307
394 2 7.23918 4.453 82.7437
395 1 4.44341 4.73425 81.8112
396 1 6.67035 3.57376 80.4782
397 1 18.1711 6.06886 79.7432
398 1 6.80393 6.17942 80.8859
399 2 4.27895 4.53586 74.6055
400 1 16.9109 4.51568 75.5615
401 1 3.92488 3.20977 76.8631
402 1 4.85324 5.26302 72.1299
403 1 8.08523 5.31063 84.8147
404 2 6.25773 6.54656 86.022
405 2 17.4089 4.36434 78.0843
406 2 15.7894 5.12533 72.997
407 1 9.19344 4.9063 81.0737
408 1 6.22451 4.55674 76.4964
409 1 6.96239 4.10659 73.9439
410 2 9.61476 4.71467 73.3721
411 1 7.54791 5.7715 71.8709
412 2 7.92297 5.30629 78.6641
413 1 8.83638 4.73252 76.1031
414 1 4.80502 2.43288 73.1072
415 2 1.63168 0.269658 70.3335
416 1 6.08982 6.48288 67.5873
417 1 10.0982 5.83738 71.087
418 1 8.61814 6.61802 66.7875
419 1 3.98528 0.38281 69.5603
420 2 6.77324 5.94945 64.8652
421 1 1.83067 0.283427 62.5315
422 1 8.33334 0.635015 70.6301
423 1 9.24196 0.00705804 68.2492
424 1 8.05215 5.42773 62.6471
425 1 7.12426 1.36424 66.8853
426 2 6.57517 -0.0113027 68.8253
427 1 6.41224 0.133583 61.7665
428 1 4.40081 1.3437 63.3731
429 1 6.66194 6.32941 58.8428
430 1 5.42207 0.633714 58.9271
431 2 3.92269 0.426114 60.9283
432 1 6.64564 6.04215 56.2263
433 1 14.4696 5.63238 63.6476
434 1 9.48829 0.00914346 57.2434
435 1 11.2548 5.29567 58.1919
436 1 14.333 3.69668 71.7178
437 1 6.1073 1.89299 70.6546
438 1 10.6695 1.97841 69.806
439 1 8.48748 3.35771 71.3478
440 2 14.2849 5.88138 70.5058
441 2 8.13484 2.39777 68.9712
442 1 9.81457 2.58365 66.79
443 2 8.9558 0.302187 65.6036
444 1 7.13609 1.75647 64.1513
445 1 14.8486 0.913687 71.5711
446 1 12.2801 0.0825331 68.8837
447 1 16.7553 4.71783 66.9279
448 2 13.9706 0.269957 66.8739
449 1 12.7254 2.42319 67.5787
450 1 11.3139 0.455631 66.1164
451 1 17.2496 5.97524 64.5019
452 1 10.2136 1.96853 63.8676
453 1 13.7171 1.96019 64.9712
454 2 11.6477 3.36822 65.238
455 1 10.5702 2.17724 61.0634
456 2 11.2554 0.869488 58.9961
457 1 12.4758 2.84481 58.9659
458 1 8.83142 0.586429 59.7067
459 1 14.843 6.0516 61.0742
460 1 12.7159 3.00475 62.7633
461 1 9.59131 2.73499 58.2059
462 1 11.7101 1.65347 56.4582
463 1 15.0183 1.27464 68.9318
464 2 13.0983 2.15647 70.1475
465 1 14.8157 4.01058 68.9583
466 2 15.4066 2.53564 66.9046
467 1 2.06446 2.65417 68.8165
468 1 13.834 4.59447 66.1307
469 1 16.0765 3.29578 64.6051
470 2 8.90161 0.405525 62.3553
471 2 7.39847 1.1881 57.3826
472 1 13.3835 4.08353 56.807
473 1 4.75878 2.70101 68.1258
474 1 0.556166 0.490848 65.0987
475 1 13.221 0.730239 60.9305
476 1 13.8127 0.525022 58.3265
477 2 0.900932 0.49707 57.4365
478 1 14.3663 1.80841 55.9183
479 2 5.39497 2.73601 65.4695
480 1 2.73516 2.0984 66.0801
481 1 3.30017 3.61268 63.809
482 2 14.9984 1.58932 62.8708
483 1 0.493798 1.00502 60.2503
484 2 16.4879 4.73342 62.4331
485 1 14.8555 3.4483 60.7893
486 1 15.3956 2.85697 58.2271
487 1 2.35405 2.6816 61.4596
488 1 3.02098 2.29438 58.9625
489 1 15.7979 5.49893 57.2564
490 1 16.9512 4.84474 70.6882
491 1 11.6026 5.6114 64.0427
492 2 3.74131 3.05802 70.7692
493 1 3.56763 5.30962 68.8275
494 1 7.15047 4.00793 66.998
495 1 6.40715 4.49762 69.6173
496 1 4.16852 4.75067 66.2516
497 1 3.79862 5.31112 61.6656
498 1 4.50289 4.94849 58.9949
499 1 17.1571 4.72081 59.7047
500 2 2.83431 4.31364 57.1992
501 1 7.96336 2.80825 61.7262
502 1 5.7784 4.09154 63.1531
503 1 5.17774 2.63863 60.8281
504 1 7.11745 3.2889 58.9077
505 2 6.39465 4.86536 60.8074
506 1 12.1072 4.36987 69.6653
507 1 9.02782 4.38035 64.9373
508 1 9.4042 4.5928 68.7915
509 1 11.158 5.22755 66.7322
510 2 10.193 4.17381 62.5694
511 1 9.09328 4.84352 60.1622
512 1 5.1964 2.92906 57.2403
513 2 8.66713 5.06997 57.6659
514 1 12.2821 4.8205 61.0504
515 2 13.9244 5.01498 59.0451
516 1 7.98024 3.22015 55.9325
517 1 5.32301 0.179357 56.0892
518 1 4.067 5.99951 55.2608
519 2 3.60746 5.11135 52.9739
520 1 5.13697 5.29036 50.9353
521 1 8.18321 0.781337 51.2894
522 1 8.20829 5.06841 51.8786
523 2 7.22912 5.84501 49.4894
524 1 6.24606 4.8306 45.1992
525 1 8.14677 5.529 43.0974
526 1 8.2221 5.60098 47.1874
527 1 5.48515 5.61877 42.4299
528 1 10.2405 6.73257 53.192
529 2 10.9241 5.29959 51.2212
530 1 12.8713 5.29855 53.0397
531 1 5.45281 0.740655 50.3313
532 1 11.6311 6.10611 48.8507
533 1 5.25113 0.119599 40.8163
534 1 15.5786 5.55358 52.349
535 2 16.1474 5.47947 49.6074
536 1 13.5934 4.90628 50.4002
537 1 14.2432 6.4802 48.1024
538 2 8.03536 0.89589 46.6399
539 1 10.1473 5.8801 45.1496
540 1 11.069 5.49073 42.6591
541 1 13.1841 5.34917 45.942
542 1 13.9336 4.73186 43.4201
543 1 8.29996 0.423119 55.0206
544 1 3.58683 1.4883 48.1118
545 2 14.6303 6.00055 55.0256
546 2 12.4324 3.14849 54.5606
547 1 10.4097 1.33183 53.1431
548 1 13.978 0.191183 51.1174
549 1 13.2521 0.643534 53.7406
550 1 12.8073 2.59817 51.7823
551 1 10.9927 0.855783 50.4552
552 1 10.7738 1.28738 45.9661
553 1 11.4325 0.730363 43.4178
554 1 8.65812 0.702434 44.0673
555 2 13.5677 6.71892 41.4849
556 1 1.59246 1.8781 55.3062
557 1 15.5562 2.66913 51.0929
558 1 14.9185 3.09246 53.6173
559 2 13.8408 2.03719 49.1992
560 1 12.7458 2.70586 46.9019
561 1 3.8371 3.3452 55.0446
562 1 4.92497 2.87772 52.1547
563 1 3.6303 5.47649 45.9134
564 1 16.7398 6.54333 47.4799
565 1 15.016 1.38389 47.0506
566 1 15.8995 5.41118 45.1916
567 1 18.0135 5.87639 43.3296
568 2 13.3973 0.736133 45.2365
569 1 3.77992 0.826557 53.8863
570 1 2.45731 4.09383 50.8964
571 2 2.19788 2.8439 53.0383
572 1 1.03904 0.82851 49.287
573 1 0.969352 0.600321 52.8635
574 1 3.04242 1.20085 51.1699
575 2 5.88909 6.80084 46.7589
576 1 0.726449 0.856361 44.3797
577 1 1.90492 2.80075 46.0475
578 1 15.1854 4.02104 47.7971
579 1 15.9072 5.29875 41.4837
580 1 13.652 2.0713 43.2928
581 2 15.5708 0.790465 41.7138
582 1 16.4739 3.43143 43.2384
583 2 14.7931 3.17475 45.3292
584 1 14.4152 2.97393 40.9212
585 1 6.39801 1.93022 47.8619
586 1 3.89228 0.922646 45.1959
587 1 5.1264 2.95574 41.3104
588 1 2.93995 1.29353 42.2631
589 2 5.39122 1.00426 43.1397
590 1 13.0933 0.959432 40.9799
591 1 16.8323 4.76353 54.9171
592 1 6.1185 4.6995 53.7519
593 2 6.04921 2.09339 54.8059
594 2 4.49111 3.0393 49.6065
595 1 2.7029 4.12639 48.2724
596 1 10.7218 4.24087 55.8007
597 1 7.98738 2.63293 53.2338
598 2 9.53616 2.99338 51.2086
599 1 6.92466 3.32751 50.2462
600 1 9.03899 2.00306 48.8692
601 1 5.51139 4.75497 48.0767
602 1 9.30963 4.74 49.3862
603 2 6.82938 3.44754 43.099
604 1 4.02835 3.39557 43.8439
605 1 6.38224 1.92865 45.1854
606 1 7.54543 4.27068 40.8342
607 1 10.5237 3.95153 53.2848
608 2 8.5928 5.12583 54.3708
609 2 4.54333 3.08908 46.4408
610 2 2.64769 3.85019 41.2678
611 1 11.5695 3.37762 49.4622
612 1 8.63792 3.35328 45.1164
613 1 9.55112 2.88992 42.5938
614 2 12.0262 3.00642 41.7711
615 1 10.2682 4.35391 40.4814
616 2 10.4065 4.08328 47.1249
617 1 11.5077 3.52971 44.6219
618 1 7.53349 1.39784 41.7315
ITEM: TIMESTEP
3200
ITEM: NUMBER OF ATOMS
618
ITEM: BOX BOUNDS xy xz yz pp pp ff
0.0000000000000000e+00 1.9317770367296919e+01 4.0025167278329121e+00
0.0000000000000000e+00 6.6702723500479264e+00 0.0000000000000000e+00
0.0000000000000000e+00 1.0921147561319708e+02 0.0000000000000000e+00
ITEM: ATOMS id type x y z
1 1 4.7609 5.66915 6.17919
2 1 6.55671 6.07326 8.67456
3 1 4.78945 5.73172 13.4893
4 1 10.0551 6.32728 6.60141
5 1 8.054 6.1325 11.1244
6 1 6.48405 6.18836 15.8232
7 1 4.87351 5.94865 20.3624
8 1 12.6909 5.72147 6.41443
9 1 7.62442 0.317836 8.78202
10 1 5.70953 0.168447 13.2976
11 1 8.22807 6.43481 18.0157
12 1 6.3042 6.14657 22.795
13 1 4.59759 5.94752 27.3445
14 1 10.7394 0.895285 6.2919
15 1 14.3771 6.15552 8.88328
16 1 9.12737 0.671226 11.1842
17 1 12.3851 5.81321 13.4588
18 1 7.26616 0.373041 15.7129
19 1 5.73739 0.14414 20.4556
20 1 7.88794 6.36756 24.9696
21 1 6.2643 6.21491 29.7047
22 1 4.66607 5.94373 34.3861
23 1 13.4125 0.11441 6.08656
24 1 13.1343 2.73336 5.93628
25 1 12.4933 1.39388 8.83932
26 1 15.729 6.493 11.3506
27 1 11.2351 2.81047 11.2916
28 1 10.6523 1.05031 13.52
29 1 14.0533 6.13698 15.9844
30 1 8.83024 0.744601 18.1253
31 1 12.3358 5.87608 20.318
32 1 7.17379 0.00159778 22.8286
33 1 5.43318 0.219724 27.3561
34 1 7.78199 6.58949 32.053
35 1 6.43212 6.22814 36.9841
36 1 15.7352 1.96261 6.16996
37 1 15.1431 0.535455 8.47913
38 1 14.5303 3.25869 8.64712
39 1 14.0509 1.65875 11.0766
40 1 13.5573 0.0765887 13.3975
41 1 13.0355 2.89752 13.5202
42 1 12.4788 1.32562 15.7956
43 1 15.6654 6.34916 18.1835
44 1 11.1466 2.42398 18.0802
45 1 10.5115 0.830932 20.3567
46 1 14.0654 5.77408 22.7102
47 1 8.80264 0.43737 25.0778
48 1 12.3081 5.74578 27.3146
49 1 7.34202 0.493962 29.596
50 1 5.59657 0.245298 34.2348
51 1 3.0928 0.139317 39.4914
52 1 3.21216 0.832537 6.40138
53 1 2.56625 3.90473 6.218
54 1 2.05263 2.37167 8.68828
55 1 1.42225 0.698198 10.9773
56 1 16.3615 3.56766 10.921
57 1 15.8942 2.01681 13.2822
58 1 15.1083 0.466314 15.7266
59 1 14.6133 3.32429 15.8185
60 1 14.0898 1.68839 18.0682
61 1 13.3609 0.0513733 20.3068
62 1 12.6974 2.79606 20.3894
63 1 12.1711 1.2356 22.7132
64 1 15.6165 6.42977 25.034
65 1 11.1751 2.50602 24.9949
66 1 10.5771 1.10301 27.3058
67 1 14.017 6.10834 29.7024
68 1 8.99588 0.738012 31.9375
69 1 12.1986 6.00834 34.3343
70 1 7.27153 0.526963 36.7524
71 1 5.2375 2.95002 6.39048
72 1 4.87137 1.01878 8.73922
73 1 4.2898 4.2547 8.75528
74 1 3.70916 2.6346 11.0084
75 1 3.08915 1.04759 13.4005
76 1 2.64006 3.82244 13.4571
77 1 1.95783 2.42739 15.6191
78 1 1.49315 0.59668 17.9571
79 1 16.1447 3.44908 18.2651
80 1 15.6258 1.97455 20.405
81 1 14.9045 0.237328 22.6237
82 1 14.5116 3.12767 22.7524
83 1 13.9506 1.5202 25.0645
84 1 13.1646 0.198385 27.3922
85 1 12.6813 2.84275 27.5628
86 1 12.0939 1.34489 29.745
87 1 15.6306 6.64087 32.003
88 1 11.1622 2.79032 31.9733
89 1 10.5011 1.17282 34.1226
90 1 13.9467 6.22329 36.5805
91 1 8.8824 0.928104 39.0769
92 1 7.9834 1.75281 6.46803
93 1 7.76432 4.68694 6.22643
94 1 6.86201 3.19807 8.7796
95 1 6.33203 1.57001 11.0863
96 1 5.8154 4.36578 11.0921
97 1 5.35464 2.97149 13.4686
98 1 4.57609 1.40602 15.74
99 1 4.24021 4.23628 15.9348
100 1 3.63091 2.59877 18.0249
101 1 2.92367 1.07139 20.4269
102 1 2.56737 3.80758 20.2505
103 1 1.69724 2.14739 22.8743
104 1 1.2799 0.668967 25.1599
105 1 16.011 3.69452 25.0748
106 1 15.4536 1.86897 27.3657
107 1 14.9381 0.364233 29.7903
108 1 14.5445 3.20884 29.5769
109 1 13.8954 1.64682 32.003
110 1 13.1898 0.234688 34.3412
111 1 12.72 3.01554 34.2436
112 1 12.106 1.35073 36.5767
113 1 15.3234 6.37613 39.0445
114 1 11.2904 2.41049 39.2421
115 1 10.4883 3.6711 6.34912
116 1 9.831 2.2211 8.69724
117 1 9.31938 4.89803 8.92296
118 1 8.57324 3.56547 11.1418
119 1 7.92959 2.02603 13.4035
120 1 7.28493 4.93956 13.5243
121 1 6.79681 3.15817 15.8352
122 1 6.39359 1.73079 17.9923
123 1 5.87307 4.56209 18.1245
124 1 5.16342 2.78403 20.2772
125 1 4.52796 1.28907 22.6923
126 1 4.19782 4.10501 22.6166
127 1 3.58795 2.53548 24.9051
128 1 2.78395 1.0246 27.311
129 1 2.43404 3.97787 27.3223
130 1 1.86655 2.39572 29.6466
131 1 1.15841 0.773367 32.123
132 1 15.9617 3.73345 31.9221
133 1 15.549 2.257 34.4254
134 1 14.8106 0.568031 36.6249
135 1 14.3034 3.46748 36.5495
136 1 13.731 2.08856 38.6248
137 1 11.8995 4.15916 8.92001
138 1 10.8253 5.52618 11.17
139 1 10.1761 3.88148 13.7052
140 1 9.57614 2.1458 15.819
141 1 9.10516 5.17643 15.7449
142 1 8.48265 3.67277 18.052
143 1 7.80698 2.06331 20.5422
144 1 7.44771 4.79022 20.4373
145 1 6.76254 3.13983 22.7943
146 1 6.10316 1.57442 25.1257
147 1 5.77784 4.61201 25.0768
148 1 5.03619 3.14664 27.3275
149 1 4.52252 1.39139 29.7372
150 1 4.08214 4.37453 29.5981
151 1 3.33059 2.71038 32.072
152 1 2.82685 1.05299 34.3431
153 1 17.6288 4.06461 34.217
154 1 1.82793 2.43532 36.7101
155 1 0.859862 1.08767 39.1783
156 1 16.1664 3.88991 39.0486
157 1 15.0499 4.80755 6.25745
158 1 13.6065 4.5934 11.2337
159 1 11.9513 4.09175 15.8569
160 1 10.8428 5.34083 18.1305
161 1 10.1645 3.86237 20.5172
162 1 9.37685 2.12616 22.6788
163 1 8.95655 5.02743 22.7566
164 1 8.46153 3.29334 25.0721
165 1 7.77107 1.93282 27.2815
166 1 7.44804 4.80238 27.2049
167 1 6.77674 3.2941 29.6281
168 1 6.17096 1.79742 31.9304
169 1 5.62294 4.50338 32.1108
170 1 5.04613 2.97191 34.2557
171 1 4.57346 1.35915 36.8899
172 1 4.28046 4.34613 36.8423
173 1 3.37057 2.88718 39.2272
174 1 17.0104 5.18147 8.77876
175 1 15.1164 4.79808 13.5687
176 1 13.4723 4.50614 18.0979
177 1 11.7003 3.94815 22.772
178 1 10.6459 5.40458 25.1396
179 1 10.0204 3.97433 27.3406
180 1 9.46467 2.40748 29.4581
181 1 9.01812 5.24431 29.6349
182 1 8.52343 3.67456 31.9082
183 1 7.77867 2.07515 34.1055
184 1 7.25614 5.06225 34.4122
185 1 6.97607 3.17267 36.541
186 1 6.41959 2.16491 39.1294
187 1 5.30624 4.87909 39.2963
188 1 18.4257 5.54369 11.0335
189 1 16.7685 5.28173 15.7445
190 1 15.0293 4.66656 20.3223
191 1 13.5126 4.40073 25.1219
192 1 11.6421 4.23015 29.6022
193 1 10.6545 5.70664 31.8259
194 1 10.0038 4.0394 34.1947
195 1 9.56407 2.31691 36.5056
196 1 8.9748 5.47394 36.3052
197 1 8.7877 3.65901 38.4965
198 1 18.416 5.44483 18.092
199 1 16.7118 5.01232 22.4781
200 1 14.9415 4.84938 27.4035
201 1 13.2254 4.50285 31.9582
202 1 11.589 4.27054 36.7266
203 1 10.1437 6.099 38.6089
204 1 18.3542 5.44118 24.9832
205 1 16.7239 5.31481 29.6822
206 1 14.8666 4.87056 34.2297
207 1 13.0587 4.63702 39.2153
208 1 18.3984 5.59526 32.0645
209 1 16.7522 5.24614 36.5585
210 1 18.1435 5.72458 39.0675
211 2 14.2267 1.38029 101.915
212 1 14.7023 1.32727 99.1759
213 1 3.32761 0.423624 102.874
214 1 2.0999 1.20389 98.5482
215 1 1.27993 1.64769 101.224
216 2 15.6848 0.700005 96.6047
217 1 14.6626 1.52517 94.2259
218 1 5.69026 1.84897 102.323
219 1 6.70908 1.52884 99.708
220 1 1.68371 0.186388 94.3497
221 1 4.32442 2.66034 98.3156
222 2 4.0054 1.31926 100.615
223 1 4.05998 1.60153 93.583
224 1 2.14476 2.76215 94.9923
225 1 15.6078 0.960076 90.4541
226 1 3.09373 1.98962 90.3905
227 2 1.43352 1.89342 92.4197
228 1 15.8774 1.08723 87.8679
229 1 8.17101 0.408678 95.3151
230 1 7.12587 1.4502 88.7541
231 1 4.84419 0.0627359 89.551
232 1 11.7482 5.05283 103.176
233 1 3.35039 3.36904 102.137
234 1 8.12567 3.24834 101.488
235 1 5.9275 4.50517 102.932
236 2 8.00476 0.654491 101.977
237 2 5.55352 3.71698 100.449
238 1 7.02635 3.89032 98.2752
239 2 6.42211 1.71735 97.105
240 1 4.85132 3.23379 95.7668
241 1 12.1541 1.92494 102.997
242 1 10.128 1.6501 101.158
243 1 13.8909 6.23174 98.676
244 2 11.4843 1.61762 98.5737
245 1 10.0317 3.93759 99.4988
246 1 8.87529 2.04409 97.7324
247 1 10.8799 0.685176 96.1736
248 1 7.80249 3.30672 95.3757
249 1 11.1611 3.38415 96.7507
250 2 9.03689 4.7616 96.7977
251 1 8.21872 3.66742 92.7694
252 2 8.76091 2.16101 90.6645
253 1 10.1478 4.38424 90.6339
254 1 6.16057 2.11498 91.3559
255 1 8.39122 0.815778 92.6231
256 1 10.4045 4.53513 94.4954
257 1 7.15918 4.10133 89.7806
258 1 9.45695 2.97783 88.4897
259 1 12.7195 2.56534 100.496
260 2 10.5972 3.61703 102.09
261 1 12.3931 5.3 100.547
262 2 13.0791 3.90975 98.412
263 1 14.836 4.17258 100.4
264 1 11.2696 6.00834 97.7005
265 1 13.4406 4.76811 96.2517
266 2 6.45888 1.85339 93.8603
267 2 4.9791 2.69602 88.9098
268 1 10.9477 5.51744 88.0652
269 1 17.572 4.10928 99.653
270 1 13.5292 1.90168 96.7774
271 1 10.6248 2.49224 92.6048
272 1 11.5531 1.81318 90.1079
273 2 13.9777 1.93029 89.1742
274 1 11.9741 3.06492 87.6993
275 2 2.84384 4.06375 96.9777
276 1 15.5296 3.60039 97.7905
277 1 16.1052 4.97922 95.5651
278 2 12.4131 2.99813 94.4253
279 1 13.4956 2.2382 91.8833
280 2 14.0103 6.05748 94.1106
281 1 12.275 4.7351 92.5154
282 1 12.9018 4.23079 89.8562
283 1 15.2917 3.94408 93.2922
284 1 15.9204 3.60484 90.5814
285 1 9.48759 0.167356 88.9052
286 1 14.2835 5.84648 102.419
287 1 5.29521 0.282995 95.5898
288 2 16.5457 4.64379 102.256
289 1 16.2663 6.60676 100.427
290 1 4.77884 5.38593 98.5402
291 1 3.99624 5.85606 101.085
292 1 17.0259 6.07422 97.854
293 1 12.6605 -0.0532881 93.1367
294 1 17.3497 6.19652 90.6002
295 1 14.6818 6.00689 91.4293
296 2 15.5339 5.38509 88.6034
297 1 5.5871 4.25311 93.397
298 1 18.6256 5.45445 94.8491
299 1 2.64023 4.1155 92.5509
300 1 4.74732 4.63686 90.6274
301 2 4.03101 6.27816 92.5384
302 1 9.66217 5.8145 101.617
303 1 6.66011 5.86521 96.5109
304 1 6.96319 5.80675 100.513
305 1 4.75601 -0.0232175 98.4295
306 2 7.79981 5.68078 94.2213
307 1 6.83804 6.40371 91.7989
308 1 2.6072 4.17863 88.7593
309 2 6.27569 6.36658 89.2454
310 1 9.79321 6.2989 92.6113
311 2 11.5461 6.48083 90.5177
312 1 5.10384 4.89453 87.7499
313 1 3.39066 1.46473 87.5181
314 1 13.134 0.86236 86.9454
315 2 16.5896 6.56188 84.4825
316 1 14.0312 0.16674 82.4621
317 1 5.85201 2.44247 82.7566
318 1 2.07076 0.0602725 83.3428
319 2 0.877613 0.745894 81.1162
320 1 18.9604 5.9644 76.7757
321 1 5.47733 6.60333 74.7136
322 1 5.46002 6.46444 78.5977
323 1 18.051 6.53337 73.8704
324 1 4.00663 1.57284 84.8137
325 2 4.68522 0.173659 82.6463
326 1 6.49996 0.327241 84.706
327 1 3.11591 2.34175 81.9609
328 1 5.1388 1.09663 80.2727
329 1 2.33366 1.33726 72.4076
330 1 9.25637 0.415725 83.8683
331 2 13.4736 6.39943 81.1662
332 1 11.2265 6.56093 81.9724
333 1 7.7364 1.12782 79.6292
334 2 5.76543 2.41313 78.2098
335 1 3.6252 0.412611 76.7982
336 1 4.41159 0.0284345 74.1281
337 1 10.5624 6.5452 77.5154
338 1 11.315 6.0591 74.9493
339 1 6.09721 2.43389 86.5551
340 1 16.7875 2.65645 79.6059
341 2 8.40957 0.968433 86.6049
342 2 9.82817 4.06252 86.1635
343 1 8.02758 2.81816 84.4937
344 1 11.6291 1.65368 82.4808
345 1 11.0407 2.13394 85.1937
346 1 10.43 4.19283 83.3841
347 1 8.77343 2.3566 81.9171
348 1 8.27859 2.46002 77.3888
349 1 8.81855 2.01139 74.7427
350 1 6.0583 1.91295 75.5021
351 2 7.01779 1.10519 72.9101
352 1 14.4981 3.33275 86.9756
353 1 13.0318 4.3662 82.7904
354 1 12.4908 4.70888 85.4794
355 2 11.4528 3.64261 80.7591
356 1 10.2788 4.0453 78.3907
357 1 16.6777 4.76003 86.4432
358 1 17.6933 4.38778 83.8287
359 1 16.3344 6.68159 77.5557
360 1 10.3223 0.993083 79.2283
361 1 12.4373 2.65305 78.5814
362 1 13.5133 6.58666 76.5284
363 1 11.5 0.437063 74.7486
364 2 10.782 2.15297 76.6983
365 1 1.42948 2.15194 85.3394
366 1 15.3553 5.58182 82.557
367 2 15.0765 4.17675 84.6702
368 1 13.9739 2.41775 80.7367
369 1 13.8182 2.02695 84.439
370 1 15.7577 2.80229 82.6005
371 2 14.6873 1.48917 78.3182
372 1 13.5163 1.9782 75.9353
373 1 14.6971 4.00291 77.5123
374 1 12.6544 5.44362 78.9385
375 1 13.4012 6.38795 72.9731
376 1 11.0924 3.37483 74.5913
377 2 13.0348 2.24116 73.4025
378 1 13.7815 4.36487 74.6028
379 2 12.1626 4.4001 76.6697
380 1 11.502 3.67011 72.0459
381 1 4.1185 3.80131 79.3479
382 1 1.22949 1.98845 76.7617
383 1 2.55884 3.91252 73.0282
384 1 15.5748 2.52676 73.8877
385 2 2.76921 2.085 74.736
386 1 11.8458 0.756545 71.912
387 1 14.5237 6.28842 86.3982
388 1 3.77105 6.30374 85.4676
389 2 3.63332 3.68667 86.2539
390 2 17.4326 4.49314 81.3255
391 1 15.3723 5.2385 79.8099
392 1 7.96193 5.07864 87.289
393 1 5.53852 4.33476 84.678
394 2 7.11949 4.52936 82.5572
395 1 4.56294 4.92736 81.7434
396 1 6.75723 3.47463 80.3429
397 1 18.0422 6.26626 79.6701
398 1 6.94532 6.23997 80.739
399 2 4.20577 4.42148 74.6392
400 1 16.8681 4.56943 75.5695
401 1 3.90084 3.13725 76.7977
402 1 4.78591 5.28894 72.1494
403 1 8.1699 5.42323 84.6209
404 2 6.23103 6.56251 86.0371
405 2 17.3143 4.41031 78.2017
406 2 15.683 5.19694 73.2588
407 1 9.10778 4.87917 80.8189
408 1 6.23737 4.59978 76.5713
409 1 6.92987 4.1166 73.9369
410 2 9.55407 4.67459 73.3404
411 1 7.50084 5.67303 71.7598
412 2 8.02829 5.2144 78.4811
413 1 8.99906 4.70039 75.9771
414 1 4.85799 2.41571 72.9846
415 2 1.52442 0.304048 70.2179
416 1 5.97839 6.56595 67.6887
417 1 9.94107 5.97098 71.0655
418 1 8.58298 6.52403 66.8638
419 1 3.98541 0.574412 69.404
420 2 6.87875 5.86343 65.114
421 1 1.9309 0.187569 62.9531
422 1 8.3507 0.604548 70.6767
423 1 13.3351 6.68165 68.0472
424 1 8.13446 5.53373 62.8586
425 1 6.97062 1.38561 66.7571
426 2 6.64402 0.102041 68.747
427 1 6.45697 0.242754 61.8406
428 1 4.50329 1.52109 63.3765
429 1 6.74095 6.19652 58.9891
430 1 5.30994 0.718782 58.8581
431 2 3.79196 0.511687 60.9586
432 1 6.81086 6.1515 56.4005
433 1 14.6559 5.64762 63.6855
434 1 9.57577 0.167319 57.0892
435 1 11.1409 5.35463 58.1411
436 1 14.1468 3.92212 71.8623
437 1 6.07518 2.01681 70.6903
438 1 10.5984 2.06885 69.7533
439 1 8.71444 3.20708 71.3239
440 2 14.4733 5.99539 70.3993
441 2 8.02025 2.3121 68.8389
442 1 9.75858 2.49445 66.7643
443 2 8.90448 0.390656 65.3961
444 1 7.38317 1.9507 64.1801
445 1 14.7287 1.06426 71.6338
446 1 16.4426 6.76642 69.0312
447 1 16.6381 4.67045 66.9481
448 2 13.9926 0.124399 66.9825
449 1 12.6005 2.44153 67.6782
450 1 11.3784 0.408115 66.1342
451 1 17.5481 5.88136 64.5677
452 1 10.3684 1.9035 63.8521
453 1 13.5947 1.9806 65.1266
454 2 11.5381 3.39339 65.3253
455 1 10.4826 2.16391 61.1412
456 2 11.2315 0.767418 59.0359
457 1 12.4179 2.94335 59.0948
458 1 8.41441 0.871109 59.7569
459 1 14.9529 6.06923 61.0892
460 1 12.8112 3.16342 62.8437
461 1 9.55653 2.77231 58.1383
462 1 11.8728 1.75346 56.7045
463 1 14.8912 1.20938 68.9333
464 2 13.0029 2.27589 70.2635
465 1 14.6007 3.9842 68.9132
466 2 15.2507 2.51516 66.8829
467 1 1.86825 2.5652 68.8271
468 1 13.6716 4.64399 66.021
469 1 15.8739 3.40636 64.5949
470 2 8.99337 0.384407 62.2843
471 2 7.38642 1.33335 57.3796
472 1 13.3388 4.26003 56.6847
473 1 4.88188 2.73486 68.0332
474 1 0.638504 0.626186 65.2338
475 1 13.2587 0.924848 61.0381
476 1 13.952 0.410424 58.4955
477 2 0.963832 0.374524 57.5743
478 1 14.4091 1.83459 56.0398
479 2 5.39004 2.75437 65.5361
480 1 2.69351 2.25888 66.1501
481 1 3.18369 3.58897 63.9934
482 2 15.0805 1.41102 62.7883
483 1 0.656985 0.803214 60.1428
484 2 16.4986 4.62112 62.3729
485 1 14.8258 3.4693 60.8233
486 1 15.5542 2.94878 58.1544
487 1 2.31821 2.486 61.5839
488 1 2.90365 2.26527 58.8928
489 1 15.8893 5.5918 57.0605
490 1 16.7097 4.71965 70.8604
491 1 11.6611 5.65473 63.9542
492 2 3.58142 2.97396 70.6998
493 1 3.47661 5.13399 68.9729
494 1 7.13796 4.08605 67.0389
495 1 6.46807 4.44804 69.659
496 1 4.27479 4.96186 66.1763
497 1 3.73733 5.44015 61.896
498 1 4.57795 4.80096 59.12
499 1 17.1744 4.65714 59.7145
500 2 2.84061 4.28829 56.9949
501 1 7.9898 2.93094 61.7615
502 1 5.78555 4.11881 63.3553
503 1 5.09255 2.74238 60.8283
504 1 6.99018 3.34445 58.9126
505 2 6.42232 4.99409 61.1601
506 1 12.1453 4.69223 69.7146
507 1 9.15749 4.42228 65.0572
508 1 9.35224 4.54752 68.8378
509 1 11.1556 5.291 66.8
510 2 10.2767 4.2017 62.5312
511 1 9.09505 4.82332 60.1334
512 1 5.01237 2.75623 57.0123
513 2 8.71668 5.07529 57.6319
514 1 12.294 5.069 61.1476
515 2 14.012 5.08881 59.0159
516 1 7.6612 3.3872 55.9411
517 1 5.6005 0.043581 56.0158
518 1 4.08581 6.07526 55.3552
519 2 3.61792 5.22544 52.9827
520 1 5.23969 5.3153 51.16
521 1 8.25352 0.838682 51.1935
522 1 8.34984 5.4269 51.8361
523 2 7.08368 6.14693 49.4743
524 1 6.05935 4.84953 45.1124
525 1 8.16401 5.40735 43.1121
526 1 8.15604 5.45305 46.9879
527 1 5.37486 5.40913 42.2367
528 1 6.33059 0.146179 53.0697
529 2 10.9394 5.28905 51.0055
530 1 12.8019 5.38778 52.9233
531 1 5.35286 0.829619 50.2138
532 1 11.5032 6.28105 48.7884
533 1 5.14047 0.0386372 41.0354
534 1 15.5596 5.52917 52.2321
535 2 16.3218 5.37529 49.7113
536 1 13.5422 4.89968 50.229
537 1 14.2173 6.43048 48.0936
538 2 8.10961 0.906289 46.7
539 1 10.2582 5.83649 45.2501
540 1 11.012 5.50745 42.6187
541 1 13.1429 5.4004 45.8177
542 1 13.9483 4.84235 43.3514
543 1 8.27832 0.745552 54.945
544 1 3.40998 1.46286 48.063
545 2 14.5863 5.92454 54.8078
546 2 12.4876 3.12582 54.5136
547 1 10.3588 1.26484 53.0747
548 1 14.188 0.278497 51.2042
549 1 13.2282 0.669825 53.8803
550 1 12.8754 2.66561 51.8753
551 1 11.1403 0.786687 50.4028
552 1 10.7418 1.14358 45.8481
553 1 11.423 0.684426 43.3078
554 1 8.79393 0.68416 43.836
555 2 13.6882 6.6935 41.2534
556 1 1.75232 1.83199 55.5155
557 1 15.4702 2.88069 51.1179
558 1 14.9521 3.06709 53.819
559 2 13.7656 1.94296 49.212
560 1 12.692 2.76999 46.9239
561 1 3.77709 3.43076 54.8681
562 1 4.74049 2.68187 52.3003
563 1 3.5237 5.39498 45.9677
564 1 12.8075 0.099352 47.5094
565 1 15.1127 1.57729 46.8732
566 1 16.0961 5.35148 45.1556
567 1 17.976 5.74889 43.1338
568 2 13.2536 0.814994 45.2392
569 1 3.67074 0.632649 53.9557
570 1 2.52664 4.19572 51.0385
571 2 2.24693 2.80731 53.0668
572 1 0.62687 0.546202 49.1474
573 1 0.937537 0.739857 52.9675
574 1 2.71489 1.44831 50.8671
575 2 1.79817 0.176756 46.6784
576 1 0.569399 0.837166 44.2249
577 1 2.07367 2.88696 45.9877
578 1 15.3 4.07793 47.5239
579 1 15.9345 5.39069 41.38
580 1 13.6514 2.04867 43.212
581 2 15.535 0.902806 41.6279
582 1 16.4767 3.33786 43.1641
583 2 14.6141 3.10177 45.1603
584 1 14.5328 3.1713 41.1005
585 1 6.2426 2.08019 47.8861
586 1 3.82682 0.860929 45.1461
587 1 5.00883 2.64261 41.3381
588 1 2.72633 1.04161 42.2677
589 2 5.39463 1.08764 43.3502
590 1 12.9665 1.03854 40.878
591 1 16.818 4.76512 54.7528
592 1 6.10063 4.87804 53.8056
593 2 5.93233 2.10654 54.5165
594 2 4.47547 3.12182 49.8012
595 1 2.74537 4.17302 48.337
596 1 10.5783 3.87869 55.6889
597 1 7.89434 2.85559 53.154
598 2 9.4573 3.02139 51.1173
599 1 6.95334 3.46397 50.3257
600 1 8.90988 2.062 48.8236
601 1 5.59185 4.69182 48.1176
602 1 9.29317 4.7446 49.2926
603 2 6.68993 3.314 43.2369
604 1 3.79886 3.41516 43.7199
605 1 6.33533 2.03662 45.3283
606 1 7.42067 4.15372 40.9161
607 1 10.6156 3.98224 53.1149
608 2 8.76712 5.10795 54.5209
609 2 4.46836 3.03688 46.4487
610 2 2.58178 3.82179 41.1583
611 1 11.4636 3.32156 49.4016
612 1 8.80154 3.3927 45.1499
613 1 9.52472 3.02964 42.5664
614 2 11.9161 3.22778 41.695
615 1 10.1962 4.39575 40.4864
616 2 10.5789 3.99792 46.9853
617 1 11.4819 3.4801 44.3737
618 1 7.39764 1.4433 41.6274
ITEM: TIMESTEP
3300
ITEM: NUMBER OF ATOMS
618
ITEM: BOX BOUNDS xy xz yz pp pp ff
0.0000000000000000e+00 1.9317770367296919e+01 4.0025167278329121e+00
0.0000000000000000e+00 6.6702723500479264e+00 0.0000000000000000e+00
0.0000000000000000e+00 1.0921147561319708e+02 0.0000000000000000e+00
ITEM: ATOMS id type x y z
1 1 5.00316 5.69537 6.09205
2 1 6.36325 6.12964 8.61018
3 1 4.8398 6.02624 13.3401
4 1 9.7088 6.75878 6.16767
5 1 8.19291 6.65089 11.1214
6 1 6.3932 6.05989 15.7161
7 1 4.60136 5.68222 20.4257
8 1 12.447 5.70764 6.27524
9 1 7.23643 0.191125 8.7964
10 1 5.78935 0.112847 13.4769
11 1 7.71743 6.33633 18.1002
12 1 6.37582 6.01764 22.7837
13 1 4.67507 5.73297 27.3737
14 1 10.8228 0.923385 6.25842
15 1 14.0257 5.96454 8.66806
16 1 9.07748 0.569804 11.1736
17 1 12.5493 5.86206 13.348
18 1 7.40108 0.500637 15.8519
19 1 5.59779 -0.170377 20.4161
20 1 8.00328 6.49381 25.1122
21 1 6.26324 6.34538 29.6035
22 1 4.6929 6.02955 34.1612
23 1 13.6494 -0.0618628 6.22233
24 1 13.0598 2.90846 6.50054
25 1 12.4496 1.29466 8.62874
26 1 15.8808 6.44613 10.8869
27 1 11.4333 2.39867 10.9778
28 1 10.6546 1.11355 13.382
29 1 14.0949 6.06162 15.6786
30 1 9.07788 0.483134 18.0686
31 1 12.3847 5.55534 20.3969
32 1 7.39681 0.495788 22.4727
33 1 5.74318 -0.067436 27.198
34 1 7.94699 6.65405 31.9464
35 1 6.29985 6.35536 36.6716
36 1 15.6512 1.88308 6.19536
37 1 15.1061 0.37507 8.86556
38 1 14.8616 3.11269 8.71374
39 1 14.0151 1.68224 11.0831
40 1 13.3054 0.234308 13.4327
41 1 12.9115 3.07654 13.4471
42 1 12.1814 1.45498 15.7735
43 1 15.6157 6.32497 17.9668
44 1 11.2211 2.60157 18.112
45 1 10.6692 0.952341 20.3642
46 1 13.9735 6.03565 22.6597
47 1 8.94416 0.740616 25.0226
48 1 12.2166 5.76369 27.3168
49 1 7.07584 0.447579 29.6903
50 1 5.32752 0.353771 34.2002
51 1 3.22763 -0.0604961 39.4632
52 1 3.05168 0.917372 6.0091
53 1 2.80127 3.74039 6.1113
54 1 1.87969 2.30794 8.67039
55 1 1.33071 0.9206 11.0846
56 1 16.2051 3.62698 11.1159
57 1 15.5094 2.03009 13.5274
58 1 14.9469 0.324472 15.7725
59 1 14.4191 3.23871 15.7754
60 1 13.8447 1.51558 18.0896
61 1 13.2752 -0.111923 20.4839
62 1 12.9211 2.70221 20.4733
63 1 12.1682 1.17356 22.7423
64 1 15.5336 6.16673 25.0901
65 1 11.0215 2.42095 25.0559
66 1 10.4988 0.892873 27.3969
67 1 13.9141 6.27773 29.6402
68 1 8.70409 0.902245 32.0139
69 1 12.1899 5.91378 34.169
70 1 7.0706 0.651817 36.2463
71 1 5.36283 2.65439 6.09672
72 1 4.6799 1.32436 8.66769
73 1 4.19052 4.06249 8.58806
74 1 3.5529 2.78098 10.9965
75 1 2.90319 1.13116 13.5047
76 1 2.53775 3.95985 13.3135
77 1 2.01117 2.15817 15.7906
78 1 1.17804 0.737176 18.1638
79 1 16.177 3.5387 17.9998
80 1 15.5284 1.8371 20.415
81 1 14.9802 0.365179 22.8414
82 1 14.4952 3.15898 22.7296
83 1 13.7141 1.55099 25.0594
84 1 13.2975 0.0649532 27.4352
85 1 12.7774 2.77042 27.339
86 1 12.1957 1.36107 29.5748
87 1 15.5706 6.59745 31.9208
88 1 10.9832 2.59422 31.9724
89 1 10.509 1.02744 34.3027
90 1 13.7236 6.2301 36.6891
91 1 8.73441 1.05869 39.0678
92 1 8.29975 1.82436 6.26382
93 1 7.44416 4.60921 6.34418
94 1 7.00353 3.07084 8.78531
95 1 6.28097 1.67441 11.1155
96 1 5.90405 4.54821 11.0619
97 1 5.21023 2.99025 13.3408
98 1 4.67343 1.37428 15.7981
99 1 4.26802 4.10636 15.5534
100 1 3.65885 2.59088 18.1911
101 1 3.00108 0.971622 20.456
102 1 2.32609 3.77788 20.364
103 1 1.98246 2.24362 22.5848
104 1 1.25309 0.598327 25.0767
105 1 15.9735 3.33118 25.0612
106 1 15.4956 2.03012 27.4633
107 1 14.8958 0.487872 29.5792
108 1 14.2269 3.43158 29.7536
109 1 13.6675 1.89707 32.0303
110 1 13.2024 0.203407 34.298
111 1 12.7291 3.06912 34.3043
112 1 12.1805 1.43401 36.5166
113 1 14.978 6.38828 39.1374
114 1 11.3934 2.46246 39.0678
115 1 10.2042 3.78716 6.35446
116 1 9.68046 2.22814 8.92287
117 1 9.17194 5.12377 8.8211
118 1 8.48304 3.61143 11.0664
119 1 7.9759 1.91456 13.5093
120 1 7.5371 4.79057 13.2205
121 1 6.79534 3.34116 15.6987
122 1 6.2264 1.6484 18.1777
123 1 5.82319 4.3912 17.9813
124 1 5.25783 2.91171 20.5371
125 1 4.62562 1.31384 22.7523
126 1 4.04985 4.19085 22.9313
127 1 3.47686 2.55921 25.1
128 1 2.92068 1.05795 27.2935
129 1 2.5112 3.84907 27.485
130 1 1.7689 2.38543 29.768
131 1 1.2619 0.867784 31.9905
132 1 16.0965 3.67466 32.1582
133 1 15.5297 2.00818 34.2221
134 1 14.8516 0.574057 36.5355
135 1 14.3422 3.37205 36.4316
136 1 13.8942 1.91259 38.578
137 1 11.9367 4.1295 8.80856
138 1 10.7884 5.37611 11.0752
139 1 10.2056 3.85029 13.1994
140 1 9.52292 2.41426 15.7991
141 1 9.02621 5.23985 15.9389
142 1 8.33846 3.29319 18.1626
143 1 8.03824 1.63056 20.2607
144 1 7.3165 4.77067 20.4116
145 1 6.91678 3.2788 22.6605
146 1 6.32532 1.66815 24.98
147 1 5.68582 4.55982 25.0668
148 1 5.30247 2.87558 27.3469
149 1 4.59897 1.48067 29.6709
150 1 4.03299 4.3845 29.6992
151 1 3.59281 2.81036 32.039
152 1 2.87383 1.29367 34.414
153 1 17.7396 3.98388 34.3457
154 1 1.72632 2.43483 36.7361
155 1 0.927211 0.897771 38.8602
156 1 16.2162 3.62093 39.0361
157 1 15.3352 4.87428 6.1703
158 1 13.5229 4.60652 11.1514
159 1 11.7487 4.2765 15.6795
160 1 10.6538 5.50282 18.114
161 1 10.0031 3.64616 20.3616
162 1 9.60673 2.3082 22.6994
163 1 9.12266 5.10522 22.7332
164 1 8.296 3.61269 24.9941
165 1 7.87352 2.10313 27.3092
166 1 7.33404 4.93197 27.3253
167 1 6.8196 3.33997 29.6396
168 1 6.03482 1.83404 32.005
169 1 5.71766 4.81361 32.0577
170 1 5.14228 3.22207 34.3375
171 1 4.53751 1.23768 36.7478
172 1 3.8252 4.53652 36.8439
173 1 3.47111 2.68344 39.0305
174 1 16.749 5.13073 8.63373
175 1 15.152 4.94253 13.2757
176 1 13.5081 4.52011 18.0571
177 1 11.6834 4.15131 22.6923
178 1 10.7426 5.4781 24.9476
179 1 10.0624 3.75657 27.3975
180 1 9.39954 2.32619 29.6507
181 1 8.98096 5.18964 29.6389
182 1 8.2538 3.69392 31.9032
183 1 7.73254 2.03954 34.1524
184 1 7.3011 5.08872 34.2004
185 1 6.57567 3.63276 36.5834
186 1 6.20308 2.36307 39.0011
187 1 5.08789 4.94794 39.413
188 1 18.5244 5.45939 10.9544
189 1 16.8772 5.03286 15.6491
190 1 15.1073 4.70436 20.3973
191 1 13.2822 4.46852 24.9322
192 1 11.5926 4.23995 29.6662
193 1 10.5957 5.47689 31.9661
194 1 10.0391 3.9061 34.1672
195 1 9.32321 2.39102 36.421
196 1 8.7709 5.31281 36.301
197 1 8.73485 3.85882 38.4547
198 1 18.5245 5.4206 18.1105
199 1 16.5444 5.06381 22.8861
200 1 15.0085 4.84449 27.31
201 1 13.3229 4.6752 32.0239
202 1 11.6642 4.3943 36.6699
203 1 10.4498 6.25141 38.4406
204 1 18.3258 5.53961 25.1907
205 1 16.608 5.27085 29.7445
206 1 15.0928 5.00142 34.3753
207 1 12.7743 4.83436 39.2174
208 1 18.3103 5.71094 31.983
209 1 16.4677 5.34258 36.6494
210 1 17.9762 5.57711 39.1592
211 2 14.3098 1.36977 101.854
212 1 14.8367 1.04931 99.3866
213 1 3.43736 0.608978 102.906
214 1 2.22068 1.20734 98.6037
215 1 1.44738 1.76877 101.241
216 2 15.7271 0.532411 96.6283
217 1 14.8186 1.51458 94.2976
218 1 5.95712 2.03752 102.574
219 1 6.7292 1.33098 99.9975
220 1 1.74821 0.179185 94.4509
221 1 4.54289 2.60409 98.4846
222 2 4.11859 1.28907 100.736
223 1 4.11979 1.41417 93.4823
224 1 1.97811 2.898 94.9498
225 1 15.7158 0.874302 90.547
226 1 3.11471 1.89102 90.495
227 2 1.48199 1.77604 92.666
228 1 15.9073 1.05213 87.9077
229 1 8.07337 0.382931 95.3025
230 1 7.14492 1.37347 88.7639
231 1 4.92355 0.0958983 89.6868
232 1 11.8806 4.73262 102.936
233 1 3.50722 3.30867 102.203
234 1 8.25655 3.14071 101.771
235 1 5.99839 4.79452 102.994
236 2 7.91052 0.54345 102.075
237 2 5.65848 3.68009 100.712
238 1 7.11294 3.84022 98.6721
239 2 6.45102 1.69774 97.2602
240 1 4.76878 3.05017 95.8369
241 1 12.4635 1.77173 103.01
242 1 10.0193 1.62656 100.897
243 1 14.1547 6.15646 98.9027
244 2 11.3302 1.70586 98.6427
245 1 9.92899 3.9448 99.4363
246 1 8.85391 1.80654 97.7192
247 1 10.8825 0.779776 96.3006
248 1 7.77521 3.32955 95.4493
249 1 11.3411 3.35429 96.6817
250 2 9.14497 4.67919 96.979
251 1 8.20836 3.45119 92.7145
252 2 8.91039 2.0525 90.5756
253 1 10.1806 4.17604 90.6713
254 1 6.17547 2.05168 91.2356
255 1 8.37207 0.618419 92.6166
256 1 10.2105 4.415 94.4364
257 1 7.22145 4.13758 89.7844
258 1 9.42861 2.84368 88.3576
259 1 12.6568 2.65855 100.481
260 2 10.701 3.50617 101.887
261 1 12.2155 5.32328 100.439
262 2 13.1279 3.95006 98.3271
263 1 14.9002 3.90695 100.382
264 1 11.3814 5.94584 97.8477
265 1 13.6774 4.79457 96.2361
266 2 6.45201 1.79347 94.0412
267 2 5.09377 2.78487 88.9315
268 1 10.8835 5.38669 88.1893
269 1 17.6132 4.0643 99.7312
270 1 13.502 1.89849 96.9374
271 1 10.7437 2.05796 92.5693
272 1 11.5261 1.74109 89.8858
273 2 14.0332 1.96293 89.1279
274 1 12.0374 3.04433 87.5537
275 2 2.88817 4.02241 97.1802
276 1 15.6331 3.11744 97.6229
277 1 16.154 5.23182 95.6302
278 2 12.6087 2.862 94.565
279 1 13.5004 2.20707 91.8992
280 2 14.0698 6.30061 94.0671
281 1 12.2215 4.60039 92.5245
282 1 12.9377 4.17596 89.7769
283 1 15.2393 4.07759 93.2423
284 1 15.831 3.55669 90.7001
285 1 9.33057 0.0315591 88.9388
286 1 14.3361 6.08131 102.511
287 1 5.02122 0.324791 95.6984
288 2 16.6374 4.39708 102.385
289 1 16.3609 6.46611 100.703
290 1 4.74308 5.15918 98.7979
291 1 4.08503 5.90181 101.38
292 1 16.9382 5.97548 98.139
293 1 12.8441 -0.108331 93.2565
294 1 17.3963 6.04347 90.6041
295 1 14.7499 6.11231 91.393
296 2 15.6963 5.37057 88.6603
297 1 5.56099 4.07098 93.377
298 1 18.8055 5.37782 94.8999
299 1 2.87806 3.94381 92.4123
300 1 4.74151 4.83956 90.3082
301 2 3.96437 6.1252 92.7026
302 1 9.46762 5.87151 101.768
303 1 6.69686 5.62843 96.8017
304 1 6.89335 5.90269 100.486
305 1 4.80565 -0.0666121 98.4955
306 2 7.82906 5.52985 94.1639
307 1 6.6967 6.158 91.8877
308 1 2.56904 3.80023 88.673
309 2 6.35156 6.47451 89.0592
310 1 9.8813 6.23286 92.6304
311 2 11.3409 6.36714 90.5464
312 1 5.23344 4.83824 87.5458
313 1 3.58411 1.38138 87.4522
314 1 13.2884 0.880634 86.831
315 2 16.5968 6.6486 84.5766
316 1 14.2508 0.127801 82.5614
317 1 6.08809 2.42237 82.7631
318 1 1.85848 0.318018 83.3941
319 2 0.701716 0.708588 80.9965
320 1 18.8456 5.94154 76.6996
321 1 5.41798 6.73429 74.8384
322 1 5.45864 6.33397 78.6301
323 1 18.0004 6.62368 73.9946
324 1 3.9356 1.73114 84.6212
325 2 4.64249 0.30309 82.7417
326 1 6.58582 0.263911 84.6433
327 1 3.01409 2.29788 81.7886
328 1 5.15335 1.17031 80.4575
329 1 2.22529 1.28434 72.5552
330 1 9.3172 0.2498 83.7894
331 2 13.604 6.43114 81.1178
332 1 11.2528 6.40885 82.0677
333 1 7.6654 1.02549 79.6554
334 2 5.84352 2.41892 78.1367
335 1 3.53463 0.488489 76.781
336 1 4.2876 0.166144 74.1998
337 1 10.433 6.44686 77.3604
338 1 11.2848 6.04681 74.922
339 1 6.25066 2.30931 86.479
340 1 16.4934 2.70006 79.4599
341 2 8.46484 0.918938 86.4597
342 2 9.96438 4.18787 86.0365
343 1 8.23209 2.76405 84.4741
344 1 11.7681 1.65627 82.6175
345 1 11.0551 1.94239 85.218
346 1 10.6515 4.07415 83.3503
347 1 8.9857 2.22215 81.8233
348 1 8.19546 2.29487 77.2386
349 1 8.78614 1.79375 74.7551
350 1 6.07832 1.85454 75.4619
351 2 6.90706 1.37998 72.7558
352 1 14.573 3.55763 86.9282
353 1 13.322 4.31956 82.7077
354 1 12.5807 4.62689 85.3296
355 2 11.4737 3.66023 80.7038
356 1 10.1207 3.99076 78.4136
357 1 16.9666 4.96062 86.3399
358 1 17.9255 4.19963 83.8274
359 1 16.2772 6.67601 77.61
360 1 10.2743 1.11143 79.1934
361 1 12.3973 2.69517 78.5538
362 1 13.5301 6.35202 76.674
363 1 11.391 0.423399 74.6512
364 2 10.8218 1.85893 76.7799
365 1 1.42465 2.19605 85.5456
366 1 15.543 5.72069 82.4573
367 2 15.2216 4.42441 84.6059
368 1 13.8625 2.40385 80.7412
369 1 14.025 2.21094 84.5555
370 1 15.7474 2.85547 82.6048
371 2 14.5891 1.36261 78.3141
372 1 13.3916 2.10273 75.9853
373 1 14.7364 4.02373 77.4475
374 1 12.5884 5.38862 78.9838
375 1 13.2355 6.59782 72.8589
376 1 11.1014 3.42929 74.6899
377 2 13.0724 2.3551 73.3903
378 1 13.7451 4.63708 74.6124
379 2 12.0279 4.38117 76.764
380 1 11.3154 3.30759 71.9902
381 1 4.06 3.55568 79.4748
382 1 1.16806 1.91473 76.7946
383 1 2.50082 3.89554 72.9725
384 1 15.5559 2.56107 74.035
385 2 2.70776 2.22647 74.811
386 1 12.1987 0.644349 71.7804
387 1 14.5586 6.28816 86.4982
388 1 3.93235 6.27868 85.3416
389 2 3.75159 3.55311 86.1943
390 2 17.4011 4.4512 81.234
391 1 15.3307 5.19642 79.8624
392 1 8.22929 5.31601 87.4303
393 1 5.75022 4.3189 84.6821
394 2 7.45455 4.4899 82.7846
395 1 4.58369 4.84048 81.8426
396 1 6.80059 3.58884 80.4662
397 1 18.0895 6.15334 79.7666
398 1 6.91964 6.31224 80.8868
399 2 4.22537 4.56804 74.6544
400 1 16.9256 4.54657 75.4095
401 1 3.83336 3.24353 76.8893
402 1 4.83386 5.42327 72.3806
403 1 8.31835 5.47668 84.6907
404 2 6.42342 6.5209 85.9534
405 2 17.2801 4.39413 78.0363
406 2 15.7497 5.28843 73.1
407 1 9.20861 4.89519 80.9538
408 1 6.18029 4.51255 76.5209
409 1 6.9101 4.13693 73.8756
410 2 9.43823 4.69681 73.2928
411 1 7.49091 5.78949 71.722
412 2 7.84503 5.2085 78.6104
413 1 8.78128 4.67836 75.9588
414 1 4.77345 2.53656 72.9759
415 2 1.54371 0.438588 70.2874
416 1 5.95426 6.50746 67.6577
417 1 10.1069 5.81098 71.1279
418 1 8.61388 6.71284 66.7644
419 1 3.9459 0.26995 69.3456
420 2 6.77176 5.88376 65.0019
421 1 1.95609 0.253078 62.5568
422 1 8.2307 0.784484 70.5841
423 1 13.2855 6.76716 68.1127
424 1 8.23894 5.48165 62.8161
425 1 7.04396 1.52993 66.9292
426 2 6.59859 0.037455 68.8311
427 1 6.54986 0.289417 61.7292
428 1 4.46641 1.46547 63.3887
429 1 6.96262 6.29841 58.9044
430 1 5.58564 0.890255 58.9267
431 2 3.98305 0.626699 60.9762
432 1 6.82114 6.16628 56.1715
433 1 14.5211 5.75009 63.6942
434 1 9.63032 0.256427 57.1391
435 1 11.2357 5.6383 58.17
436 1 14.0705 4.02753 71.84
437 1 5.8881 1.97498 70.5707
438 1 10.5375 2.12673 69.7413
439 1 8.33731 3.43289 71.128
440 2 14.3538 6.08587 70.4829
441 2 8.01902 2.4788 68.8682
442 1 9.78762 2.52562 66.9285
443 2 8.86451 0.352594 65.6447
444 1 7.30178 1.68415 64.2167
445 1 14.9509 1.35727 71.6364
446 1 16.3147 6.79903 68.8717
447 1 16.7242 4.63494 67.175
448 2 13.8751 0.18727 66.8956
449 1 12.7104 2.55812 67.5936
450 1 11.3349 0.474999 66.2505
451 1 17.2751 5.9375 64.7071
452 1 10.2911 1.85115 63.8661
453 1 13.5858 1.95589 65.1412
454 2 11.6601 3.40093 65.1667
455 1 10.7777 2.30476 61.1608
456 2 11.2464 0.777994 59.0148
457 1 12.6145 2.87308 58.9832
458 1 8.74367 0.842129 59.8368
459 1 14.7459 6.18801 61.0781
460 1 12.9138 3.21946 62.9462
461 1 9.87136 2.97424 58.3896
462 1 11.7307 1.72871 56.6456
463 1 14.959 1.27944 68.8829
464 2 13.0824 2.28368 70.2052
465 1 14.5713 4.06031 68.9181
466 2 15.3958 2.63607 66.9195
467 1 1.93616 2.45781 68.7121
468 1 13.9024 4.70658 66.0734
469 1 15.8647 3.36394 64.7271
470 2 8.95202 0.575272 62.4031
471 2 7.50916 1.55688 57.4781
472 1 13.3809 4.18354 56.6774
473 1 4.65368 2.6879 68.1942
474 1 0.604699 0.459656 65.37
475 1 13.1277 0.80323 61.0901
476 1 13.7765 0.421309 58.4358
477 2 0.87237 0.396206 57.5057
478 1 14.3176 1.74522 55.99
479 2 5.3062 2.68548 65.4324
480 1 2.64709 2.17919 66.1171
481 1 3.18468 3.73027 63.9833
482 2 14.8236 1.34616 62.8911
483 1 0.601316 0.953236 60.2563
484 2 16.3436 4.70579 62.4664
485 1 14.5901 3.46431 60.8701
486 1 15.4394 2.82557 58.3811
487 1 2.48173 2.75161 61.5843
488 1 3.04863 2.38417 59.0189
489 1 15.815 5.53221 57.2386
490 1 16.647 4.51745 70.7209
491 1 11.6765 5.67298 63.9899
492 2 3.66055 3.03746 70.8167
493 1 3.51468 5.19867 69.0158
494 1 7.07717 4.14659 66.9716
495 1 6.38367 4.58913 69.5717
496 1 4.04173 4.72012 66.3241
497 1 3.73379 5.38325 61.7963
498 1 4.55868 4.88697 59.1055
499 1 16.9748 4.7444 59.8296
500 2 2.76343 4.30325 57.2296
501 1 8.14791 2.82658 61.6983
502 1 5.90923 4.07477 63.2258
503 1 5.32559 2.7061 60.8764
504 1 7.22032 3.45465 58.9834
505 2 6.52576 4.85566 60.8764
506 1 12.1489 4.70459 69.5594
507 1 9.12054 4.46388 64.9926
508 1 9.35058 4.46957 68.6302
509 1 11.2338 5.2495 66.7258
510 2 10.316 4.17211 62.6481
511 1 9.19622 5.00117 60.1641
512 1 5.1653 3.02092 57.2644
513 2 8.80856 5.19477 57.6301
514 1 12.2126 4.98569 61.0526
515 2 13.7315 5.06858 58.9441
516 1 7.90791 3.5286 56.0783
517 1 5.54693 0.148467 55.953
518 1 4.06853 5.93621 55.3954
519 2 3.56679 5.08849 53.0896
520 1 5.22028 5.27771 51.0003
521 1 8.24433 0.932177 51.1276
522 1 8.15899 5.41386 51.8274
523 2 7.14098 5.96919 49.3727
524 1 6.03639 4.70074 45.1915
525 1 8.17651 5.52219 43.33
526 1 8.0168 5.44842 46.8932
527 1 5.45941 5.51497 42.3687
528 1 6.30656 0.199928 53.0949
529 2 10.9994 5.3469 50.9794
530 1 12.8903 5.43421 53.012
531 1 5.33862 0.686149 50.1893
532 1 11.6359 6.20544 48.6636
533 1 5.04436 0.0216631 40.9692
534 1 15.616 5.46408 52.4427
535 2 16.2648 5.63829 49.7049
536 1 13.7453 5.01652 50.3308
537 1 14.1763 6.47501 48.0787
538 2 8.24505 1.04282 46.4877
539 1 10.2604 5.97917 45.2523
540 1 10.9919 5.50195 42.6911
541 1 13.0941 5.25468 45.909
542 1 13.9358 4.70549 43.4225
543 1 8.32646 0.781376 54.9868
544 1 3.34085 1.43883 48.0708
545 2 14.7167 6.06081 55.098
546 2 12.4173 3.17199 54.5131
547 1 10.4239 1.19094 53.1813
548 1 13.9864 0.136842 51.1923
549 1 13.3105 0.648286 53.8403
550 1 12.815 2.69688 51.8446
551 1 11.1266 0.926021 50.4806
552 1 10.7045 1.18832 45.7524
553 1 11.3709 0.715772 43.2746
554 1 8.79391 0.548151 43.8962
555 2 13.4649 6.72963 41.2806
556 1 1.55477 1.9376 55.3761
557 1 15.5233 2.58948 50.8291
558 1 14.827 3.09834 53.6011
559 2 13.5457 1.90479 49.1805
560 1 12.5852 2.72196 46.8108
561 1 3.81578 3.34698 54.9836
562 1 4.81561 2.88794 52.3752
563 1 3.53439 5.35739 45.8949
564 1 12.6446 0.0833912 47.3284
565 1 14.9938 1.3852 47.0181
566 1 15.9215 5.24091 45.1377
567 1 17.8589 5.82484 43.1014
568 2 13.3598 0.851329 45.1618
569 1 3.64988 0.868931 53.8005
570 1 2.56704 4.10458 51.029
571 2 2.11104 2.72199 53.0179
572 1 0.66824 0.512474 49.1692
573 1 0.898093 0.604149 52.9637
574 1 2.90564 1.24189 50.9392
575 2 1.76802 0.172885 46.7773
576 1 0.715409 0.833707 44.1827
577 1 1.95631 2.80922 46.0926
578 1 15.2034 4.01816 47.8291
579 1 15.7567 5.28734 41.2918
580 1 13.659 2.081 43.1621
581 2 15.5235 0.794995 41.5839
582 1 16.4272 3.40942 43.2565
583 2 14.7486 3.1136 45.3881
584 1 14.4345 3.07562 40.8713
585 1 6.22122 1.69925 47.733
586 1 3.89965 1.05248 45.3027
587 1 4.93412 2.82633 41.3146
588 1 2.83461 1.27273 42.2333
589 2 5.38034 1.04677 43.267
590 1 12.9839 0.874745 40.7353
591 1 16.8623 4.72615 54.9119
592 1 6.10948 4.78533 53.9842
593 2 6.069 2.22943 54.743
594 2 4.48872 3.06098 49.5727
595 1 2.76329 4.53293 48.2438
596 1 10.6822 4.09763 55.8006
597 1 7.94577 2.86788 53.1617
598 2 9.56107 3.02417 51.13
599 1 6.90626 3.27553 50.0703
600 1 8.91386 2.16022 48.7172
601 1 5.55206 4.64503 48.1016
602 1 9.25217 4.81091 49.1318
603 2 6.76179 3.29941 43.1269
604 1 3.88151 3.47935 43.7439
605 1 6.48989 2.03861 45.1522
606 1 7.57472 4.2064 40.9329
607 1 10.643 4.04965 53.1627
608 2 8.59859 5.0478 54.3313
609 2 4.36395 3.12044 46.477
610 2 2.62606 3.84834 41.222
611 1 11.5415 3.3963 49.3478
612 1 8.67995 3.42449 45.1052
613 1 9.47823 3.01504 42.4605
614 2 12.0299 3.19917 41.6118
615 1 10.2345 4.41039 40.3815
616 2 10.4847 4.19888 47.0718
617 1 11.4318 3.48203 44.3863
618 1 7.51212 1.38308 41.6815
ITEM: TIMESTEP
3400
ITEM: NUMBER OF ATOMS
618
ITEM: BOX BOUNDS xy xz yz pp pp ff
0.0000000000000000e+00 1.9317770367296919e+01 4.0025167278329121e+00
0.0000000000000000e+00 6.6702723500479264e+00 0.0000000000000000e+00
0.0000000000000000e+00 1.0921147561319708e+02 0.0000000000000000e+00
ITEM: ATOMS id type x y z
1 1 4.87054 5.69352 6.31774
2 1 6.52764 6.11202 8.69034
3 1 4.76922 5.60433 13.4902
4 1 9.7199 6.677 6.10879
5 1 8.1121 6.22445 11.0223
6 1 6.2275 6.04494 15.7824
7 1 4.71214 5.65709 20.3049
8 1 12.5321 5.70299 6.21335
9 1 7.31983 0.52716 8.59414
10 1 5.64452 0.09696 13.2738
11 1 8.15584 6.33958 17.9956
12 1 6.30529 6.04477 22.6998
13 1 4.69915 5.82175 27.4244
14 1 10.7012 0.957587 6.16616
15 1 14.1716 6.08765 8.67882
16 1 9.026 0.743838 10.9823
17 1 12.3967 5.76673 13.254
18 1 7.30062 0.301783 15.6045
19 1 5.69444 0.138743 20.3762
20 1 7.89951 6.39939 25.0652
21 1 6.18341 6.12327 29.6844
22 1 4.4649 6.01222 34.377
23 1 13.2566 -0.0180295 6.27699
24 1 12.8986 2.84486 5.95151
25 1 12.3066 1.24914 8.9356
26 1 15.5463 6.39549 11.1297
27 1 11.138 2.73255 11.0727
28 1 10.5459 0.9137 13.273
29 1 13.9356 6.12155 15.7324
30 1 8.93328 0.796187 18.0185
31 1 12.3296 6.02889 20.3953
32 1 7.24902 0.335891 22.8261
33 1 5.51953 0.218054 27.3978
34 1 7.89596 6.52285 32.003
35 1 6.0954 6.30324 36.6811
36 1 15.8524 1.91286 6.33815
37 1 15.1568 0.389091 8.66747
38 1 14.4941 3.17707 8.70032
39 1 14.004 1.57878 10.9282
40 1 13.4139 -0.00770205 13.336
41 1 12.8513 2.85026 13.2801
42 1 12.3587 1.28456 15.5988
43 1 15.5915 6.49324 18.1476
44 1 11.1479 2.34798 18.0246
45 1 10.4454 1.00924 20.4055
46 1 14.1052 6.16188 22.7097
47 1 9.00075 0.697182 24.9518
48 1 12.3394 5.88129 27.3626
49 1 7.24214 0.427415 29.6562
50 1 5.5753 0.256421 34.2599
51 1 3.33017 0.0053313 38.946
52 1 3.13745 0.91224 6.32345
53 1 2.50843 3.77361 6.26012
54 1 2.07033 2.22106 8.73121
55 1 1.33659 0.609041 11.0962
56 1 16.3265 3.41134 10.9928
57 1 15.6624 1.92341 13.1455
58 1 15.0184 0.453974 15.6705
59 1 14.4996 3.13758 15.5306
60 1 13.9656 1.60076 18.0424
61 1 13.3356 0.0455051 20.4132
62 1 12.8169 2.92054 20.277
63 1 12.2438 1.28705 22.6421
64 1 15.6534 6.60423 24.9998
65 1 11.3105 2.70378 24.922
66 1 10.4905 1.17206 27.3385
67 1 14.0321 6.01538 29.495
68 1 8.84179 0.784932 31.9104
69 1 12.2958 5.99501 34.2553
70 1 7.24445 0.653309 36.4979
71 1 5.2946 2.90342 6.13957
72 1 4.75681 1.44049 8.80023
73 1 4.27689 4.25207 8.86288
74 1 3.69627 2.50129 11.1069
75 1 2.9915 1.01123 13.3626
76 1 2.43823 3.7812 13.4462
77 1 1.80235 2.35394 15.6274
78 1 1.29117 0.505348 18.0644
79 1 16.0297 3.46523 18.2243
80 1 15.4512 1.91114 20.3828
81 1 14.9082 0.291502 22.7941
82 1 14.4033 3.22038 22.7568
83 1 14.0089 1.63785 25.0975
84 1 13.2507 0.101959 27.2744
85 1 12.7083 2.89531 27.3567
86 1 12.0545 1.35447 29.6962
87 1 15.5221 6.47228 31.9166
88 1 11.1621 2.72083 31.879
89 1 10.3728 1.24004 34.164
90 1 13.9277 6.23918 36.6421
91 1 8.77506 0.909045 39.024
92 1 7.78382 1.90096 5.93535
93 1 7.64241 5.00003 5.97513
94 1 6.84063 3.36995 8.7011
95 1 6.28164 1.73244 10.9523
96 1 5.86973 4.41042 11.1939
97 1 5.2826 2.93071 13.4762
98 1 4.51189 1.35358 15.6253
99 1 4.05287 4.18844 15.8541
100 1 3.25595 2.41805 17.9407
101 1 2.81722 0.90995 20.3268
102 1 2.50286 3.77212 20.514
103 1 1.73299 2.19938 22.7817
104 1 1.24974 0.588147 25.0865
105 1 16.1928 3.74394 24.9869
106 1 15.3589 1.92121 27.2864
107 1 14.7676 0.454555 29.6284
108 1 14.4583 3.10667 29.5629
109 1 13.842 1.74869 31.9746
110 1 13.0174 0.246843 34.2501
111 1 12.6813 2.93268 34.1874
112 1 12.0537 1.60132 36.5228
113 1 15.2741 6.58226 39.139
114 1 11.1176 2.48342 39.2424
115 1 10.2411 3.74369 6.02452
116 1 9.51478 2.46276 8.40385
117 1 9.11138 5.26597 8.70981
118 1 8.54062 3.65508 10.9685
119 1 7.97075 2.01755 13.2671
120 1 7.35517 4.82875 13.5059
121 1 6.86256 3.113 15.8304
122 1 6.26718 1.65437 17.9345
123 1 5.67531 4.40433 18.1204
124 1 5.04568 2.78863 20.1537
125 1 4.42019 1.28041 22.6872
126 1 4.18588 4.0276 22.6688
127 1 3.55192 2.62074 25.0782
128 1 2.83818 0.987749 27.3523
129 1 2.32372 4.02675 27.2389
130 1 1.83662 2.33125 29.5285
131 1 1.20094 0.806064 32.003
132 1 16.041 3.74213 31.823
133 1 15.4486 2.29526 34.1924
134 1 14.6505 0.805646 36.4063
135 1 14.1643 3.58626 36.4452
136 1 13.6109 1.96976 38.6737
137 1 11.6305 4.25667 8.55483
138 1 10.7789 5.64742 10.9802
139 1 10.1264 3.89314 13.3576
140 1 9.66031 2.10857 15.5962
141 1 9.09214 5.07708 15.5744
142 1 8.50689 3.67845 17.9452
143 1 7.84131 2.03481 20.3733
144 1 7.53209 4.74534 20.238
145 1 6.75906 3.19804 22.8361
146 1 6.15943 1.61267 25.1431
147 1 5.86063 4.46205 25.023
148 1 4.99884 3.15165 27.3583
149 1 4.45688 1.43736 29.7619
150 1 3.91769 4.26098 29.5737
151 1 3.38364 2.69997 31.9549
152 1 2.82152 1.19101 34.284
153 1 17.5511 4.12702 34.3293
154 1 1.77979 2.56726 36.6568
155 1 0.829889 1.11079 39.1329
156 1 16.0458 3.87659 39.0886
157 1 15.1807 4.56947 6.33377
158 1 13.3186 4.51065 10.9893
159 1 11.9867 4.0399 15.6488
160 1 10.8402 5.38213 17.9061
161 1 10.1001 3.9305 20.4215
162 1 9.49118 2.19089 22.6397
163 1 8.96654 5.04091 22.4994
164 1 8.5401 3.50517 24.9641
165 1 7.7201 1.9773 27.3798
166 1 7.31659 4.80717 27.3933
167 1 6.76497 3.21805 29.5754
168 1 6.18896 1.73142 31.8533
169 1 5.58042 4.66218 31.9859
170 1 4.8866 2.98641 34.1219
171 1 4.34968 1.44325 36.6035
172 1 4.02281 4.46283 36.7661
173 1 3.27465 2.87035 39.1189
174 1 16.9274 4.95286 8.85333
175 1 14.9573 4.75697 13.369
176 1 13.4139 4.47034 17.9961
177 1 11.8347 4.22552 22.6582
178 1 10.6288 5.46122 25.1363
179 1 10.0773 4.08578 27.373
180 1 9.48939 2.43002 29.6533
181 1 9.04774 5.13006 29.651
182 1 8.33947 3.68417 31.8671
183 1 7.69651 2.16106 34.1757
184 1 7.02339 5.00123 34.2108
185 1 6.76615 3.5137 36.4232
186 1 6.28296 2.03887 38.9505
187 1 5.12058 4.95132 39.2137
188 1 18.3843 5.45372 11.1332
189 1 16.5643 5.2127 15.8043
190 1 15.0956 4.7343 20.4259
191 1 13.5297 4.52904 25.1102
192 1 11.7017 4.24178 29.6634
193 1 10.6134 5.70924 31.8564
194 1 10.0138 4.08758 34.0215
195 1 9.46614 2.39938 36.4617
196 1 8.79258 5.35536 36.1551
197 1 8.43669 3.81366 38.4859
198 1 18.2619 5.42137 18.1244
199 1 16.7842 5.13035 22.6271
200 1 15.1538 4.98067 27.324
201 1 13.262 4.55368 31.8168
202 1 11.5392 4.46956 36.572
203 1 10.1075 6.01194 38.3159
204 1 18.3909 5.4172 24.9364
205 1 16.6856 5.36492 29.5844
206 1 14.7926 5.05852 34.2938
207 1 13.0219 4.85555 39.1447
208 1 18.2036 5.49709 31.9243
209 1 16.5721 5.31888 36.528
210 1 17.9167 5.81513 39.135
211 2 14.3642 1.50466 101.992
212 1 14.9486 1.30656 99.2861
213 1 3.43046 0.495482 103.155
214 1 2.35568 1.16345 98.7207
215 1 1.49194 1.61616 101.432
216 2 15.7947 0.614241 96.6005
217 1 14.6831 1.31152 94.2062
218 1 5.9535 1.71858 102.763
219 1 6.81691 1.30556 99.9901
220 1 1.84057 0.184534 94.4138
221 1 4.65039 2.64011 98.6206
222 2 4.25653 1.38455 100.83
223 1 4.05634 1.56402 93.4676
224 1 1.90287 2.87734 94.9897
225 1 15.8191 0.771942 90.3979
226 1 3.08615 2.07083 90.6447
227 2 1.41284 1.94417 92.6022
228 1 16.1172 1.22226 87.7853
229 1 8.29324 0.255969 95.4738
230 1 7.14482 1.37421 88.7849
231 1 4.93289 0.0423869 89.799
232 1 11.9346 4.71826 103.384
233 1 3.55184 3.28368 102.426
234 1 8.10604 3.17153 101.798
235 1 5.95934 4.55627 103.261
236 2 7.95357 0.524191 102.251
237 2 5.67286 3.63141 100.786
238 1 7.15974 3.95775 98.6052
239 2 6.47012 1.49023 97.3665
240 1 4.90056 2.94135 95.9369
241 1 12.2089 1.95646 103.004
242 1 10.0017 1.40177 101.028
243 1 14.121 6.13358 98.6499
244 2 11.5283 1.48187 98.6708
245 1 10.1423 3.7466 99.6484
246 1 8.94008 2.03674 97.7938
247 1 10.8007 0.501458 96.2607
248 1 7.73334 2.9688 95.5048
249 1 11.2873 3.31212 96.691
250 2 9.11583 4.33907 97.0206
251 1 8.15219 3.33793 92.72
252 2 8.74615 1.90195 90.7101
253 1 10.1264 4.13608 90.7368
254 1 6.02236 1.84688 91.4321
255 1 8.50448 0.5971 92.7386
256 1 10.2541 4.16456 94.5812
257 1 7.23392 3.99129 89.8259
258 1 9.55944 2.79783 88.3995
259 1 12.6083 2.57028 100.548
260 2 10.5969 3.41375 102.218
261 1 12.4009 5.29236 100.543
262 2 13.2731 3.64072 98.3756
263 1 14.9465 3.94537 100.219
264 1 11.2798 5.83763 97.9396
265 1 13.6937 4.44481 96.068
266 2 6.50265 1.51713 94.0425
267 2 5.09178 2.67799 89.014
268 1 10.7757 5.38421 88.3543
269 1 17.7357 4.14829 99.7165
270 1 13.6114 1.83525 96.716
271 1 10.8442 2.0365 92.4612
272 1 11.4402 1.60697 89.8685
273 2 14.2836 2.26299 89.0782
274 1 12.096 3.1789 87.6728
275 2 3.11328 4.15685 97.1189
276 1 15.9168 3.41672 97.6314
277 1 16.277 5.19256 95.5017
278 2 12.5276 2.71896 94.4542
279 1 13.5616 2.24166 91.7013
280 2 14.3706 6.40528 94.089
281 1 12.1538 4.6128 92.6297
282 1 12.8969 4.25094 89.9464
283 1 15.1107 3.86616 93.3339
284 1 15.8686 3.46806 90.7402
285 1 9.4206 -0.0609178 88.8371
286 1 14.4655 5.80289 102.487
287 1 5.27665 -0.0939405 95.6991
288 2 16.7232 4.56463 102.096
289 1 16.4159 6.43672 100.479
290 1 4.90114 5.42277 98.9056
291 1 3.94113 5.83552 101.416
292 1 17.1474 6.0943 98.044
293 1 12.8691 -0.25251 93.1719
294 1 17.3963 6.08681 90.5591
295 1 14.6389 5.94151 91.5289
296 2 15.6338 5.42293 88.7603
297 1 5.63892 3.96528 93.49
298 1 18.9181 5.3445 94.8591
299 1 2.79812 4.0998 92.7005
300 1 4.72232 4.64181 90.5386
301 2 4.1818 6.18599 92.4452
302 1 9.74512 5.65116 101.843
303 1 6.67236 5.65652 96.5305
304 1 7.02026 5.75636 100.947
305 1 4.76513 -0.175135 98.5548
306 2 7.83571 5.18215 94.3459
307 1 6.69854 6.17039 91.9631
308 1 2.60527 4.03584 88.703
309 2 6.45014 6.48226 89.3555
310 1 9.63289 6.13822 92.7824
311 2 11.3972 6.3131 90.7231
312 1 5.18492 4.95777 87.7477
313 1 3.57911 1.37123 87.6901
314 1 13.2839 0.996102 86.9301
315 2 16.7764 6.6459 84.5994
316 1 14.287 0.0225827 82.5255
317 1 5.83971 2.26174 82.7576
318 1 2.15229 0.0423967 83.4479
319 2 0.776071 0.580701 81.1207
320 1 18.8341 6.08645 76.6627
321 1 5.45675 6.79275 74.7394
322 1 5.64256 6.56384 78.5241
323 1 17.9364 6.70393 73.8483
324 1 4.15994 1.45301 84.8472
325 2 4.66615 -0.0162175 82.668
326 1 6.71417 0.27747 84.6342
327 1 3.15176 2.10667 81.8292
328 1 5.08233 1.01861 80.2779
329 1 2.3681 1.3938 72.488
330 1 9.41101 0.404792 83.9399
331 2 13.6408 6.38873 81.1952
332 1 11.3689 6.60861 82.1319
333 1 7.75349 1.10665 79.6498
334 2 5.80059 2.44221 78.1653
335 1 3.70392 0.369007 76.7151
336 1 4.41048 0.11524 74.2334
337 1 10.4693 6.4995 77.5877
338 1 11.2086 6.14939 74.9785
339 1 6.27175 2.4498 86.603
340 1 16.6152 2.51332 79.7406
341 2 8.52698 0.978186 86.5975
342 2 10.0238 4.14554 86.1063
343 1 8.2019 2.65256 84.5078
344 1 11.7432 1.66387 82.7102
345 1 11.3512 2.20553 85.2533
346 1 10.6049 4.28583 83.4646
347 1 9.02052 2.38585 81.8903
348 1 8.11437 2.47462 77.2606
349 1 8.7392 2.08849 74.6963
350 1 6.12177 1.78069 75.5059
351 2 7.01439 1.04639 72.916
352 1 14.7212 3.50328 86.7471
353 1 13.3009 4.2096 82.9083
354 1 12.616 4.88972 85.4969
355 2 11.4205 3.47218 80.7471
356 1 10.1336 3.9036 78.4447
357 1 17.0447 4.96173 86.4402
358 1 17.9392 4.30781 83.8473
359 1 16.1528 6.57267 77.5035
360 1 10.1798 0.996756 78.9046
361 1 12.3283 2.53962 78.5381
362 1 13.4096 6.57585 76.5547
363 1 11.3004 0.627875 74.6373
364 2 10.705 2.08447 76.6058
365 1 1.59715 2.19194 85.3035
366 1 15.4996 5.64704 82.5908
367 2 15.277 4.23467 84.6043
368 1 13.9213 2.45981 80.6101
369 1 14.0963 2.09109 84.3555
370 1 15.9223 2.76027 82.6063
371 2 14.731 1.52297 78.3736
372 1 13.5177 2.02251 75.9579
373 1 14.7308 4.05745 77.5866
374 1 12.6203 5.23627 79.0353
375 1 13.3456 6.71233 72.9619
376 1 11.1534 3.42876 74.6324
377 2 12.9783 2.28234 73.3617
378 1 13.7685 4.56823 74.6424
379 2 12.1498 4.48641 76.649
380 1 11.1261 3.37167 71.9376
381 1 3.98822 3.55949 79.5335
382 1 1.31502 2.08263 76.8582
383 1 2.60761 4.05598 72.9871
384 1 15.6505 2.63152 73.9915
385 2 2.7834 2.28482 74.8963
386 1 12.0198 0.533256 71.7289
387 1 14.7668 6.27907 86.2417
388 1 4.00462 6.36519 85.5616
389 2 3.7109 3.61002 86.2639
390 2 17.4498 4.36687 81.2542
391 1 15.3405 5.19527 80.057
392 1 8.10394 5.12093 87.4679
393 1 5.63662 4.3556 84.754
394 2 7.35707 4.32762 82.5967
395 1 4.5749 4.79043 81.7472
396 1 6.74214 3.46748 80.3926
397 1 18.1488 6.27468 79.6772
398 1 6.96528 6.07313 80.8507
399 2 4.2469 4.67672 74.6911
400 1 16.8488 4.67282 75.5058
401 1 3.81069 3.19808 76.8709
402 1 4.77353 5.57601 72.2996
403 1 8.30453 5.36873 84.6858
404 2 6.43723 6.56427 86.0274
405 2 17.2959 4.37324 78.1192
406 2 15.6955 5.19575 73.2181
407 1 9.41325 4.92959 80.8134
408 1 6.15711 4.49663 76.6915
409 1 6.88674 4.30861 74.0189
410 2 9.46734 4.67004 73.3438
411 1 7.42574 5.8158 71.8372
412 2 7.95677 5.28524 78.6343
413 1 8.87373 4.71771 76.0329
414 1 4.84464 2.56526 73.0861
415 2 1.63803 0.481601 70.2466
416 1 5.83725 6.53212 67.6106
417 1 10.036 5.94312 71.137
418 1 8.57658 6.60946 66.8752
419 1 3.90575 0.45979 69.4121
420 2 6.84858 6.0591 64.9718
421 1 1.95799 0.314881 62.6701
422 1 8.18503 0.668687 70.7385
423 1 13.1267 6.74871 68.073
424 1 8.1664 5.56053 62.7073
425 1 6.88563 1.47863 66.7006
426 2 6.44651 0.168358 68.7849
427 1 6.38459 0.344068 61.9015
428 1 4.48856 1.54251 63.3543
429 1 6.87917 6.46294 58.892
430 1 5.57725 0.818435 58.952
431 2 3.87963 0.757821 60.9759
432 1 6.73113 5.89546 56.1816
433 1 14.4914 5.66807 63.7726
434 1 9.5431 0.282324 57.1983
435 1 11.242 5.52984 58.2912
436 1 13.9351 4.02074 71.8771
437 1 5.88605 2.06603 70.6827
438 1 10.5229 2.05338 69.6425
439 1 8.31616 3.36001 71.2412
440 2 14.2665 6.00079 70.4678
441 2 7.91231 2.40088 68.8605
442 1 9.50242 2.53309 66.9426
443 2 8.95034 0.482902 65.4582
444 1 7.31493 1.95486 64.1513
445 1 15.0277 1.55383 71.5809
446 1 16.3945 6.68736 69.0812
447 1 16.5431 4.6412 66.8436
448 2 13.9384 0.199363 67.0129
449 1 12.5517 2.39002 67.6363
450 1 11.3065 0.470132 66.231
451 1 17.2985 6.04299 64.6472
452 1 10.1582 2.00919 63.8796
453 1 13.5111 1.91249 65.0658
454 2 11.4958 3.50187 65.2771
455 1 10.5819 2.0647 61.1158
456 2 11.2906 0.766598 59.0934
457 1 12.4212 3.14372 59.1717
458 1 8.55422 0.773083 59.6846
459 1 15.0733 6.05491 61.2474
460 1 12.6018 3.03303 62.8115
461 1 9.6105 2.85703 58.0475
462 1 11.8706 1.8326 56.6038
463 1 14.9692 1.18841 68.918
464 2 12.9565 2.36301 70.3301
465 1 14.6002 3.90274 68.906
466 2 15.3655 2.42372 66.81
467 1 1.98775 2.57949 68.528
468 1 13.7558 4.62542 66.1206
469 1 15.9319 3.32597 64.5896
470 2 8.94811 0.459189 62.4259
471 2 7.3558 1.49057 57.38
472 1 13.3462 4.19232 56.8283
473 1 4.74137 2.81837 68.079
474 1 0.563157 0.605269 65.0965
475 1 13.2168 0.933247 61.0768
476 1 13.8357 0.604916 58.2875
477 2 1.04993 0.585477 57.5424
478 1 14.3894 1.78591 55.9075
479 2 5.31819 3.01022 65.4113
480 1 2.81048 2.03611 66.0734
481 1 3.25568 3.80911 64.0111
482 2 14.9637 1.46684 62.7882
483 1 0.613298 0.901201 60.2333
484 2 16.6161 4.7433 62.438
485 1 14.7997 3.40821 60.8939
486 1 15.5457 3.00868 58.2877
487 1 2.41346 2.66905 61.6573
488 1 3.15387 2.40627 58.9452
489 1 15.8821 5.56648 57.1874
490 1 16.5537 4.43271 70.7819
491 1 11.6658 5.71668 63.9656
492 2 3.70094 3.1816 70.7628
493 1 3.43691 5.02058 68.9281
494 1 6.91552 4.16134 66.9985
495 1 6.43172 4.63832 69.6881
496 1 4.10529 4.87695 66.2839
497 1 3.70855 5.48137 61.7559
498 1 4.56407 4.9277 59.1015
499 1 17.1852 4.79939 59.6315
500 2 2.90163 4.2924 57.0394
501 1 8.05505 2.81797 61.6781
502 1 5.83817 4.2656 63.1951
503 1 5.24585 2.8399 60.8609
504 1 7.13329 3.58636 58.8772
505 2 6.4552 4.99441 60.9431
506 1 12.1621 4.73408 69.5583
507 1 8.9632 4.47278 64.9936
508 1 9.12984 4.54008 68.8273
509 1 11.134 5.27753 66.8376
510 2 10.2738 4.28055 62.565
511 1 9.11075 5.01766 60.1802
512 1 5.23188 3.2714 57.0665
513 2 8.73863 5.29178 57.6332
514 1 12.2478 5.00399 61.1428
515 2 13.8927 5.17366 59.1698
516 1 8.06896 3.44806 55.8394
517 1 5.42868 0.459108 56.1581
518 1 3.91168 5.9879 55.274
519 2 3.57572 5.12847 53.0196
520 1 5.18653 5.23486 50.9904
521 1 8.34397 0.765374 51.2261
522 1 8.42209 5.19422 51.968
523 2 7.14067 5.9718 49.558
524 1 6.27213 5.0127 45.0854
525 1 8.29635 5.56621 42.9264
526 1 8.26688 5.79939 47.0975
527 1 5.32481 5.54404 42.2096
528 1 6.25629 0.0962702 53.1611
529 2 10.9347 5.4047 51.1345
530 1 12.9504 5.24758 52.8515
531 1 5.32392 0.653221 50.3418
532 1 11.605 6.1328 48.7564
533 1 5.20185 0.206818 40.7856
534 1 15.5385 5.58146 52.2653
535 2 16.1519 5.33619 49.7219
536 1 13.616 4.97548 50.2124
537 1 14.3072 6.55959 48.0769
538 2 8.21534 1.16711 46.669
539 1 10.1714 5.97061 45.1589
540 1 11.0007 5.50934 42.6578
541 1 13.0575 5.44243 46.0986
542 1 13.9124 4.93828 43.533
543 1 8.17169 0.553941 54.8479
544 1 3.22199 1.50641 48.1346
545 2 14.5621 5.85954 54.9274
546 2 12.5285 3.25853 54.5729
547 1 10.439 1.27638 53.1246
548 1 13.9923 0.163527 51.183
549 1 13.2104 0.662841 53.7804
550 1 12.7978 2.6919 51.8547
551 1 11.0896 0.961621 50.4486
552 1 10.7088 1.32644 45.8416
553 1 11.4284 0.589118 43.4068
554 1 8.76891 0.614079 43.9962
555 2 13.6738 6.5482 41.3445
556 1 1.61998 1.83192 55.3021
557 1 15.4606 2.78699 51.0739
558 1 14.8866 3.18442 53.6813
559 2 13.6815 1.74518 49.2677
560 1 12.7184 2.59464 46.8519
561 1 3.8807 3.47005 54.8203
562 1 4.8804 2.73429 52.2714
563 1 3.59123 5.32086 45.9575
564 1 12.8483 -0.133836 47.5041
565 1 15.0145 1.4192 46.9562
566 1 15.9063 5.20098 45.403
567 1 18.0331 5.7881 43.3133
568 2 13.3699 0.694861 45.219
569 1 3.68218 0.792775 53.8579
570 1 2.59942 4.12233 50.981
571 2 2.07412 2.77869 52.9896
572 1 0.76377 0.328982 49.1444
573 1 0.834486 0.626454 52.8734
574 1 2.74409 1.18511 51.0454
575 2 1.75822 0.128404 46.7217
576 1 0.596409 0.867426 44.2046
577 1 1.94763 2.77582 45.9446
578 1 15.1513 4.05182 47.7891
579 1 15.8132 5.36729 41.423
580 1 13.5223 2.21566 43.2951
581 2 15.412 0.944184 41.7563
582 1 16.3502 3.57151 43.2952
583 2 14.6349 3.1886 45.3896
584 1 14.3232 3.06638 40.9222
585 1 6.33771 1.85743 48.0467
586 1 3.72521 0.865343 44.963
587 1 5.02433 2.92965 41.1439
588 1 2.78397 1.31805 41.873
589 2 5.27958 1.06345 43.0063
590 1 13.0034 0.985109 40.9615
591 1 16.8337 4.71612 54.7322
592 1 6.24231 4.75527 53.8447
593 2 6.02828 2.23165 54.5739
594 2 4.48484 3.04204 49.6996
595 1 2.74943 4.20408 48.2905
596 1 10.9018 4.56903 55.7725
597 1 8.01905 2.80292 53.0787
598 2 9.62771 2.99647 51.1241
599 1 6.95079 3.27136 50.2799
600 1 9.01305 2.17015 48.8898
601 1 5.71981 4.54232 48.0071
602 1 9.29588 4.76576 49.3394
603 2 6.7031 3.52768 43.1228
604 1 3.86048 3.31576 43.6731
605 1 6.22015 2.08008 45.1214
606 1 7.44633 4.33844 40.7388
607 1 10.6123 3.95504 53.2321
608 2 8.76675 5.21804 54.5221
609 2 4.4186 3.0943 46.2744
610 2 2.37842 3.82113 41.2666
611 1 11.6219 3.34038 49.3308
612 1 8.65649 3.47262 45.1716
613 1 9.45846 3.04347 42.5646
614 2 11.8251 3.05135 41.7292
615 1 10.2246 4.39721 40.3811
616 2 10.3374 3.85608 47.1508
617 1 11.4753 3.57909 44.3611
618 1 7.47034 1.45659 41.5861
ITEM: TIMESTEP
3500
ITEM: NUMBER OF ATOMS
618
ITEM: BOX BOUNDS xy xz yz pp pp ff
0.0000000000000000e+00 1.9317770367296919e+01 4.0025167278329121e+00
0.0000000000000000e+00 6.6702723500479264e+00 0.0000000000000000e+00
0.0000000000000000e+00 1.0921147561319708e+02 0.0000000000000000e+00
ITEM: ATOMS id type x y z
1 1 4.74572 5.96391 6.21363
2 1 6.45719 6.0484 8.62597
3 1 4.70126 5.65775 13.3428
4 1 9.81746 6.80426 6.12774
5 1 8.07737 6.46983 10.9848
6 1 6.41953 6.00726 15.5523
7 1 4.62038 5.85249 20.2407
8 1 12.3484 5.61793 5.90262
9 1 7.41906 0.322265 8.63444
10 1 5.68693 -0.125163 13.302
11 1 7.84471 6.32542 18.1339
12 1 6.29762 6.02549 22.6842
13 1 4.5875 5.85608 27.1692
14 1 10.5877 1.06277 5.98921
15 1 13.9852 6.15336 8.62352
16 1 8.94045 0.49185 11.0615
17 1 12.4 5.645 13.3119
18 1 7.39924 0.365276 15.7225
19 1 5.53191 -0.0738213 20.2565
20 1 7.96159 6.37109 24.9514
21 1 6.21361 6.13038 29.5129
22 1 4.53207 5.90276 34.2921
23 1 13.3402 0.0415924 6.25242
24 1 12.8671 2.93147 6.20433
25 1 12.133 1.29596 8.45638
26 1 15.7234 6.47666 10.9746
27 1 11.2623 2.46869 10.9014
28 1 10.6106 0.987403 13.3531
29 1 14.0829 5.96866 15.5661
30 1 9.01022 0.652609 18.0203
31 1 12.3178 5.81701 20.2675
32 1 7.3985 0.38428 22.4719
33 1 5.67433 -0.0259105 27.2317
34 1 7.75443 6.52499 31.8532
35 1 6.1102 6.1671 36.6068
36 1 15.4401 1.95816 6.26015
37 1 14.7532 0.374994 8.87844
38 1 14.5451 3.24052 8.66798
39 1 13.8548 1.51122 11.1466
40 1 13.1213 -0.0801082 13.3419
41 1 12.8135 2.94005 13.3984
42 1 12.082 1.23699 15.8019
43 1 15.6408 6.40455 17.8841
44 1 11.2439 2.74627 17.8665
45 1 10.6121 1.05646 20.2234
46 1 13.8451 6.26644 22.6004
47 1 8.87476 0.796705 24.9102
48 1 12.3051 5.89062 27.2364
49 1 7.18814 0.510663 29.5257
50 1 5.2845 0.253999 34.1847
51 1 3.49487 -0.114626 38.7771
52 1 2.82178 1.06907 6.26199
53 1 2.35437 3.96221 6.40242
54 1 1.80742 2.33505 8.76318
55 1 1.1859 0.761835 11.0142
56 1 15.9956 3.45517 11.0108
57 1 15.416 1.89613 13.606
58 1 14.8389 0.15925 15.77
59 1 14.3346 3.20546 15.8259
60 1 13.7336 1.67541 18.0218
61 1 13.2009 0.0478715 20.227
62 1 12.8286 2.88294 20.408
63 1 12.1783 1.48123 22.6356
64 1 15.6472 6.4503 24.8493
65 1 11.0229 2.6145 25.0052
66 1 10.7339 0.959485 27.1562
67 1 13.903 6.31828 29.5934
68 1 8.79847 0.856088 31.8737
69 1 12.1591 6.12007 34.1512
70 1 7.03031 0.593838 36.4306
71 1 5.16926 3.1015 6.29063
72 1 4.69895 1.14361 8.55759
73 1 4.08722 4.11164 8.73736
74 1 3.46736 2.55572 11.051
75 1 2.83472 0.880569 13.399
76 1 2.45247 3.69303 13.3493
77 1 1.86716 1.9974 15.7307
78 1 1.20315 0.747531 18.0195
79 1 16.1557 3.43306 17.8722
80 1 15.6123 2.05011 20.1632
81 1 14.8707 0.441884 22.4737
82 1 14.5767 3.43496 22.4116
83 1 13.7966 1.78644 24.8449
84 1 13.3446 0.191566 27.2552
85 1 12.9472 3.10576 27.1597
86 1 12.3122 1.46237 29.4733
87 1 15.6889 6.60594 31.8464
88 1 11.1286 2.84486 31.802
89 1 10.6242 1.07493 34.2796
90 1 13.7124 6.42302 36.4949
91 1 8.60997 1.02015 38.9925
92 1 8.15815 2.09606 6.22651
93 1 7.47101 4.83976 6.25117
94 1 7.00151 3.12147 8.64768
95 1 6.28826 1.59926 10.9763
96 1 5.80019 4.39193 10.9205
97 1 5.04269 2.79753 13.2344
98 1 4.65699 1.28443 15.7234
99 1 4.21387 4.01967 15.6141
100 1 3.83858 2.74582 18.1002
101 1 3.01057 1.06489 20.2623
102 1 2.35412 3.99415 20.1422
103 1 1.98181 2.33048 22.4912
104 1 1.25721 0.844674 24.7922
105 1 16.059 3.62309 24.9685
106 1 15.5415 2.12019 27.2618
107 1 14.8296 0.338542 29.4495
108 1 14.3958 3.50111 29.5758
109 1 13.6073 1.79004 31.8146
110 1 13.1904 0.24376 34.2567
111 1 12.7821 3.29719 34.2135
112 1 12.1224 1.48373 36.6288
113 1 15.0872 6.69283 39.2302
114 1 11.2922 2.66265 39.0398
115 1 10.3152 3.86604 5.87866
116 1 9.67461 2.33254 8.59994
117 1 9.25172 5.08755 8.65821
118 1 8.45107 3.51803 10.981
119 1 7.91429 1.82062 13.3475
120 1 7.4944 4.78912 13.2019
121 1 6.75464 3.2087 15.5589
122 1 6.23551 1.62924 17.9863
123 1 5.86447 4.58712 17.9254
124 1 5.14571 3.03809 20.4406
125 1 4.70442 1.29552 22.5867
126 1 3.92427 4.29768 22.567
127 1 3.49561 2.5937 24.8539
128 1 2.87147 0.983627 27.2282
129 1 2.5694 3.93003 27.2779
130 1 1.77637 2.35281 29.6864
131 1 1.0449 0.732592 31.9145
132 1 15.8675 3.57955 31.9861
133 1 15.1857 2.05662 34.3265
134 1 14.756 0.538971 36.6805
135 1 14.3386 3.45501 36.4697
136 1 13.7921 1.92632 38.653
137 1 11.8431 4.20506 8.56864
138 1 10.6645 5.24373 10.896
139 1 10.2146 3.72701 13.2858
140 1 9.44721 2.2555 15.7321
141 1 9.06042 5.09604 15.7253
142 1 8.41823 3.48686 18.0425
143 1 7.98742 1.8853 20.3052
144 1 7.35318 4.76827 20.3403
145 1 6.78677 3.26639 22.5786
146 1 6.14871 1.77386 24.8514
147 1 5.55672 4.44037 24.9477
148 1 5.20431 2.80126 27.1391
149 1 4.45163 1.40966 29.5503
150 1 4.03911 4.14567 29.5705
151 1 3.25616 2.60542 31.9616
152 1 2.70131 1.13355 34.2875
153 1 17.5794 3.85628 34.1578
154 1 1.63098 2.55963 36.6383
155 1 1.08804 1.09953 39.4216
156 1 16.0119 3.96159 39.1607
157 1 15.0424 4.86008 6.15118
158 1 13.5145 4.48389 11.0267
159 1 11.7043 4.23479 15.6176
160 1 10.5721 5.52561 18.0406
161 1 9.96949 3.89216 20.3655
162 1 9.48545 2.39408 22.6233
163 1 9.01788 5.18633 22.7295
164 1 8.27494 3.63357 24.9967
165 1 7.77236 1.98838 27.3532
166 1 7.26536 4.94014 27.2084
167 1 6.64573 3.36889 29.606
168 1 5.9986 1.70734 31.8904
169 1 5.53884 4.48057 31.9294
170 1 4.96652 3.1999 34.296
171 1 4.20573 1.56028 36.6779
172 1 3.80716 4.42758 36.6823
173 1 3.23362 2.97961 38.9673
174 1 16.5135 5.20828 8.56215
175 1 15.0432 4.68274 13.3904
176 1 13.361 4.51735 17.9291
177 1 11.6421 4.23288 22.6611
178 1 10.721 5.5552 25.0222
179 1 10.0982 3.92003 27.2921
180 1 9.43453 2.4442 29.466
181 1 8.98008 5.22162 29.6023
182 1 8.40677 3.69084 31.8692
183 1 7.66519 2.07193 34.0852
184 1 7.27376 5.01778 34.2632
185 1 6.53158 3.43249 36.6111
186 1 6.10139 2.20762 38.835
187 1 5.24388 5.04762 39.2379
188 1 18.3438 5.41833 10.9873
189 1 16.7433 4.97463 15.5605
190 1 15.0392 4.9764 20.2409
191 1 13.3961 4.67054 24.8422
192 1 11.5837 4.33969 29.5488
193 1 10.5966 5.56112 31.7766
194 1 9.99524 4.00393 34.2279
195 1 9.33228 2.61683 36.3159
196 1 8.72775 5.46425 36.66
197 1 8.66902 3.63282 38.5119
198 1 18.4268 5.41638 17.9883
199 1 16.7143 5.26168 22.6014
200 1 14.9953 4.90939 27.2502
201 1 13.2964 4.63336 31.9145
202 1 11.7109 4.46909 36.4907
203 1 10.5791 5.8605 38.6965
204 1 18.258 5.55036 24.8857
205 1 16.6119 5.10531 29.5361
206 1 15.1365 4.94555 34.2501
207 1 13.0769 4.77562 39.036
208 1 18.1766 5.5668 31.8461
209 1 16.4366 5.43437 36.5246
210 1 17.8922 5.69014 38.9786
211 2 14.3334 1.48062 102.085
212 1 14.8587 1.03688 99.3596
213 1 3.33742 0.425315 103.079
214 1 2.28728 1.04574 98.6844
215 1 1.46068 1.57952 101.508
216 2 16.0202 0.605141 96.7336
217 1 14.995 1.3525 94.5139
218 1 5.82641 1.78518 102.562
219 1 6.85141 1.06466 100.059
220 1 1.90891 0.10075 94.6218
221 1 4.62749 2.45308 98.6773
222 2 4.14182 1.16483 100.764
223 1 4.17106 1.57731 93.2623
224 1 2.31146 2.83259 94.9531
225 1 15.7468 0.778509 90.5841
226 1 3.06699 1.86749 90.5293
227 2 1.59457 1.9102 92.5317
228 1 16.0308 1.14827 87.9782
229 1 8.24219 0.247508 95.4488
230 1 7.25812 1.41459 88.8062
231 1 4.91071 0.10216 89.77
232 1 12.1087 4.7091 103.264
233 1 3.67652 3.2895 102.247
234 1 8.12837 2.97134 101.743
235 1 6.20526 4.59933 102.936
236 2 8.01671 0.353052 102.299
237 2 5.64465 3.56951 100.692
238 1 7.33834 3.56694 98.662
239 2 6.56549 1.41848 97.2857
240 1 4.99864 2.79526 95.8807
241 1 12.2786 1.95503 103.022
242 1 10.0483 1.31872 100.831
243 1 14.4666 5.99782 98.7405
244 2 11.5847 1.51592 98.7187
245 1 10.0442 3.92177 99.5432
246 1 9.00498 1.53561 97.9817
247 1 11.0818 0.618848 96.4002
248 1 7.71943 3.09373 95.8131
249 1 11.3073 3.28144 96.9256
250 2 9.15973 4.55935 97.0698
251 1 8.31801 3.29698 92.9273
252 2 9.01442 1.87185 90.6893
253 1 10.0975 4.14663 90.8402
254 1 6.27145 1.94079 91.4529
255 1 8.47661 0.506858 92.7287
256 1 10.2198 4.06258 94.6851
257 1 7.37635 4.1228 89.8391
258 1 9.49925 2.78675 88.371
259 1 12.6361 2.48766 100.477
260 2 10.6646 3.33437 102.157
261 1 12.345 5.19871 100.457
262 2 13.2647 3.81354 98.3833
263 1 15.0536 3.8605 100.376
264 1 11.4818 5.88823 97.9006
265 1 13.7548 4.57688 96.0421
266 2 6.56243 1.62597 94.1119
267 2 5.06069 2.69706 89.1333
268 1 10.9016 5.41861 88.3008
269 1 17.7408 3.94016 99.7106
270 1 13.5696 1.90455 96.8279
271 1 10.8312 1.90613 92.5518
272 1 11.5237 1.63169 89.8834
273 2 14.1285 2.16584 89.3077
274 1 11.9952 3.02221 87.6547
275 2 3.11655 3.95473 97.1496
276 1 15.782 3.23355 97.7591
277 1 16.3806 5.09471 95.615
278 2 12.4814 2.33797 94.6591
279 1 13.6355 2.19877 91.9135
280 2 14.3812 6.27425 94.1488
281 1 12.3224 4.4144 92.6275
282 1 12.8732 4.14436 90.0777
283 1 15.5006 3.86905 93.4338
284 1 15.9544 3.60503 90.8182
285 1 9.39734 0.0465726 89.0066
286 1 14.7246 5.82024 102.532
287 1 5.1927 0.0382519 95.7524
288 2 16.892 4.49685 102.355
289 1 16.4332 6.37984 100.573
290 1 4.76894 5.11419 98.8792
291 1 4.16261 5.90545 101.412
292 1 17.1582 5.87937 98.0624
293 1 12.9276 -0.102246 93.4154
294 1 17.511 5.97899 90.6295
295 1 14.7372 6.01382 91.3919
296 2 15.7405 5.34623 88.7532
297 1 5.72243 3.99176 93.4063
298 1 18.9726 5.21794 94.9977
299 1 2.91843 4.0431 92.5338
300 1 4.71976 4.70707 90.5927
301 2 4.10865 6.17852 92.7581
302 1 9.59447 5.61894 102.039
303 1 6.66222 5.44596 96.7332
304 1 6.94543 5.63397 100.466
305 1 4.9078 -0.228633 98.6646
306 2 7.81398 5.27389 94.3731
307 1 6.88566 6.07624 91.9037
308 1 2.55032 3.77611 88.7903
309 2 6.36807 6.48444 89.2374
310 1 9.68595 6.07468 92.8384
311 2 11.3679 6.2565 90.7163
312 1 5.06919 4.92451 87.8223
313 1 3.76293 1.2207 87.603
314 1 13.3563 0.826747 87.188
315 2 16.7393 6.57012 84.7111
316 1 14.3706 0.071593 82.7109
317 1 6.16217 2.18099 82.8316
318 1 2.02469 0.143078 83.5399
319 2 0.85445 0.884031 81.0566
320 1 18.8526 6.13953 76.7422
321 1 5.52102 6.81971 74.8919
322 1 5.53618 6.50488 78.7459
323 1 18.0645 6.75729 73.942
324 1 4.03955 1.60902 84.7109
325 2 4.64709 0.213504 82.8417
326 1 6.65803 0.255979 84.663
327 1 3.2317 2.27657 81.817
328 1 5.15788 1.01259 80.2973
329 1 2.18773 1.38013 72.5516
330 1 9.37008 0.229083 83.9595
331 2 13.651 6.30988 81.1774
332 1 11.2231 6.31325 82.0466
333 1 7.75246 1.00815 79.7564
334 2 5.91556 2.52021 78.1803
335 1 3.76151 0.58861 76.8847
336 1 4.49216 0.311849 74.2405
337 1 10.6625 6.57547 77.3909
338 1 11.2132 6.25068 74.8697
339 1 6.29828 2.42805 86.6555
340 1 16.8167 2.66031 79.6482
341 2 8.45668 0.781862 86.6541
342 2 9.9109 4.01133 86.1425
343 1 8.25665 2.65416 84.535
344 1 11.8959 1.70809 82.7636
345 1 11.1801 2.00742 85.3089
346 1 10.5077 4.03237 83.4363
347 1 8.92792 2.13414 81.9592
348 1 8.34772 2.4406 77.321
349 1 8.9186 1.9433 74.6208
350 1 6.19667 2.06655 75.5453
351 2 6.88561 1.20292 72.8859
352 1 14.5605 3.55917 87.012
353 1 13.329 4.22318 82.8424
354 1 12.4261 4.72011 85.445
355 2 11.4177 3.35441 80.829
356 1 10.2311 3.97664 78.5125
357 1 16.9396 4.88312 86.5023
358 1 17.7909 4.28204 83.9782
359 1 16.2479 6.58966 77.4845
360 1 10.3619 1.17118 79.1015
361 1 12.5244 2.61879 78.618
362 1 13.515 6.53625 76.6748
363 1 11.3247 0.482958 74.6357
364 2 10.7931 1.92794 76.74
365 1 1.58717 2.18548 85.6445
366 1 15.5554 5.7417 82.4719
367 2 15.2057 4.38509 84.7485
368 1 13.9418 2.46299 80.8302
369 1 13.9485 2.09358 84.6435
370 1 15.9392 2.82328 82.6815
371 2 14.8697 1.58613 78.5086
372 1 13.3943 1.97323 75.992
373 1 14.8974 4.00965 77.5145
374 1 12.6777 5.35441 79.086
375 1 13.3125 6.52818 72.9768
376 1 11.1723 3.42882 74.7943
377 2 13.0787 2.27857 73.495
378 1 13.8586 4.54243 74.7089
379 2 12.2723 4.32814 76.7764
380 1 11.268 3.43173 72.0981
381 1 4.33689 3.81835 79.556
382 1 1.37104 2.12023 76.818
383 1 2.60092 4.05122 72.9034
384 1 15.5736 2.66236 73.9078
385 2 2.98478 2.22401 74.7778
386 1 11.9977 0.624991 71.8207
387 1 14.6663 6.20873 86.4538
388 1 3.99832 6.16012 85.5286
389 2 3.81041 3.53745 86.394
390 2 17.5685 4.45791 81.3273
391 1 15.4608 5.27193 79.8706
392 1 8.07059 5.05481 87.514
393 1 5.77069 4.23741 84.9011
394 2 7.27325 4.48528 82.7847
395 1 4.77434 4.869 81.8954
396 1 6.84999 3.46012 80.464
397 1 18.1262 6.40808 79.7032
398 1 6.9752 6.18858 81.0552
399 2 4.29007 4.68144 74.7488
400 1 16.9156 4.52394 75.4221
401 1 4.00958 3.34024 76.813
402 1 4.77046 5.59879 72.3443
403 1 8.38736 5.43891 84.8383
404 2 6.35202 6.4909 86.0879
405 2 17.4717 4.51111 78.12
406 2 15.7573 5.24296 73.162
407 1 9.28145 4.83365 80.9878
408 1 6.34258 4.75181 76.7235
409 1 6.89455 4.33302 73.9795
410 2 9.49786 4.78147 73.3718
411 1 7.43258 5.86753 71.7895
412 2 8.03062 5.26894 78.6128
413 1 8.96595 4.87688 75.9694
414 1 4.71824 2.72199 72.925
415 2 1.42492 0.392855 70.3071
416 1 5.84042 6.60395 67.6264
417 1 9.97987 5.86265 71.0445
418 1 8.6699 6.74237 66.9099
419 1 3.91284 0.35642 69.4506
420 2 6.8068 6.14296 64.9937
421 1 1.86523 0.418521 62.6767
422 1 8.2154 0.561822 70.62
423 1 13.207 6.68529 68.1028
424 1 8.10267 5.69963 62.7641
425 1 6.88433 1.56203 66.7967
426 2 6.60251 -0.00746812 68.6889
427 1 6.48063 0.413542 61.6901
428 1 4.50096 1.51136 63.2961
429 1 6.88732 6.38369 58.8603
430 1 5.43448 0.846403 58.851
431 2 3.9229 0.675279 60.8858
432 1 6.75098 5.83909 56.2501
433 1 14.4129 5.8204 63.5692
434 1 9.69732 0.419211 57.1378
435 1 11.225 5.6482 58.1099
436 1 14.062 3.91554 71.7351
437 1 5.90717 1.96316 70.5012
438 1 10.4456 2.08631 69.7863
439 1 8.48003 3.19646 71.4795
440 2 14.3141 6.03612 70.5038
441 2 7.92645 2.4827 69.0242
442 1 9.57805 2.40822 66.886
443 2 8.76566 0.352129 65.5448
444 1 7.23626 1.83213 64.2079
445 1 14.7973 1.33963 71.5665
446 1 16.2579 6.76596 68.9217
447 1 16.6167 4.75659 67.0928
448 2 13.7383 0.231101 66.9649
449 1 12.4778 2.48104 67.6536
450 1 11.2652 0.552155 65.982
451 1 17.2235 6.01554 64.5569
452 1 10.1517 1.95916 63.7859
453 1 13.5956 1.95386 64.948
454 2 11.5674 3.22455 65.304
455 1 10.7738 2.42668 60.9412
456 2 11.2802 1.05107 58.9287
457 1 12.5539 3.20581 59.0168
458 1 8.51045 0.879479 59.8564
459 1 14.9004 6.23683 60.9628
460 1 12.8897 3.25157 62.945
461 1 9.68718 3.02793 58.1811
462 1 11.8961 1.85266 56.5406
463 1 14.902 1.30355 68.8994
464 2 12.9616 2.28251 70.133
465 1 14.5607 4.12597 68.8482
466 2 15.2069 2.6385 66.8928
467 1 1.83717 2.61421 68.7103
468 1 13.7221 4.65318 65.9641
469 1 15.9478 3.61989 64.6381
470 2 8.84186 0.631973 62.3203
471 2 7.46658 1.3817 57.408
472 1 13.2807 4.40248 56.7645
473 1 4.56694 2.90183 68.0865
474 1 0.500036 0.59889 65.1449
475 1 13.2058 1.11418 60.871
476 1 13.9122 0.605492 58.274
477 2 0.918883 0.508641 57.5443
478 1 14.4362 1.90477 55.9418
479 2 5.32107 2.80668 65.56
480 1 2.59328 2.24875 66.1514
481 1 3.28805 3.83285 63.7971
482 2 14.9684 1.61105 62.847
483 1 0.612685 1.12639 60.1557
484 2 16.4926 4.88391 62.3422
485 1 14.7598 3.52201 60.8167
486 1 15.5782 3.11299 58.1717
487 1 2.30946 2.76728 61.4718
488 1 3.05972 2.45236 58.941
489 1 15.9304 5.61948 57.2993
490 1 16.4499 4.51394 70.7126
491 1 11.5236 5.64469 63.9503
492 2 3.4324 3.02771 70.7213
493 1 3.33997 5.17274 68.9515
494 1 7.14265 4.26075 67
495 1 6.21229 4.53439 69.7684
496 1 4.09159 4.87583 66.3746
497 1 3.80348 5.66346 61.6931
498 1 4.55846 5.00931 59.1449
499 1 17.1649 4.89209 59.7729
500 2 2.77434 4.46411 57.1668
501 1 8.16119 3.03872 61.9267
502 1 5.88657 4.16243 63.2205
503 1 5.10209 2.95217 60.9057
504 1 7.06053 3.50235 58.9529
505 2 6.47512 5.13109 60.959
506 1 12.0572 4.6507 69.6473
507 1 9.0166 4.38813 64.8821
508 1 9.31105 4.57523 68.7814
509 1 11.0829 5.26684 66.7288
510 2 10.2264 4.35498 62.5408
511 1 9.154 5.14026 60.1625
512 1 5.18109 3.19582 57.0872
513 2 8.68658 5.13943 57.6274
514 1 12.275 5.03258 60.9929
515 2 14.0141 5.20985 58.9427
516 1 7.95386 3.25795 55.9528
517 1 5.49296 0.202323 55.9953
518 1 4.04682 6.12138 55.2688
519 2 3.53774 5.17823 53.0694
520 1 5.27315 5.27143 50.9968
521 1 8.2189 0.687085 51.1413
522 1 8.32109 5.43721 51.8131
523 2 7.18402 6.0326 49.327
524 1 6.10274 4.70808 45.1612
525 1 8.00433 5.65235 43.0919
526 1 8.02419 5.32837 46.9348
527 1 5.23029 5.44495 42.3132
528 1 6.27948 0.142748 53.0267
529 2 10.9363 5.26837 50.9614
530 1 12.8888 5.32754 52.9647
531 1 5.43954 0.777846 50.2364
532 1 11.4636 6.09642 48.5627
533 1 5.12655 0.176559 40.8668
534 1 15.6788 5.36968 52.3537
535 2 16.2941 5.53651 49.6166
536 1 13.7125 4.82917 50.464
537 1 14.0925 6.41424 48.2828
538 2 8.33239 1.05507 46.5779
539 1 10.1918 5.84769 45.1865
540 1 10.9288 5.53057 42.6523
541 1 13.108 5.28191 45.9834
542 1 13.7404 4.88885 43.3734
543 1 8.03885 0.265421 55.0455
544 1 3.39517 1.42185 48.0401
545 2 14.5857 5.80375 54.984
546 2 12.5209 3.10554 54.4792
547 1 10.436 1.15237 53.3178
548 1 13.9747 0.254869 51.2179
549 1 13.2609 0.623404 53.8861
550 1 12.9052 2.63803 51.847
551 1 11.0192 0.738878 50.6838
552 1 10.6397 1.2035 45.942
553 1 11.2751 0.636702 43.3042
554 1 8.5941 0.679046 44.0072
555 2 13.4226 6.69404 41.2485
556 1 1.74551 1.91545 55.4069
557 1 15.6223 2.71105 50.9584
558 1 15.0327 3.03549 53.6676
559 2 13.7022 1.96915 49.2173
560 1 12.6628 2.79515 47.0181
561 1 3.95532 3.50504 54.8151
562 1 4.74293 2.77311 52.2474
563 1 3.45031 5.3667 45.9349
564 1 12.681 0.00393748 47.3958
565 1 15.1241 1.3515 47.0367
566 1 15.8017 5.26465 45.2557
567 1 17.8484 6.03769 43.2991
568 2 13.1234 0.789975 45.2619
569 1 3.71478 0.656842 53.8859
570 1 2.68911 4.22792 50.9297
571 2 2.27595 2.81097 52.9036
572 1 0.664616 0.431626 49.1859
573 1 0.952225 0.606803 52.8567
574 1 2.81424 1.33467 50.7507
575 2 1.85055 0.119755 46.7264
576 1 0.516248 0.867489 44.3653
577 1 2.00295 2.91813 46.0555
578 1 15.3986 4.03591 47.7228
579 1 15.6251 5.41411 41.4739
580 1 13.5824 2.13485 43.2067
581 2 15.4083 0.817997 41.6405
582 1 16.3966 3.46959 43.311
583 2 14.6372 3.0967 45.3569
584 1 14.3669 3.19728 40.9835
585 1 6.31625 1.98145 47.8883
586 1 3.71454 0.940036 45.2042
587 1 4.85167 2.93036 41.2717
588 1 2.87809 1.32079 42.0879
589 2 5.36191 1.01769 43.1823
590 1 12.8332 1.04496 40.9261
591 1 16.9233 4.75257 54.8334
592 1 6.16396 4.82269 53.844
593 2 5.96872 2.14483 54.7497
594 2 4.52252 3.05214 49.6627
595 1 2.761 4.38522 48.3904
596 1 10.7195 4.24191 55.7527
597 1 7.93644 2.85356 53.256
598 2 9.42342 2.91355 51.296
599 1 6.99128 3.36006 50.262
600 1 8.97276 2.03389 48.8101
601 1 5.5791 4.6345 48.0698
602 1 9.23548 4.73875 49.2857
603 2 6.68122 3.42881 43.188
604 1 3.74324 3.42384 43.6231
605 1 6.36869 2.00624 45.2081
606 1 7.36244 4.30288 40.8549
607 1 10.5763 3.92562 53.1378
608 2 8.64799 5.10233 54.3211
609 2 4.42693 3.07112 46.5391
610 2 2.55724 4.03742 41.1334
611 1 11.4874 3.2488 49.486
612 1 8.68846 3.45324 45.0448
613 1 9.45051 3.00829 42.6482
614 2 11.8551 3.29219 41.6262
615 1 10.022 4.42694 40.5914
616 2 10.3635 3.83439 47.1031
617 1 11.4172 3.40819 44.4295
618 1 7.35862 1.53665 41.4176
ITEM: TIMESTEP
3600
ITEM: NUMBER OF ATOMS
618
ITEM: BOX BOUNDS xy xz yz pp pp ff
0.0000000000000000e+00 1.9317770367296919e+01 4.0025167278329121e+00
0.0000000000000000e+00 6.6702723500479264e+00 0.0000000000000000e+00
0.0000000000000000e+00 1.0921147561319708e+02 0.0000000000000000e+00
ITEM: ATOMS id type x y z
1 1 4.60463 5.62006 6.18342
2 1 6.15576 6.04466 8.68006
3 1 4.72981 5.64512 13.2848
4 1 9.49033 6.6313 6.30278
5 1 7.94643 6.20586 11.0126
6 1 6.29292 6.01085 15.6108
7 1 4.67192 5.86474 20.1831
8 1 12.3173 6.01986 6.34372
9 1 7.08003 0.315258 8.59511
10 1 5.54384 0.0327545 13.2595
11 1 8.18568 6.49402 17.8199
12 1 6.25963 6.39972 22.4071
13 1 4.68457 5.80813 27.2696
14 1 10.7294 1.16011 6.29246
15 1 14.1179 5.93087 8.6004
16 1 8.95799 0.707836 10.8944
17 1 12.2717 5.68066 13.4897
18 1 7.10202 0.289026 15.5945
19 1 5.67482 0.13344 20.2336
20 1 7.94866 6.61606 24.7932
21 1 6.26346 6.14121 29.4593
22 1 4.47668 5.79283 34.1849
23 1 13.314 0.075151 6.09578
24 1 12.7224 3.04833 6.03343
25 1 12.2668 1.22422 8.80814
26 1 15.5887 6.17917 11.0341
27 1 11.2043 2.46061 11.1558
28 1 10.4673 0.843314 13.3226
29 1 13.8831 5.96112 15.6943
30 1 8.78799 0.647946 17.8814
31 1 12.312 5.86848 20.3314
32 1 7.14614 0.531473 22.5692
33 1 5.54077 0.207672 27.1141
34 1 7.98336 6.56567 31.8697
35 1 6.20637 6.31375 36.6281
36 1 15.6237 2.11893 6.02771
37 1 14.9022 0.353455 8.48191
38 1 14.4378 3.17423 8.65795
39 1 13.9189 1.54992 10.8422
40 1 13.3521 -0.0356212 13.202
41 1 12.7316 2.81534 13.3182
42 1 12.2436 1.23911 15.6656
43 1 15.641 6.56147 17.8791
44 1 11.1565 2.4253 17.9373
45 1 10.5217 0.901486 20.2943
46 1 13.961 6.10194 22.492
47 1 8.98897 0.572147 24.8067
48 1 12.2178 5.77871 27.1164
49 1 7.15484 0.31046 29.474
50 1 5.55761 0.274463 34.0889
51 1 3.5602 -0.0700701 38.8967
52 1 2.92633 0.957193 6.12956
53 1 2.55051 3.91233 5.89147
54 1 1.72558 2.31502 8.58393
55 1 1.22134 0.508489 10.9256
56 1 16.1988 3.4325 10.9801
57 1 15.6897 1.88342 13.0181
58 1 15.1353 0.438163 15.4907
59 1 14.6318 3.24955 15.4639
60 1 13.9828 1.64033 17.7894
61 1 13.3458 0.108462 20.2221
62 1 12.8096 2.95014 20.0629
63 1 12.2005 1.38323 22.4723
64 1 15.4952 6.5186 24.9168
65 1 11.2446 2.68547 24.6755
66 1 10.3014 1.24336 27.2026
67 1 13.9044 6.06891 29.4268
68 1 8.6799 0.89173 31.8371
69 1 12.1956 5.83854 34.3032
70 1 7.06394 0.690251 36.4482
71 1 5.21715 2.90246 6.088
72 1 4.43326 1.35862 8.75414
73 1 3.89876 4.16625 8.49665
74 1 3.48759 2.58257 10.9219
75 1 3.01864 0.917991 13.1738
76 1 2.47778 3.80576 13.2492
77 1 1.97723 2.35908 15.3926
78 1 1.28017 0.651091 17.8311
79 1 16.1194 3.62296 18.0371
80 1 15.4532 2.04285 20.2145
81 1 14.9397 0.478941 22.616
82 1 14.2594 3.20734 22.637
83 1 13.7358 1.69925 24.9473
84 1 13.2188 0.127075 27.1742
85 1 12.6404 2.94908 27.2401
86 1 12.1333 1.47552 29.6545
87 1 15.491 6.52913 31.9684
88 1 11.0848 2.81906 31.9054
89 1 10.2289 1.23013 34.2162
90 1 13.9418 6.25781 36.6348
91 1 8.59404 0.93889 38.95
92 1 7.70389 1.94269 6.13506
93 1 7.32569 4.81901 6.27706
94 1 6.70806 3.28581 8.63275
95 1 6.08678 1.4817 10.9667
96 1 5.68026 4.3016 10.9993
97 1 5.10527 2.90008 13.3081
98 1 4.48317 1.28063 15.4579
99 1 4.0431 4.17966 15.4906
100 1 3.22103 2.43387 17.7587
101 1 2.89371 1.18214 20.1487
102 1 2.61167 3.94986 20.2371
103 1 1.68066 2.58663 22.5619
104 1 1.16649 0.803919 24.904
105 1 16.0352 3.68777 24.7743
106 1 15.2903 2.00157 27.1325
107 1 14.7804 0.595506 29.5266
108 1 14.3531 3.33343 29.4165
109 1 13.8051 1.86001 31.9286
110 1 12.9955 0.115317 34.1914
111 1 12.6853 2.96622 34.0681
112 1 12.0236 1.46894 36.5028
113 1 15.2151 6.87952 39.0623
114 1 11.6915 2.99068 39.1464
115 1 9.96129 3.90256 6.38003
116 1 9.46244 2.03845 8.56933
117 1 8.77904 5.2152 8.7731
118 1 8.36749 3.47386 10.8909
119 1 7.81926 1.87563 13.346
120 1 7.25689 4.77534 13.3159
121 1 6.80057 3.19363 15.6931
122 1 6.1857 1.65396 17.8378
123 1 5.56042 4.35601 17.8764
124 1 5.05605 2.95286 20.1407
125 1 4.33492 1.66255 22.6118
126 1 4.19483 4.42451 22.6072
127 1 3.49622 2.85393 24.8833
128 1 2.83601 1.19497 27.1624
129 1 2.19656 3.9396 27.1028
130 1 1.75279 2.48775 29.4423
131 1 1.35441 0.974849 31.7879
132 1 16.2532 3.79583 31.7567
133 1 15.6464 2.3551 34.0947
134 1 14.6167 0.689299 36.3368
135 1 14.1417 3.37236 36.2577
136 1 14.0489 1.97329 38.5404
137 1 11.642 4.09058 8.6645
138 1 10.6775 5.49368 11.0982
139 1 10.0427 3.92171 13.3254
140 1 9.57334 2.30005 15.5342
141 1 8.91405 5.07261 15.5451
142 1 8.35081 3.62998 17.9507
143 1 7.81046 2.17686 20.3392
144 1 7.46056 5.04759 20.0539
145 1 6.75895 3.30864 22.6325
146 1 6.04715 1.80754 24.9549
147 1 5.89675 4.68978 24.7936
148 1 5.00822 3.10835 27.2063
149 1 4.46981 1.42548 29.4876
150 1 3.93065 4.42798 29.4953
151 1 3.44903 2.70261 31.6349
152 1 2.77671 1.09709 34.1417
153 1 17.5741 4.1028 34.4441
154 1 1.68767 2.46657 36.7387
155 1 1.08964 0.90063 39.2121
156 1 16.26 3.77228 39.1708
157 1 15.2715 4.93793 5.99466
158 1 13.2665 4.40249 11.1189
159 1 11.7318 4.02878 15.7318
160 1 10.7478 5.40594 17.9405
161 1 10.0186 3.97333 20.1638
162 1 9.47773 2.27756 22.5435
163 1 9.01079 5.29099 22.4329
164 1 8.51061 3.76749 24.6424
165 1 7.71436 2.0787 27.0973
166 1 7.35742 4.8895 27.1319
167 1 6.67791 3.23135 29.4505
168 1 6.02309 1.96269 31.8691
169 1 5.60763 4.70349 31.775
170 1 4.90266 3.00816 34.2095
171 1 4.46263 1.51932 36.4966
172 1 3.95015 4.46406 36.7022
173 1 3.48708 2.75518 38.9918
174 1 16.7608 5.1051 8.57941
175 1 14.9674 4.81234 13.3666
176 1 13.3749 4.39415 17.7913
177 1 11.7627 4.27745 22.4416
178 1 10.6259 5.43211 24.7959
179 1 10.0457 4.10894 27.1715
180 1 9.39563 2.44309 29.605
181 1 8.98104 5.24341 29.4289
182 1 8.17414 3.64995 31.7634
183 1 7.69753 2.0635 34.1855
184 1 7.08778 5.04782 34.1042
185 1 6.54069 3.57421 36.5768
186 1 6.0401 1.97253 38.9751
187 1 5.23372 4.83601 39.2803
188 1 18.2706 5.42435 10.9068
189 1 16.6977 5.216 15.6394
190 1 15.1549 4.80247 20.2488
191 1 13.3489 4.56416 24.9677
192 1 11.7301 4.36429 29.5246
193 1 10.4846 5.49818 31.7708
194 1 9.91592 4.124 34.09
195 1 9.43614 2.38019 36.4268
196 1 8.82419 5.20537 36.2225
197 1 8.61471 3.77557 38.3932
198 1 18.4783 5.47506 17.9277
199 1 16.8062 5.24709 22.4867
200 1 14.9222 4.86717 27.0994
201 1 13.2009 4.60577 31.8497
202 1 11.5703 4.38943 36.5223
203 1 10.4737 5.75325 38.6056
204 1 18.3119 5.54371 24.8016
205 1 16.6595 5.36194 29.5503
206 1 14.6926 4.99043 34.2413
207 1 13.4334 4.9407 38.9973
208 1 18.246 5.61948 31.9167
209 1 16.6027 5.25858 36.6931
210 1 18.1467 5.64239 39.1698
211 2 14.4629 1.32239 101.987
212 1 15.0122 0.884259 99.4339
213 1 3.61211 0.193723 103.142
214 1 2.39938 1.02518 98.7437
215 1 1.72339 1.46253 101.342
216 2 15.8426 0.455904 96.8107
217 1 14.9315 1.29526 94.3937
218 1 6.21248 1.5767 102.548
219 1 6.84699 1.24108 99.9396
220 1 1.92123 0.10431 94.5396
221 1 4.57454 2.53943 98.6767
222 2 4.3789 1.15138 100.661
223 1 4.19914 1.41186 93.6907
224 1 2.09413 2.7646 95.019
225 1 15.8617 0.750204 90.6538
226 1 3.30072 1.91888 90.8018
227 2 1.60865 1.7897 92.8198
228 1 16.1416 1.00033 87.9645
229 1 8.18169 0.183846 95.6204
230 1 7.14316 1.24776 88.8932
231 1 4.91247 -0.166724 89.9386
232 1 11.9935 4.70931 103.149
233 1 3.68268 2.97317 102.45
234 1 8.34332 3.01699 101.711
235 1 5.90242 4.34452 103.147
236 2 8.03713 0.450484 102.162
237 2 5.77594 3.36811 100.788
238 1 7.17566 3.75418 98.4476
239 2 6.61992 1.64189 97.3146
240 1 4.93657 2.97522 95.931
241 1 12.3161 1.40313 103.186
242 1 10.098 1.30886 100.926
243 1 14.2307 5.82429 98.6328
244 2 11.561 1.30981 98.7721
245 1 10.1141 3.73867 99.458
246 1 8.91571 1.78507 97.8347
247 1 11.029 0.423008 96.5771
248 1 8.08815 2.97327 95.4815
249 1 11.3009 2.96803 96.796
250 2 9.30442 4.43714 97.0712
251 1 8.26646 3.46562 92.7413
252 2 8.97896 1.78948 90.8979
253 1 10.2703 3.96775 90.8735
254 1 6.15148 1.9457 91.5005
255 1 8.56942 0.48081 92.8863
256 1 10.5595 4.35388 94.599
257 1 7.31443 3.96141 89.8874
258 1 9.4382 2.59895 88.6347
259 1 12.8186 2.32011 100.582
260 2 10.9212 3.25017 101.955
261 1 12.5452 5.20028 100.507
262 2 13.232 3.60368 98.4609
263 1 15.0358 3.99617 100.41
264 1 11.4184 5.79132 97.9365
265 1 13.6428 4.44502 96.1251
266 2 6.70454 1.67392 94.1518
267 2 5.20073 2.6137 89.0671
268 1 10.8952 5.26643 88.3783
269 1 17.7975 3.89486 99.7575
270 1 13.5682 1.60469 96.9344
271 1 10.7669 2.02634 92.7715
272 1 11.5955 1.37127 90.1417
273 2 14.1823 1.89052 89.3497
274 1 11.9712 2.96926 87.9919
275 2 2.86657 3.80426 97.2053
276 1 15.7231 3.18551 97.7642
277 1 16.3731 5.12744 95.6917
278 2 12.5605 2.39737 94.6204
279 1 13.4816 1.97188 91.9083
280 2 14.4967 6.43937 94.2555
281 1 12.4857 4.51497 92.7719
282 1 13.022 4.01697 90.2837
283 1 15.2689 3.83 93.4975
284 1 16.1114 3.45493 90.8075
285 1 9.42054 -0.0120493 89.2177
286 1 14.3754 5.87031 102.664
287 1 5.45652 0.030487 95.9131
288 2 16.7116 4.26114 102.348
289 1 16.3598 6.30616 100.729
290 1 4.83957 5.17912 98.7839
291 1 4.18987 5.51604 101.359
292 1 17.0944 5.833 98.1592
293 1 12.7907 -0.191893 93.4383
294 1 17.4993 5.91538 90.8319
295 1 14.8456 5.88539 91.4695
296 2 15.5844 5.17259 88.8671
297 1 5.87834 4.07905 93.5377
298 1 18.8839 5.2113 94.9896
299 1 2.89964 3.92025 92.7136
300 1 4.70471 4.61186 90.5844
301 2 4.24007 6.00167 92.7299
302 1 9.77027 5.69422 101.579
303 1 6.85109 5.56281 96.5809
304 1 7.06162 5.63371 100.807
305 1 4.87635 -0.26074 98.5613
306 2 8.12103 5.37034 94.315
307 1 6.91425 6.19206 91.9322
308 1 2.71504 3.94966 88.9269
309 2 6.4701 6.33036 89.3828
310 1 9.93894 6.0565 92.7618
311 2 11.515 6.19775 90.7304
312 1 5.38683 4.86716 87.7192
313 1 3.50452 1.43828 87.8311
314 1 13.2587 0.859098 87.163
315 2 16.635 6.6492 84.7286
316 1 14.1493 0.290808 82.5506
317 1 5.89205 2.39759 82.9428
318 1 2.01315 0.109407 83.4976
319 2 0.877854 0.698013 81.1224
320 1 19.0247 6.17651 76.786
321 1 5.69124 6.7042 74.9244
322 1 5.62289 6.53776 78.7687
323 1 18.0467 6.6128 73.9794
324 1 4.12284 1.53631 84.8927
325 2 4.78284 0.195338 82.73
326 1 6.63012 0.14325 84.7741
327 1 3.06522 2.24814 81.9996
328 1 5.18999 1.18053 80.3926
329 1 2.41955 1.40388 72.6768
330 1 9.38309 0.279945 84.0444
331 2 13.647 6.46237 81.363
332 1 11.3187 6.72353 82.1482
333 1 7.84959 1.22163 79.7893
334 2 5.97107 2.63197 78.3792
335 1 3.8494 0.526507 76.8559
336 1 4.37638 0.217301 74.2625
337 1 10.6685 6.48866 77.606
338 1 11.2887 6.01662 74.9154
339 1 6.10547 2.39629 86.6577
340 1 16.9037 2.65438 79.7396
341 2 8.56923 0.882449 86.7078
342 2 9.92534 4.01504 86.313
343 1 8.12989 2.73033 84.616
344 1 11.8567 1.75632 82.7002
345 1 11.0755 2.03786 85.3476
346 1 10.6529 4.10804 83.6449
347 1 9.27042 2.29863 81.9274
348 1 8.35494 2.36752 77.4229
349 1 8.79232 1.99955 74.7444
350 1 6.18687 1.86251 75.5852
351 2 6.9569 1.10286 72.8984
352 1 14.736 3.2809 87.1243
353 1 13.3053 4.27248 82.9352
354 1 12.5541 4.6892 85.7437
355 2 11.5748 3.75772 80.8984
356 1 10.2819 3.89301 78.5335
357 1 16.9168 4.81632 86.6429
358 1 18.0259 4.40617 84.0876
359 1 16.4534 6.61775 77.583
360 1 10.3782 0.969851 79.22
361 1 12.6104 2.42516 78.6672
362 1 13.5315 6.66576 76.6345
363 1 11.4227 0.551027 74.6908
364 2 10.8685 2.2126 76.6824
365 1 1.60705 2.12403 85.4264
366 1 15.5243 5.64635 82.719
367 2 15.2522 4.26534 84.8315
368 1 14.1196 2.61368 80.7922
369 1 13.8917 2.05237 84.6476
370 1 15.9089 2.82585 82.6804
371 2 14.8712 1.62777 78.394
372 1 13.4748 2.10256 76.0331
373 1 14.9324 4.1336 77.5964
374 1 12.8258 5.17795 79.1637
375 1 13.3613 6.52767 72.9822
376 1 11.1782 3.53754 74.6364
377 2 13.0968 2.33211 73.3823
378 1 13.8513 4.62714 74.8327
379 2 12.2029 4.4097 76.9015
380 1 11.1799 3.58017 71.9892
381 1 4.16282 3.78696 79.6836
382 1 1.43697 2.16006 76.9508
383 1 2.57376 3.98043 73.0148
384 1 15.5622 2.50813 74.0367
385 2 2.96394 2.35444 74.9196
386 1 11.7717 0.782883 71.8689
387 1 14.607 6.23268 86.634
388 1 3.90932 6.26172 85.6805
389 2 3.74614 3.6348 86.3914
390 2 17.4965 4.63309 81.4507
391 1 15.5394 5.32938 80.0831
392 1 8.17281 5.02611 87.5663
393 1 5.63144 4.24268 84.8521
394 2 7.35866 4.38054 82.7521
395 1 4.73313 4.98703 81.9485
396 1 6.87841 3.67319 80.5554
397 1 18.1653 6.3925 79.7217
398 1 7.00764 6.37659 81.0288
399 2 4.41147 4.6925 74.7775
400 1 16.9669 4.61228 75.5418
401 1 4.01369 3.25781 76.9153
402 1 4.98301 5.37987 72.4075
403 1 8.28987 5.41301 84.8342
404 2 6.48751 6.52574 86.1457
405 2 17.4271 4.47077 78.2326
406 2 15.678 5.23222 73.2494
407 1 9.46108 5.03587 81.094
408 1 6.33498 4.6079 76.6564
409 1 7.03761 4.14068 74.0899
410 2 9.56594 4.72183 73.3845
411 1 7.62691 5.94618 71.8587
412 2 8.06159 5.27696 78.6994
413 1 9.00464 4.74126 76.1322
414 1 4.9672 2.6246 73.1926
415 2 1.48688 0.329617 70.3545
416 1 5.83065 6.62078 67.5908
417 1 10.0138 5.99653 71.0793
418 1 8.59837 6.49795 66.9488
419 1 3.89807 0.366207 69.4273
420 2 6.71396 6.0236 65.0561
421 1 1.7857 0.410341 62.5905
422 1 8.2634 0.662621 70.7267
423 1 13.2494 6.79505 68.0916
424 1 8.16704 5.77406 62.7905
425 1 6.7736 1.38159 66.7063
426 2 6.43469 -0.00427471 68.8948
427 1 6.49536 0.342017 61.7131
428 1 4.39244 1.69813 63.1744
429 1 6.92448 6.35027 58.8837
430 1 5.42814 0.77994 58.9358
431 2 3.83542 0.71279 60.9507
432 1 6.72003 6.02383 56.3065
433 1 14.7256 5.77667 63.8213
434 1 9.59652 0.186602 57.0393
435 1 11.2252 5.63568 58.1197
436 1 14.0935 3.95377 71.7791
437 1 5.89463 2.02261 70.6209
438 1 10.4136 2.10865 69.801
439 1 8.38478 3.35109 71.3319
440 2 14.3449 6.13459 70.4298
441 2 7.91456 2.37502 68.8812
442 1 9.61987 2.65947 66.8218
443 2 8.88673 0.522437 65.4632
444 1 7.26841 1.83026 64.0998
445 1 14.8701 1.11439 71.6818
446 1 16.2325 6.82406 68.7972
447 1 16.5045 4.92567 66.9543
448 2 13.8472 0.301444 66.8168
449 1 12.6713 2.73919 67.6618
450 1 11.3084 0.83638 66.1368
451 1 17.2658 6.08517 64.438
452 1 10.1437 1.99185 63.7992
453 1 13.5401 2.09865 65.0141
454 2 11.3909 3.56101 65.2098
455 1 10.5636 2.40922 61.0064
456 2 11.1878 0.939209 58.9698
457 1 12.4978 3.03773 59.1249
458 1 8.67052 0.80227 59.6416
459 1 14.9068 6.1508 61.0994
460 1 12.7105 3.27447 62.7512
461 1 9.80495 3.03425 58.1147
462 1 11.5978 1.86091 56.5348
463 1 14.833 1.19462 68.9778
464 2 12.9841 2.37765 70.316
465 1 14.725 4.11966 69.0845
466 2 15.4057 2.64303 66.8252
467 1 1.90225 2.64635 68.8643
468 1 13.7307 4.82183 66.1647
469 1 15.9147 3.29485 64.6255
470 2 8.93387 0.661364 62.3371
471 2 7.40831 1.48556 57.2874
472 1 13.5373 4.26532 56.5648
473 1 4.56955 2.65818 68.0429
474 1 0.531719 0.54529 65.1289
475 1 13.2761 1.07378 60.9466
476 1 13.9115 0.579049 58.4352
477 2 0.836303 0.520996 57.5289
478 1 14.2132 1.83336 56.0367
479 2 5.27614 2.76543 65.3734
480 1 2.65204 2.19697 66.1747
481 1 3.116 3.82102 63.953
482 2 14.9209 1.66689 62.7761
483 1 0.637497 1.13549 60.2219
484 2 16.4043 4.8758 62.3094
485 1 14.6531 3.58293 60.8556
486 1 15.4145 3.14599 58.2922
487 1 2.30301 2.9646 61.4464
488 1 2.9503 2.44034 58.9916
489 1 15.8976 5.6173 57.1974
490 1 16.6778 4.82892 70.8314
491 1 11.6598 5.70099 64.0819
492 2 3.66123 3.21786 70.7845
493 1 3.44077 5.23814 68.9043
494 1 6.87821 3.97357 67.0022
495 1 6.29089 4.49117 69.7474
496 1 4.07849 4.78912 66.2994
497 1 3.75114 5.41198 61.6946
498 1 4.56488 5.03185 59.2375
499 1 17.1455 4.94645 59.6151
500 2 2.91723 4.37358 57.0099
501 1 7.89442 3.02307 61.8141
502 1 5.7414 4.25633 63.2796
503 1 5.31065 2.81268 60.7214
504 1 7.15761 3.61645 58.7696
505 2 6.36035 5.05671 61.057
506 1 12.1012 4.69392 69.5943
507 1 8.99559 4.4779 64.8836
508 1 9.12379 4.52716 68.7469
509 1 11.1313 5.38008 66.7863
510 2 10.1533 4.28212 62.5372
511 1 9.16289 5.11181 60.2806
512 1 5.26004 3.13048 57.0861
513 2 8.75415 5.23041 57.5803
514 1 12.3291 5.25355 61.0756
515 2 13.835 5.23008 58.8577
516 1 7.85846 3.38808 55.9353
517 1 5.42289 0.321639 56.0906
518 1 3.99696 6.00993 55.3506
519 2 3.66537 5.13736 53.1114
520 1 5.17764 5.30636 51.0579
521 1 8.10432 0.75946 51.1576
522 1 8.1607 5.17043 51.8869
523 2 7.10602 5.98331 49.5786
524 1 6.09431 4.81805 45.1408
525 1 8.08583 5.33631 43.4665
526 1 7.95354 5.36466 47.0043
527 1 5.24028 5.40727 42.2459
528 1 6.34278 -0.125361 53.07
529 2 10.9122 5.22064 50.9629
530 1 12.7935 5.29032 52.7707
531 1 5.36404 0.608562 50.1675
532 1 11.5136 6.23719 48.4936
533 1 4.76535 -0.0114227 41.1322
534 1 15.6224 5.53416 52.1818
535 2 16.1709 5.43672 49.711
536 1 13.6273 5.01904 50.153
537 1 14.3019 6.62199 48.0283
538 2 8.22505 1.07929 46.6458
539 1 10.253 5.99433 45.2844
540 1 10.905 5.54997 42.7008
541 1 13.0608 5.28786 45.8727
542 1 13.7754 4.81838 43.2319
543 1 8.13085 0.51111 54.9569
544 1 3.42324 1.4387 48.1232
545 2 14.7182 6.15493 54.7504
546 2 12.5377 3.3151 54.3791
547 1 10.4212 1.26813 53.021
548 1 14.162 0.253641 51.2287
549 1 13.1944 0.558063 53.8072
550 1 12.8152 2.5833 51.7217
551 1 11.0901 0.871627 50.4522
552 1 10.6598 1.24105 45.8056
553 1 11.3651 0.612778 43.2743
554 1 8.68998 0.629499 44.0054
555 2 13.5177 6.85977 41.2482
556 1 1.54133 1.89783 55.4294
557 1 15.6035 2.69397 51.0104
558 1 14.7899 3.20052 53.6311
559 2 13.6278 1.86052 49.1277
560 1 12.5727 2.83819 46.8581
561 1 3.9041 3.29223 54.858
562 1 4.92334 2.78253 52.2879
563 1 3.55378 5.48081 45.8274
564 1 12.7731 0.0557107 47.3315
565 1 14.9347 1.64964 46.9336
566 1 16.0019 5.34909 45.2249
567 1 17.7473 5.83545 43.1495
568 2 13.3433 0.857077 45.1512
569 1 3.82265 0.614663 53.7577
570 1 2.56948 4.17847 50.9968
571 2 2.1776 2.79224 53.057
572 1 0.942759 0.708875 49.2152
573 1 0.916131 0.621139 53.0581
574 1 2.85531 1.34303 51.0011
575 2 1.6949 0.25157 46.6618
576 1 0.458261 0.878435 44.1268
577 1 1.88616 2.92601 45.937
578 1 15.2326 4.19011 47.604
579 1 15.7074 5.24938 41.2764
580 1 13.5401 2.26635 43.1578
581 2 15.3081 1.02602 41.7276
582 1 16.3116 3.41738 43.2468
583 2 14.6593 3.20561 45.2467
584 1 14.3317 3.17017 40.8856
585 1 6.1741 2.08876 47.9322
586 1 3.53654 0.854344 45.1884
587 1 4.87578 2.71583 41.3421
588 1 2.69786 1.27419 42.1246
589 2 5.10053 0.991346 43.3723
590 1 12.8905 1.01735 40.8419
591 1 16.8999 4.63973 54.5937
592 1 6.18027 4.75092 53.93
593 2 6.01746 2.18995 54.6205
594 2 4.45612 3.12905 49.7359
595 1 2.59228 4.17069 48.301
596 1 10.7458 4.38551 55.759
597 1 7.88295 2.73163 53.1926
598 2 9.54179 2.95183 51.1095
599 1 6.89637 3.23431 50.286
600 1 8.90609 2.02474 48.8961
601 1 5.46511 4.76677 48.0586
602 1 9.24999 4.67069 49.2406
603 2 6.65177 3.32616 43.2248
604 1 3.7308 3.39112 43.7287
605 1 6.26425 2.01695 45.3265
606 1 7.27658 4.21504 40.9405
607 1 10.5991 3.87272 53.1283
608 2 8.61453 5.094 54.4899
609 2 4.36104 3.20155 46.4408
610 2 2.56294 3.83155 41.2991
611 1 11.4773 3.31751 49.2756
612 1 8.57406 3.349 45.1787
613 1 9.29243 2.9773 42.6244
614 2 11.8044 3.17738 41.7762
615 1 9.99003 4.26528 40.6214
616 2 10.271 3.82337 47.0804
617 1 11.2554 3.52042 44.4197
618 1 7.28203 1.40374 41.6589
ITEM: TIMESTEP
3700
ITEM: NUMBER OF ATOMS
618
ITEM: BOX BOUNDS xy xz yz pp pp ff
0.0000000000000000e+00 1.9317770367296919e+01 4.0025167278329121e+00
0.0000000000000000e+00 6.6702723500479264e+00 0.0000000000000000e+00
0.0000000000000000e+00 1.0921147561319708e+02 0.0000000000000000e+00
ITEM: ATOMS id type x y z
1 1 4.64314 5.8822 5.68415
2 1 6.33133 5.83957 8.34776
3 1 4.63181 5.77933 13.1779
4 1 9.67095 6.60929 6.12226
5 1 7.95949 6.44011 10.8447
6 1 6.28585 6.10717 15.3106
7 1 4.57392 5.85451 20.2058
8 1 12.1608 5.62646 6.21523
9 1 7.21518 0.371994 8.70048
10 1 9.56071 6.60861 13.3113
11 1 7.8542 6.42477 17.9175
12 1 6.28493 6.12459 22.6064
13 1 4.57368 6.19662 27.157
14 1 10.2942 0.796413 6.18927
15 1 13.83 6.28527 8.73168
16 1 8.76388 0.594397 11.0407
17 1 12.3343 5.68242 13.0688
18 1 7.32675 0.305297 15.4836
19 1 5.55267 0.0996926 20.0214
20 1 7.99179 6.59282 24.828
21 1 6.11513 6.45346 29.463
22 1 4.70466 6.06688 34.1139
23 1 13.0976 0.147902 6.0252
24 1 12.7708 2.80481 6.29541
25 1 12.1196 1.23703 8.45779
26 1 15.6616 6.58179 10.7195
27 1 11.1098 2.54135 10.8722
28 1 10.5419 0.990396 13.0968
29 1 14.0871 6.03409 15.4031
30 1 9.0048 0.653806 17.8536
31 1 12.2153 5.74688 20.0801
32 1 7.3123 0.429203 22.3232
33 1 5.51137 0.279352 27.131
34 1 7.77171 6.72895 31.7661
35 1 6.13889 6.26649 36.4511
36 1 15.396 1.92534 6.04779
37 1 14.9159 0.220445 8.49961
38 1 14.4378 3.05116 8.56436
39 1 13.6893 1.68274 10.8847
40 1 13.1531 0.0107891 13.1393
41 1 12.7941 3.06074 13.0434
42 1 12.1099 1.44231 15.541
43 1 15.5122 6.34276 17.8466
44 1 11.2698 2.70174 17.7092
45 1 10.6 1.16207 20.1507
46 1 13.7888 6.25109 22.5662
47 1 8.80018 0.914626 24.752
48 1 12.2024 5.88388 27.1892
49 1 7.0235 0.649097 29.3582
50 1 5.36914 0.259941 34.1341
51 1 7.73764 6.45415 38.5274
52 1 2.95294 0.942908 5.91546
53 1 2.23054 3.98714 6.15893
54 1 1.8733 2.18183 8.4501
55 1 1.2032 0.826944 10.8547
56 1 16.0166 3.56099 10.7083
57 1 15.3653 1.99593 13.229
58 1 14.7462 0.3382 15.6118
59 1 14.1735 3.37386 15.7078
60 1 13.6386 1.76045 17.9436
61 1 13.2464 0.0979476 20.2356
62 1 12.6979 2.93672 20.338
63 1 12.0707 1.42322 22.5402
64 1 15.4834 6.5224 24.7727
65 1 10.9916 2.71609 24.8861
66 1 10.4766 0.971194 27.0266
67 1 13.6663 6.18414 29.4104
68 1 8.87177 0.857967 31.857
69 1 12.2335 5.94352 33.9878
70 1 7.12718 0.484885 36.4549
71 1 4.91642 2.83975 6.10559
72 1 4.50941 1.11619 8.41736
73 1 4.12183 4.1974 8.54512
74 1 3.3531 2.41933 10.9723
75 1 2.77485 1.12324 13.3345
76 1 17.705 3.90642 13.2063
77 1 1.78983 2.2826 15.6372
78 1 1.23901 0.781222 17.9029
79 1 16.1232 3.42788 17.7439
80 1 15.5084 1.9919 20.1573
81 1 14.882 0.442717 22.468
82 1 14.5583 3.34989 22.4987
83 1 13.8522 1.83914 24.7955
84 1 13.1972 0.278534 27.1751
85 1 12.7578 3.17779 27.0995
86 1 12.0645 1.45009 29.4168
87 1 15.5941 6.49415 31.7216
88 1 10.9235 2.59499 31.7062
89 1 10.395 1.11857 34.1987
90 1 13.8485 6.35079 36.4219
91 1 8.92679 0.952579 38.8895
92 1 7.72049 1.72471 6.31914
93 1 7.2475 4.65798 5.95015
94 1 6.57358 3.15628 8.65273
95 1 6.03129 1.58781 11.0193
96 1 5.74257 4.70565 10.9242
97 1 5.06075 2.91217 13.1677
98 1 4.53816 1.30156 15.6076
99 1 4.10921 4.28279 15.5167
100 1 3.59786 2.85958 17.9324
101 1 2.91334 1.12996 20.1705
102 1 2.19749 3.97264 20.271
103 1 1.95812 2.20195 22.5387
104 1 1.21789 0.902498 24.6866
105 1 16.0186 3.70203 24.9549
106 1 15.3812 2.34834 27.2827
107 1 14.8297 0.512984 29.4053
108 1 14.2268 3.28263 29.4993
109 1 13.5587 1.86869 31.7255
110 1 13.2484 0.289671 34.1091
111 1 12.5769 3.19196 34.1285
112 1 12.0278 1.5924 36.3831
113 1 11.5169 -0.0718769 39.0959
114 1 11.5304 2.80804 39.1225
115 1 10.0682 3.75812 6.1834
116 1 9.23818 2.33911 8.75197
117 1 8.85031 4.98973 8.53531
118 1 8.37859 3.54008 11.0625
119 1 7.76803 1.81216 13.2482
120 1 7.38291 4.8608 13.2817
121 1 6.70609 3.23488 15.4978
122 1 6.19667 1.6578 17.8322
123 1 5.88161 4.74306 17.8267
124 1 5.06468 3.10979 20.088
125 1 4.708 1.35015 22.4151
126 1 3.91766 4.20846 22.4156
127 1 3.41716 2.70252 24.7501
128 1 2.8263 1.28931 27.1021
129 1 17.7166 4.05485 27.2353
130 1 1.86496 2.48415 29.6108
131 1 1.09011 0.961234 31.8321
132 1 15.8308 3.67513 31.822
133 1 15.2365 2.14605 34.0439
134 1 14.8482 0.657572 36.7048
135 1 14.5513 3.50231 36.534
136 1 13.861 1.73645 38.6886
137 1 11.6624 4.19009 8.6383
138 1 10.4392 5.35854 10.9914
139 1 10.114 3.69925 13.3577
140 1 9.49296 2.14424 15.527
141 1 9.14042 5.0801 15.4831
142 1 8.48751 3.60638 17.6923
143 1 7.80361 1.90151 20.0321
144 1 7.45897 4.7202 20.2087
145 1 6.87782 3.43276 22.497
146 1 6.04381 1.87288 24.6095
147 1 5.50174 4.64805 24.801
148 1 5.04489 3.15818 27.022
149 1 4.46747 1.61709 29.4852
150 1 4.05661 4.33053 29.5163
151 1 3.38327 2.84396 31.8467
152 1 2.87663 1.45254 34.161
153 1 17.7515 4.25522 34.0935
154 1 1.81112 2.71935 36.5304
155 1 1.22413 0.902239 39.0564
156 1 16.1435 3.77332 39.0125
157 1 14.8985 4.78668 6.24247
158 1 13.4216 4.36387 10.7635
159 1 11.7951 4.231 15.364
160 1 10.586 5.50154 17.8051
161 1 10.0957 4.0472 20.1562
162 1 9.38211 2.40869 22.3868
163 1 9.07371 5.17811 22.4682
164 1 8.17548 3.82373 24.8789
165 1 7.70298 2.11557 27.1498
166 1 7.23611 5.08171 27.1662
167 1 6.71606 3.69835 29.5082
168 1 6.16081 1.73326 31.7391
169 1 5.69948 4.63139 31.8493
170 1 5.18506 3.26743 34.1774
171 1 4.41961 1.69961 36.3878
172 1 3.98869 4.44006 36.6243
173 1 3.36928 2.83319 38.9303
174 1 16.7842 5.09321 8.53067
175 1 15.0191 4.83959 13.0357
176 1 13.2727 4.58754 17.9013
177 1 11.6488 4.27706 22.6006
178 1 10.548 5.65352 24.8508
179 1 9.94707 4.02595 27.0882
180 1 9.29085 2.404 29.4151
181 1 8.9671 5.34544 29.4414
182 1 8.3994 3.71971 31.7243
183 1 7.6056 2.07503 34.0096
184 1 7.33429 5.02469 34.1099
185 1 6.71245 3.20637 36.406
186 1 6.0399 1.73724 38.8269
187 1 5.43585 4.76386 38.9153
188 1 18.245 5.45804 10.797
189 1 16.5749 5.06119 15.3376
190 1 14.9209 4.89551 20.1806
191 1 13.1224 4.60308 24.7805
192 1 11.5149 4.2865 29.4193
193 1 10.5485 5.54142 31.7989
194 1 10.0216 3.91786 34.0997
195 1 9.32156 2.43587 36.2392
196 1 8.81999 5.28299 36.349
197 1 8.38131 3.4761 38.5151
198 1 18.1945 5.57341 17.8548
199 1 16.573 5.13272 22.6018
200 1 14.8087 4.8539 27.2169
201 1 13.1688 4.54503 31.7856
202 1 11.6224 4.34991 36.4546
203 1 10.8411 5.59813 38.5737
204 1 18.3149 5.64193 24.7629
205 1 16.5979 5.19865 29.6029
206 1 15.0551 5.01393 34.1837
207 1 13.4367 4.86392 38.9887
208 1 18.158 5.61279 31.6666
209 1 16.5619 5.43237 36.4303
210 1 18.0638 5.6037 39.0578
211 2 14.3615 0.819221 102.067
212 1 14.936 0.814831 99.3853
213 1 3.6678 0.239654 103.105
214 1 2.43177 1.03042 98.8288
215 1 1.55758 1.25021 101.625
216 2 0.62465 0.353454 96.7292
217 1 15.0245 1.27666 94.4643
218 1 6.03114 1.6881 102.681
219 1 6.81554 1.1204 100.05
220 1 5.89001 6.46115 94.611
221 1 4.76889 2.386 98.8204
222 2 4.31898 1.06271 100.845
223 1 4.10199 1.38678 93.4702
224 1 2.30274 2.57796 95.2444
225 1 0.437988 0.736492 90.6059
226 1 3.03864 1.86094 90.6451
227 2 1.61597 1.5208 92.8198
228 1 0.594045 0.829252 87.9117
229 1 8.32581 0.391734 95.5168
230 1 7.22862 1.42661 88.9799
231 1 9.0734 6.64125 89.9738
232 1 11.8654 4.85221 103.356
233 1 3.57159 3.07839 102.235
234 1 8.24899 2.84069 101.778
235 1 6.32876 4.44605 103.065
236 2 8.16496 0.306297 102.019
237 2 5.76917 3.44322 100.753
238 1 7.41297 3.64091 98.8418
239 2 6.72669 1.37667 97.4105
240 1 4.92253 2.87763 96.054
241 1 12.5101 1.34361 103.274
242 1 10.3234 1.32486 101.345
243 1 14.2461 5.86315 98.9139
244 2 11.4375 1.329 98.7535
245 1 10.2588 3.58839 99.5228
246 1 9.0361 1.74344 97.8369
247 1 11.0497 0.395775 96.5661
248 1 7.63586 3.07598 95.8234
249 1 11.3154 3.08754 96.8942
250 2 9.34538 4.46335 97.0609
251 1 8.44066 3.32967 92.9904
252 2 8.99576 1.94826 90.7577
253 1 10.2134 4.08552 91.0252
254 1 6.46573 1.89705 91.5353
255 1 8.63479 0.489528 92.8434
256 1 10.4336 4.07899 94.7457
257 1 7.49269 4.04731 89.9233
258 1 9.63877 2.8323 88.5871
259 1 12.807 2.17125 100.553
260 2 10.8347 3.25973 102.183
261 1 12.5567 4.81303 100.636
262 2 13.3527 3.67327 98.4542
263 1 15.0625 3.57 100.227
264 1 11.5985 5.73228 97.7768
265 1 13.647 4.42631 96.0652
266 2 6.59733 1.5304 94.1766
267 2 5.13364 2.63373 89.2328
268 1 11.0454 5.35978 88.483
269 1 2.47065 3.7254 99.7936
270 1 13.6857 1.52549 96.9047
271 1 11.0433 1.82908 92.5304
272 1 11.7566 1.49403 90.017
273 2 14.2536 2.07786 89.1591
274 1 12.1642 3.07122 87.7743
275 2 3.19762 3.98977 97.1832
276 1 15.9984 3.06842 97.6486
277 1 16.3924 4.87095 95.7631
278 2 12.6299 2.35043 94.5499
279 1 13.6056 2.11385 91.9248
280 2 14.4271 6.20363 94.1895
281 1 12.3449 4.47615 92.8111
282 1 13.0351 4.18264 90.1544
283 1 15.4068 3.73441 93.5691
284 1 16.0224 3.44699 90.8814
285 1 13.6388 6.78535 89.0714
286 1 14.6136 5.35532 102.47
287 1 5.38821 0.0134858 95.8452
288 2 16.6272 4.027 102.285
289 1 16.4202 6.15104 100.682
290 1 4.72179 5.04082 98.8149
291 1 4.38308 5.49314 101.426
292 1 17.109 5.95858 98.0784
293 1 16.8718 6.42033 93.506
294 1 17.526 5.92311 90.854
295 1 14.8145 5.86418 91.5587
296 2 15.7406 5.34945 88.934
297 1 5.76378 3.88044 93.4956
298 1 3.49811 5.17042 94.9382
299 1 2.83438 3.8215 92.693
300 1 4.7677 4.53167 90.7566
301 2 4.17965 6.03931 92.7213
302 1 9.90213 5.636 101.683
303 1 6.92516 5.54421 96.9669
304 1 7.0937 5.65194 100.674
305 1 8.95891 6.32359 98.7916
306 2 7.92401 5.23763 94.462
307 1 6.80427 6.11421 92.0293
308 1 2.70228 3.87903 88.9214
309 2 6.54033 6.34937 89.4732
310 1 9.92654 6.08916 93.0122
311 2 11.5449 6.32665 90.8383
312 1 5.27375 4.90766 88.0001
313 1 3.60849 1.39565 87.8171
314 1 13.1838 0.832234 87.1335
315 2 16.7887 6.61164 84.7148
316 1 14.158 0.135504 82.618
317 1 6.11206 2.32895 83.0363
318 1 2.22601 0.191165 83.6712
319 2 0.829511 0.788011 81.2158
320 1 18.8674 6.1769 77.1156
321 1 1.46887 -0.0122226 75.1856
322 1 5.58682 6.55285 78.8577
323 1 14.0527 0.0251028 74.1908
324 1 4.12172 1.69066 85.0133
325 2 4.67312 0.179633 82.9647
326 1 6.65334 0.292378 84.9078
327 1 3.12689 2.21089 82.0071
328 1 5.21826 1.03411 80.5887
329 1 2.27092 1.28687 72.8388
330 1 9.43726 0.384965 84.1375
331 2 13.7496 6.5163 81.3991
332 1 7.30258 -0.10293 82.3605
333 1 7.86801 1.15218 79.9663
334 2 5.87916 2.37244 78.3013
335 1 3.79853 0.481968 76.9123
336 1 4.34 0.11742 74.3113
337 1 10.6531 6.61001 77.5663
338 1 11.4444 6.1976 74.9117
339 1 6.19383 2.46165 86.8186
340 1 16.8376 2.77614 79.7639
341 2 8.49745 0.803484 86.7717
342 2 10.1458 4.1694 86.3427
343 1 8.27739 2.7942 84.822
344 1 11.8636 1.80818 82.7953
345 1 11.2079 2.08192 85.484
346 1 10.645 4.08507 83.6956
347 1 8.9765 2.2974 82.1948
348 1 8.28603 2.43427 77.4639
349 1 8.84315 2.05621 74.7989
350 1 6.22327 1.98316 75.6574
351 2 7.01417 1.36024 73.0321
352 1 14.7716 3.4073 87.068
353 1 13.3494 4.35753 83.0027
354 1 12.6842 4.6142 85.5043
355 2 11.5163 3.63958 80.9793
356 1 10.3786 4.04049 78.5847
357 1 17.1732 4.79536 86.6286
358 1 2.62311 4.23443 84.0998
359 1 16.2312 6.60539 77.7467
360 1 10.2485 1.30142 79.3256
361 1 12.5758 2.5721 78.7033
362 1 13.5022 6.64492 76.7233
363 1 11.404 0.601031 74.6482
364 2 10.8693 2.04124 76.8543
365 1 1.55184 2.07526 85.8558
366 1 15.7082 5.73583 82.6748
367 2 15.21 4.27453 84.7182
368 1 13.9676 2.55604 80.9503
369 1 14.1225 2.02402 84.7269
370 1 15.9 2.83512 82.7739
371 2 14.776 1.5388 78.6183
372 1 13.5219 2.0144 76.1209
373 1 14.9039 3.96383 77.7525
374 1 12.8394 5.33985 79.0444
375 1 13.3311 6.46967 72.8646
376 1 11.2369 3.55647 74.9413
377 2 13.1994 2.36296 73.5597
378 1 13.9106 4.63393 74.7734
379 2 12.354 4.41149 76.8049
380 1 11.4479 3.61736 72.1954
381 1 4.25391 3.67636 79.6778
382 1 1.35857 2.10481 77.072
383 1 2.59246 3.92222 73.0481
384 1 15.6841 2.74021 74.1033
385 2 2.86944 2.2255 74.9705
386 1 12.0762 0.759845 71.8842
387 1 14.7599 6.15322 86.5158
388 1 4.06888 6.12887 85.5642
389 2 3.88758 3.48487 86.5128
390 2 17.5857 4.45688 81.3466
391 1 15.4521 5.4169 80.0522
392 1 8.22062 5.1895 87.6911
393 1 5.91383 4.18266 84.9863
394 2 7.36732 4.56249 82.8744
395 1 4.79002 4.93588 82.106
396 1 6.81585 3.66058 80.5827
397 1 18.1245 6.30822 79.9831
398 1 6.99059 6.30616 81.097
399 2 4.23197 4.48822 74.978
400 1 16.9536 4.64257 75.6601
401 1 3.95587 3.21467 76.9487
402 1 4.81768 5.56853 72.6271
403 1 8.476 5.42401 85.0801
404 2 6.39364 6.47602 86.2757
405 2 17.4439 4.44399 78.2218
406 2 15.9212 5.31825 73.241
407 1 9.36616 4.99859 81.13
408 1 6.33349 4.68452 76.7287
409 1 6.86575 4.11702 74.0965
410 2 9.65083 4.69799 73.4481
411 1 7.49226 5.76047 71.9945
412 2 8.17157 5.40239 78.7942
413 1 9.04132 4.83707 76.1161
414 1 4.8597 2.55809 73.1187
415 2 1.48925 0.365706 70.3618
416 1 5.86373 6.69757 67.6683
417 1 10.0337 5.96716 71.1545
418 1 8.59559 6.78674 66.9668
419 1 3.95592 0.530965 69.5365
420 2 6.73625 6.17373 65.0579
421 1 1.90351 0.237686 62.5655
422 1 8.29315 0.796786 70.7559
423 1 9.23437 0.243893 68.1609
424 1 8.12321 5.57377 62.6969
425 1 6.79806 1.61492 66.72
426 2 6.58012 0.180692 68.7711
427 1 6.37585 0.383608 61.7708
428 1 4.40387 1.52789 63.3575
429 1 6.79082 6.44008 58.7405
430 1 5.48856 0.891749 58.9348
431 2 3.94405 0.737361 60.7765
432 1 6.70821 5.77943 56.2339
433 1 14.5301 5.78462 63.6255
434 1 9.60738 0.315084 57.1098
435 1 11.2744 5.71214 58.1115
436 1 14.401 3.90348 71.7352
437 1 5.94881 2.09072 70.7479
438 1 10.6921 2.02691 69.7833
439 1 8.57013 3.35133 71.279
440 2 14.4157 6.17358 70.5649
441 2 7.81604 2.58467 68.9189
442 1 9.64755 2.66768 66.8208
443 2 8.81153 0.463543 65.5027
444 1 7.23057 1.96489 64.1772
445 1 14.9904 1.26646 71.6838
446 1 12.3018 0.0173573 68.9341
447 1 16.5774 4.86916 66.9909
448 2 13.8683 0.391267 66.9204
449 1 12.6814 2.57723 67.7249
450 1 11.3471 0.500155 65.9886
451 1 17.3884 6.21646 64.4029
452 1 9.96169 2.08991 63.9605
453 1 13.7086 2.21233 65.1384
454 2 11.6393 3.34603 65.3604
455 1 10.5829 2.24099 61.1469
456 2 11.2097 0.833649 59.0664
457 1 12.5086 2.99901 59.1662
458 1 8.49054 0.846008 59.7335
459 1 14.7055 5.92521 60.9969
460 1 12.6874 3.05812 62.7123
461 1 9.65034 2.96556 58.1802
462 1 11.7978 1.96284 56.6959
463 1 14.9449 1.25465 69.0285
464 2 13.1765 2.4683 70.2352
465 1 14.7731 4.17772 69.0151
466 2 15.4298 2.58982 67.0167
467 1 2.04973 2.6848 68.7083
468 1 13.6972 4.87152 66.0956
469 1 16.0085 3.71626 64.7852
470 2 8.75533 0.517455 62.2944
471 2 7.38418 1.53093 57.3289
472 1 13.4057 4.39924 56.7032
473 1 4.75765 2.94283 68.1179
474 1 0.577316 0.716833 65.1542
475 1 13.0344 0.865371 61.0361
476 1 13.8437 0.475657 58.3449
477 2 0.917271 0.468912 57.4563
478 1 14.2716 1.85365 56.025
479 2 5.27341 2.83558 65.4877
480 1 2.73808 2.21783 66.1278
481 1 3.24972 3.74733 63.9036
482 2 14.9992 1.67867 62.8953
483 1 15.7377 0.908061 60.1996
484 2 16.3313 4.77969 62.4253
485 1 14.7178 3.30552 60.7295
486 1 15.4414 3.06177 58.154
487 1 2.285 2.66925 61.5202
488 1 3.12609 2.4291 58.8437
489 1 15.8426 5.60153 57.3367
490 1 16.8637 4.74067 70.8108
491 1 11.6521 5.7359 64.0781
492 2 3.87125 3.5609 70.7804
493 1 3.56543 5.29146 68.7849
494 1 7.08285 4.25674 66.944
495 1 6.47149 4.65668 69.6354
496 1 3.99849 4.90445 66.155
497 1 3.71912 5.3408 61.6635
498 1 4.336 4.95285 59.1081
499 1 16.9973 4.7182 59.7977
500 2 2.65777 4.38681 57.0595
501 1 8.00426 2.92315 61.7451
502 1 5.87294 4.07747 63.1686
503 1 5.06795 2.90415 60.8988
504 1 7.07653 3.59778 58.8099
505 2 6.39588 5.11238 60.8073
506 1 12.1948 4.72289 69.7691
507 1 9.16934 4.60595 64.9611
508 1 9.24899 4.54552 68.7024
509 1 11.2446 5.35407 66.847
510 2 10.2253 4.30982 62.5901
511 1 9.09732 5.14504 60.1723
512 1 5.28964 3.29018 56.9733
513 2 8.75705 5.26712 57.4735
514 1 11.9964 5.00546 60.9045
515 2 13.8771 5.14721 58.9922
516 1 8.11192 3.46764 55.822
517 1 5.54508 0.361504 56.1245
518 1 3.96977 6.15437 55.2656
519 2 3.37865 5.17384 52.9333
520 1 5.12098 5.27716 50.9897
521 1 8.18382 0.837091 51.044
522 1 8.19268 5.40384 51.8322
523 2 7.02478 6.026 49.4575
524 1 5.96079 4.78682 45.1691
525 1 7.94472 5.54918 43.1421
526 1 7.9296 5.4334 47.0888
527 1 5.29586 5.39489 42.1447
528 1 6.31511 0.389661 52.9923
529 2 10.9093 5.44766 51.0425
530 1 12.7301 5.34776 52.9815
531 1 5.31961 0.794093 50.1644
532 1 11.4654 6.27203 48.4236
533 1 8.93523 6.86845 40.728
534 1 15.5085 5.55159 52.3577
535 2 16.0109 5.40724 49.666
536 1 13.5208 4.98488 50.2275
537 1 14.0504 6.57786 48.0935
538 2 8.14956 1.25347 46.5668
539 1 9.94926 5.90119 45.2207
540 1 10.8416 5.41883 42.7287
541 1 12.8177 5.34876 45.9007
542 1 13.8034 4.81441 43.2897
543 1 8.26306 0.634004 55.0055
544 1 3.35622 1.43418 48.1922
545 2 14.5938 5.91804 54.9018
546 2 12.452 3.0883 54.4938
547 1 10.3294 1.2955 53.0379
548 1 13.8895 0.132056 51.0719
549 1 13.2877 0.715549 53.6715
550 1 12.8066 2.59735 51.7929
551 1 11.0191 0.84325 50.4986
552 1 10.527 1.33176 45.7495
553 1 11.4573 0.766991 43.2801
554 1 8.65984 0.522445 43.8008
555 2 9.7006 0.00159483 41.244
556 1 1.67834 1.92581 55.4941
557 1 15.4527 2.74662 51.1039
558 1 14.8219 3.19387 53.7346
559 2 13.7123 2.0908 49.1817
560 1 12.4306 2.68321 46.9407
561 1 3.8512 3.48636 54.7388
562 1 4.63668 2.80813 52.311
563 1 3.55535 5.30015 45.8177
564 1 16.5032 6.48417 47.3796
565 1 14.8262 1.26821 46.9062
566 1 15.8103 5.28393 45.1257
567 1 17.9407 5.84204 43.2293
568 2 13.2375 0.688328 45.1165
569 1 3.67417 0.744052 54.0045
570 1 2.41549 4.14282 50.8841
571 2 2.02883 2.82982 53.1126
572 1 0.665022 0.698437 49.1301
573 1 0.703038 0.724854 52.871
574 1 2.6429 1.34102 50.9663
575 2 1.62171 0.0733883 46.8181
576 1 0.596679 0.887706 44.2519
577 1 1.87157 2.77681 45.8451
578 1 15.0309 4.03455 47.7056
579 1 15.9076 5.4311 41.431
580 1 13.6348 2.16934 43.1985
581 2 15.4055 0.906417 41.5836
582 1 16.2672 3.44242 43.2054
583 2 14.5336 3.18066 45.2827
584 1 14.4546 3.1853 40.9173
585 1 6.318 2.12485 47.867
586 1 3.69524 0.906742 45.1776
587 1 4.76844 2.78046 41.1559
588 1 2.78299 1.16427 42.1451
589 2 5.251 0.949918 43.1333
590 1 13.0854 1.08592 40.9517
591 1 16.8198 4.79864 54.6612
592 1 6.13818 4.78551 53.7129
593 2 6.00211 2.33668 54.5878
594 2 4.34698 2.97675 49.7337
595 1 2.53114 4.05565 48.242
596 1 10.7984 4.49559 55.6852
597 1 7.9388 2.82787 53.0547
598 2 9.38873 3.07483 51.032
599 1 6.85927 3.42623 50.3213
600 1 9.02592 2.1676 48.8774
601 1 5.38684 4.71701 48.0825
602 1 9.26668 4.90227 49.2785
603 2 6.58701 3.39506 43.1609
604 1 3.77118 3.16094 43.5957
605 1 6.34648 1.9644 45.1571
606 1 7.32988 4.09575 40.8667
607 1 10.5419 3.96414 53.0291
608 2 8.74297 5.2722 54.3542
609 2 4.3765 3.07522 46.5543
610 2 2.43086 3.75567 41.1593
611 1 11.5764 3.34633 49.3083
612 1 8.56219 3.50812 45.1013
613 1 9.40326 2.94361 42.6084
614 2 11.8703 3.17238 41.702
615 1 10.028 4.3349 40.5662
616 2 10.1952 3.87997 47.0501
617 1 11.4493 3.46189 44.4752
618 1 7.25589 1.3562 41.6599
ITEM: TIMESTEP
3800
ITEM: NUMBER OF ATOMS
618
ITEM: BOX BOUNDS xy xz yz pp pp ff
0.0000000000000000e+00 1.9317770367296919e+01 4.0025167278329121e+00
0.0000000000000000e+00 6.6702723500479264e+00 0.0000000000000000e+00
0.0000000000000000e+00 1.0921147561319708e+02 0.0000000000000000e+00
ITEM: ATOMS id type x y z
1 1 4.53194 5.57976 6.4136
2 1 6.20439 6.11989 8.4741
3 1 4.61925 5.82718 13.3202
4 1 9.43712 6.60372 5.84723
5 1 7.81379 6.39317 10.7882
6 1 6.20083 6.17118 15.7124
7 1 4.49877 5.83233 20.1075
8 1 12.0534 5.65158 5.78701
9 1 7.12334 0.299351 8.24632
10 1 9.56997 6.87532 13.0741
11 1 7.96813 6.46929 17.7984
12 1 6.163 6.26359 22.3864
13 1 4.53179 5.74069 27.1493
14 1 10.4712 0.853582 5.86064
15 1 13.738 5.94348 8.26895
16 1 8.94268 0.767652 10.6831
17 1 12.187 5.8879 13.2512
18 1 7.07967 0.512225 15.4335
19 1 5.65952 0.00991285 20.2132
20 1 7.6795 6.58684 24.6924
21 1 6.20267 6.30419 29.469
22 1 4.48536 5.95899 34.1255
23 1 13.115 -0.18636 6.08672
24 1 12.518 2.67558 5.84567
25 1 12.1229 1.35871 8.56366
26 1 15.5334 6.39756 10.9477
27 1 11.1455 2.56303 10.8087
28 1 10.3868 1.10394 13.1465
29 1 13.7321 6.0928 15.534
30 1 8.78896 0.797996 17.7329
31 1 12.2067 5.89346 20.139
32 1 7.17806 0.492793 22.5497
33 1 5.49914 0.227047 27.1791
34 1 7.90142 6.68037 31.7629
35 1 6.26144 6.31746 36.3745
36 1 15.2308 1.7702 6.04544
37 1 14.6618 0.421982 8.48713
38 1 14.2561 3.25443 8.5519
39 1 13.7781 1.6984 10.7403
40 1 13.2282 0.0515607 13.1388
41 1 12.6251 2.922 13.2696
42 1 12.1239 1.34813 15.4671
43 1 15.619 6.62789 17.7984
44 1 11.0476 2.60792 17.8195
45 1 10.4269 1.08567 20.0993
46 1 13.957 6.21476 22.5231
47 1 8.78025 0.856394 24.8308
48 1 12.1951 6.01083 27.1293
49 1 7.26004 0.544319 29.3264
50 1 5.5425 0.348542 33.9847
51 1 7.74113 6.65161 38.6904
52 1 2.76192 0.863541 6.10917
53 1 2.34338 3.5843 5.92897
54 1 1.59822 2.33111 8.53916
55 1 1.30308 0.607575 10.8902
56 1 15.9938 3.50174 10.8915
57 1 15.56 1.92333 13.0979
58 1 14.9514 0.287063 15.547
59 1 14.5135 3.28895 15.4207
60 1 13.8929 1.67186 17.7727
61 1 13.1451 0.179503 20.0685
62 1 12.7443 3.03085 19.9543
63 1 12.1051 1.46105 22.4136
64 1 15.5118 6.68115 24.7887
65 1 11.058 2.87513 24.7844
66 1 10.3472 1.34782 27.1164
67 1 13.934 6.3688 29.4024
68 1 8.71809 0.971624 31.6772
69 1 12.3682 6.12516 34.048
70 1 7.31755 0.675321 36.2777
71 1 5.28071 2.79939 5.90421
72 1 4.48188 1.3646 8.50939
73 1 3.89033 4.10904 8.40279
74 1 3.38156 2.67978 10.8353
75 1 2.78731 0.962141 13.0673
76 1 17.6671 3.90591 13.2443
77 1 1.88579 2.28962 15.5147
78 1 1.14848 0.8463 17.8342
79 1 15.9515 3.63327 17.832
80 1 15.4395 2.08957 20.1636
81 1 14.8861 0.482535 22.4898
82 1 14.1778 3.35481 22.4867
83 1 13.64 1.89738 24.864
84 1 13.1842 0.312683 27.1373
85 1 12.6877 3.15349 27.1699
86 1 12.054 1.67325 29.5422
87 1 15.4995 6.70837 31.7698
88 1 11.1015 2.92089 31.73
89 1 10.6323 1.29118 34.031
90 1 13.9536 6.33315 36.5174
91 1 8.54328 0.826847 38.8048
92 1 7.72153 1.8039 5.65387
93 1 7.32844 4.84753 6.13286
94 1 6.83668 3.20381 8.3146
95 1 6.18255 1.66971 10.7548
96 1 5.57906 4.39499 10.7209
97 1 5.03349 2.97617 13.2302
98 1 4.43489 1.50973 15.3433
99 1 3.8994 4.22263 15.4936
100 1 3.24218 2.45715 17.8251
101 1 2.72949 1.10445 20.0557
102 1 2.59283 3.82414 20.029
103 1 1.57529 2.55637 22.3722
104 1 1.16939 0.853973 24.678
105 1 15.9478 3.52475 24.6569
106 1 15.3445 2.078 27.05
107 1 14.7963 0.667138 29.4755
108 1 14.3562 3.53526 29.3126
109 1 13.8264 1.8887 31.7125
110 1 13.0092 0.204908 34.1004
111 1 12.7968 2.99962 33.9216
112 1 12.208 1.48351 36.6427
113 1 11.23 -0.127843 39.133
114 1 11.2262 2.57619 38.9647
115 1 9.86884 3.69683 5.73736
116 1 9.40233 2.09233 8.29668
117 1 8.87008 5.218 8.44125
118 1 8.31881 3.61725 10.5633
119 1 7.81148 2.19457 13.0698
120 1 7.17309 4.91587 13.1282
121 1 6.71038 3.47492 15.409
122 1 6.08223 1.73026 17.8865
123 1 5.48932 4.31212 17.8167
124 1 5.0898 2.77085 20.1826
125 1 4.18794 1.46972 22.5616
126 1 3.97973 4.36573 22.4925
127 1 3.41034 2.7911 24.7904
128 1 2.75645 1.13571 27.2138
129 1 17.6264 3.94807 27.0281
130 1 1.51742 2.55311 29.3447
131 1 1.18364 0.988768 31.693
132 1 16.0932 3.81473 31.7051
133 1 15.5893 2.31449 34.0901
134 1 14.985 0.599857 36.3531
135 1 14.4422 3.47273 36.2954
136 1 13.9668 1.90114 38.4372
137 1 11.6288 4.07185 8.33494
138 1 10.6529 5.57746 10.7665
139 1 9.96995 4.12507 12.9691
140 1 9.44145 2.58995 15.3762
141 1 8.80545 5.29852 15.499
142 1 8.21572 3.7404 17.9153
143 1 7.78444 2.07096 20.3331
144 1 7.24523 5.01124 20.0529
145 1 6.59995 3.22545 22.4334
146 1 6.04924 1.79386 24.9063
147 1 5.775 4.57137 24.7627
148 1 5.05155 3.03956 27.1651
149 1 4.30942 1.57922 29.4516
150 1 3.80383 4.55786 29.5136
151 1 3.26325 2.87451 31.7182
152 1 2.75743 1.02374 34.0067
153 1 17.5583 4.08374 34.0986
154 1 1.77479 2.44615 36.6638
155 1 1.07042 0.980787 39.2441
156 1 16.2345 3.85452 38.8918
157 1 14.7296 4.57066 5.84033
158 1 13.2414 4.43085 11.0638
159 1 11.5439 4.16401 15.5815
160 1 10.6938 5.54627 17.8978
161 1 9.94573 3.89805 20.2512
162 1 9.43742 2.34276 22.4943
163 1 8.80131 5.25501 22.4159
164 1 8.41645 3.62255 24.7053
165 1 7.65534 2.25655 27.1748
166 1 7.30305 5.08538 27.0008
167 1 6.60369 3.22731 29.5085
168 1 5.99299 2.03714 31.7892
169 1 5.48551 4.8041 31.6596
170 1 4.97002 3.00475 34.1054
171 1 4.51809 1.44262 36.3893
172 1 3.92621 4.36203 36.4794
173 1 3.49119 2.78361 38.7129
174 1 16.4951 5.1249 8.60981
175 1 14.919 4.80054 13.325
176 1 13.3777 4.47182 17.6581
177 1 11.5395 4.34786 22.3307
178 1 10.6195 5.54132 24.7316
179 1 9.92444 4.19796 27.158
180 1 9.40556 2.65816 29.5198
181 1 8.77048 5.28226 29.3682
182 1 8.26814 3.68292 31.706
183 1 7.92702 2.24333 34.1552
184 1 7.21462 4.93028 34.0189
185 1 6.65074 3.46783 36.332
186 1 6.07205 1.97091 38.6744
187 1 5.50495 4.68599 38.7027
188 1 18.2635 5.49792 10.8346
189 1 16.733 5.22581 15.6442
190 1 14.9943 4.91206 20.1898
191 1 13.4833 4.67694 24.8691
192 1 11.6181 4.39554 29.3256
193 1 10.5417 5.76832 31.6554
194 1 10.0198 4.02034 33.9708
195 1 9.64375 2.41294 36.2501
196 1 9.10814 5.37859 36.1661
197 1 8.6038 3.63052 38.3336
198 1 18.3719 5.48506 17.808
199 1 16.7379 5.36089 22.3161
200 1 14.8619 5.1354 27.0741
201 1 13.3858 4.74902 31.6937
202 1 11.838 4.41476 36.3588
203 1 10.6151 5.72729 38.4919
204 1 18.2015 5.54569 24.7397
205 1 16.5306 5.42514 29.4477
206 1 14.9143 5.09591 34.0794
207 1 13.2224 4.73868 38.9957
208 1 18.2038 5.68342 31.8504
209 1 16.7604 5.22703 36.5637
210 1 18.2568 5.80676 38.9444
211 2 14.4294 0.784101 102.212
212 1 15.0278 0.874697 99.5203
213 1 3.48755 0.147026 103.203
214 1 2.50168 0.840183 98.6322
215 1 1.56539 1.46118 101.332
216 2 0.712291 0.505483 96.8329
217 1 14.9132 1.29553 94.5419
218 1 6.03915 1.46572 102.736
219 1 7.02064 1.0851 100.117
220 1 5.86888 6.5775 94.5455
221 1 4.78343 2.41782 98.7564
222 2 4.21206 1.06786 100.845
223 1 4.14089 1.22948 93.7383
224 1 2.08405 2.68686 94.9928
225 1 0.60893 0.87774 90.7678
226 1 3.21407 1.87955 90.7951
227 2 1.55895 1.7854 92.6739
228 1 0.974882 1.40731 88.1424
229 1 8.38625 0.0319896 95.7053
230 1 7.39141 1.4629 89.0127
231 1 8.93384 6.57756 89.9424
232 1 12.0954 4.6546 103.232
233 1 3.69228 2.93318 102.472
234 1 8.27608 2.80788 102.247
235 1 6.17485 4.44964 103.314
236 2 8.24927 0.252108 102.231
237 2 5.92596 3.33776 100.852
238 1 7.17432 3.41728 98.5856
239 2 6.70276 1.26666 97.3902
240 1 4.86386 2.64839 96.0478
241 1 12.4314 1.25444 103.289
242 1 10.4003 1.32614 101.299
243 1 14.3457 5.87719 98.8116
244 2 11.7516 1.26614 98.9248
245 1 10.0843 3.55081 99.7878
246 1 9.06128 1.49558 98.0517
247 1 11.1002 0.414498 96.5468
248 1 8.00025 2.82042 95.782
249 1 11.5091 3.03984 97.1503
250 2 9.23862 4.22247 97.2344
251 1 8.37683 3.37198 92.8207
252 2 8.98831 1.74164 90.931
253 1 10.2373 4.028 90.8828
254 1 6.31188 1.74835 91.6803
255 1 8.6018 0.532021 92.9747
256 1 10.3919 3.92976 94.721
257 1 7.37935 4.06541 90.0917
258 1 9.6769 2.74398 88.5006
259 1 12.9245 2.22784 100.755
260 2 10.942 3.1412 102.364
261 1 12.411 4.88083 100.526
262 2 13.2431 3.50728 98.4905
263 1 15.0474 3.78554 100.366
264 1 11.3774 5.58617 98.0561
265 1 13.8346 4.34026 96.0184
266 2 6.73597 1.46779 94.2293
267 2 5.18869 2.5822 89.2189
268 1 10.7938 5.41791 88.5088
269 1 2.52254 3.77399 99.7341
270 1 13.6215 1.4708 96.8853
271 1 10.8547 1.96769 92.75
272 1 11.7152 1.46102 90.055
273 2 14.2621 2.2297 89.3388
274 1 12.1597 3.24615 87.8387
275 2 3.12274 3.66653 97.2309
276 1 15.7906 3.14862 97.7749
277 1 16.4495 5.02296 95.6481
278 2 12.5285 2.28315 94.7477
279 1 13.6041 2.00197 92.0738
280 2 14.4605 6.33814 94.2344
281 1 12.4143 4.3917 92.8871
282 1 12.9874 4.13304 90.2339
283 1 15.2845 3.85709 93.3734
284 1 16.0913 3.50037 90.8197
285 1 13.5441 6.58255 88.977
286 1 14.5741 5.51741 102.603
287 1 5.68667 -0.329025 95.8927
288 2 16.7656 3.97707 102.291
289 1 16.5918 6.14311 100.788
290 1 5.03386 5.17207 98.8217
291 1 4.41805 5.46434 101.446
292 1 17.0832 5.72421 98.1199
293 1 16.8474 6.44225 93.3954
294 1 17.6165 5.95359 90.7047
295 1 14.9344 5.95578 91.4494
296 2 15.8074 5.46609 88.8267
297 1 5.87433 3.86158 93.6814
298 1 3.72564 5.10177 95.0705
299 1 3.01723 3.85961 92.7385
300 1 4.79492 4.6419 90.6195
301 2 4.21313 6.00142 92.8398
302 1 9.89095 5.50953 101.941
303 1 6.8637 5.43051 96.6724
304 1 7.24223 5.40599 100.838
305 1 8.88632 6.28401 98.8322
306 2 8.00022 5.2262 94.4781
307 1 6.88842 6.03248 92.0165
308 1 2.70054 3.77576 88.8886
309 2 6.42218 6.40182 89.4716
310 1 9.92823 5.90294 92.9804
311 2 11.5774 6.21233 90.8651
312 1 5.3952 4.75627 87.8694
313 1 3.7813 1.33955 87.8155
314 1 13.4316 0.878785 87.3253
315 2 16.8007 6.65633 84.9199
316 1 14.4242 0.0752574 82.8406
317 1 6.07927 2.30525 83.1223
318 1 2.18854 0.109924 83.7914
319 2 0.995938 0.680515 81.3006
320 1 18.9867 6.12508 76.9677
321 1 1.62637 0.14786 75.033
322 1 5.59171 6.47142 78.8114
323 1 14.0572 -0.0226483 74.0331
324 1 4.28625 1.56797 85.0279
325 2 4.73947 0.133548 82.9851
326 1 6.8465 0.170456 84.795
327 1 3.25052 2.21943 82.2278
328 1 5.29248 1.1562 80.633
329 1 2.2562 1.46762 72.7179
330 1 9.40283 0.367677 84.0347
331 2 13.6808 6.26883 81.3718
332 1 7.28361 -0.231248 82.1254
333 1 7.84697 1.10612 79.9352
334 2 5.89482 2.48303 78.4633
335 1 3.65268 0.390517 76.9961
336 1 4.4213 0.221754 74.3525
337 1 10.4457 6.54397 77.7616
338 1 11.257 6.15908 75.091
339 1 6.29805 2.18299 86.8175
340 1 16.8289 2.62689 79.9739
341 2 8.66217 0.915622 86.6889
342 2 10.1442 4.2965 86.2908
343 1 8.37014 2.67383 84.7615
344 1 11.7496 1.67328 82.8697
345 1 11.2671 2.19805 85.5508
346 1 10.6301 3.97375 83.5934
347 1 8.92076 2.2256 82.1045
348 1 8.27105 2.34165 77.5362
349 1 8.83849 2.00361 74.9282
350 1 6.28455 1.89358 75.7071
351 2 7.11606 1.26559 73.0335
352 1 14.734 3.49393 87.1162
353 1 13.3753 4.19336 82.9833
354 1 12.7545 4.62898 85.4522
355 2 11.6338 3.52182 81.0252
356 1 10.1791 3.96207 78.7462
357 1 17.0778 4.93382 86.7049
358 1 2.7069 4.46243 84.0672
359 1 16.4147 6.57155 77.5832
360 1 10.4439 1.08479 79.2005
361 1 12.5887 2.74361 78.7452
362 1 13.5887 6.58818 76.8168
363 1 11.5536 0.634644 74.8412
364 2 10.8415 2.14459 76.9041
365 1 1.73128 2.19125 85.7557
366 1 15.6161 5.64303 82.7778
367 2 15.3409 4.33288 84.9002
368 1 13.8826 2.10144 80.9738
369 1 13.9801 2.18075 84.7133
370 1 15.9963 2.80022 82.8671
371 2 14.852 1.46576 78.5275
372 1 13.5804 2.12132 76.1644
373 1 14.8801 4.08899 77.7346
374 1 12.6029 5.36522 79.162
375 1 13.5306 6.6372 73.1238
376 1 11.162 3.40962 74.8603
377 2 13.1455 2.32276 73.5582
378 1 13.8321 4.59503 74.8281
379 2 12.206 4.47954 76.9822
380 1 11.3616 3.79278 72.0987
381 1 4.02961 3.73904 79.7677
382 1 1.34254 2.11988 77.0104
383 1 2.5998 4.0758 73.1149
384 1 15.6207 2.71732 74.0822
385 2 2.85726 2.33758 75.0528
386 1 11.9364 0.824897 71.9672
387 1 14.8795 6.34039 86.615
388 1 4.06892 6.41874 85.8954
389 2 3.83772 3.53845 86.5339
390 2 17.4692 4.51022 81.564
391 1 15.3825 5.14124 80.0986
392 1 8.13226 5.11368 87.6914
393 1 5.7947 4.18042 85.0788
394 2 7.34579 4.50861 83.0096
395 1 4.91517 4.91299 82.0758
396 1 6.94066 3.43727 80.6433
397 1 18.157 6.29293 79.9856
398 1 7.11452 6.16061 81.017
399 2 4.29548 4.67714 74.8808
400 1 16.9585 4.50948 75.624
401 1 3.90286 3.22513 76.9962
402 1 5.01196 5.357 72.5924
403 1 8.57887 5.36478 84.9578
404 2 6.52173 6.48238 86.2453
405 2 17.3749 4.37639 78.3912
406 2 15.7524 5.2997 73.371
407 1 9.36516 4.93865 81.1366
408 1 6.25214 4.52767 76.7871
409 1 6.98875 4.37173 74.2831
410 2 9.59167 4.8247 73.4001
411 1 7.52301 5.8052 71.9985
412 2 8.11005 5.33919 78.8993
413 1 8.93263 4.72755 76.2825
414 1 4.82219 2.63407 73.2148
415 2 1.47281 0.152925 70.3852
416 1 6.07262 6.69084 67.6516
417 1 10.2286 6.13981 71.2271
418 1 8.75366 6.88885 66.9223
419 1 4.06798 0.623444 69.5332
420 2 6.94951 6.02076 65.0176
421 1 1.86838 0.360445 62.6957
422 1 8.48958 0.863041 70.862
423 1 9.42063 0.18567 68.2038
424 1 8.03128 5.59012 62.8024
425 1 7.07786 1.62183 66.8223
426 2 6.80507 0.256365 68.8738
427 1 6.38489 0.23528 61.7824
428 1 4.47397 1.63563 63.2656
429 1 6.88887 6.33804 58.95
430 1 5.33022 0.728633 58.8698
431 2 3.81428 0.647961 60.9222
432 1 6.71231 6.1964 56.246
433 1 14.6007 5.83394 63.8132
434 1 9.42278 0.169599 57.1405
435 1 11.2767 5.63456 58.2075
436 1 14.1805 4.06899 71.9415
437 1 6.10667 2.19946 70.6009
438 1 10.7688 2.07511 69.7243
439 1 8.58643 3.57013 71.2903
440 2 14.4885 6.26382 70.5759
441 2 8.35799 2.55291 68.9719
442 1 9.68156 2.73544 66.9274
443 2 8.99184 0.415693 65.6393
444 1 7.07894 1.76939 64.205
445 1 14.932 1.25744 71.6193
446 1 12.449 0.327766 68.9877
447 1 16.7395 4.88662 66.9871
448 2 13.9955 0.388408 66.9627
449 1 12.6582 2.86806 67.6515
450 1 11.3627 0.777297 66.1058
451 1 17.269 6.07505 64.5771
452 1 10.1213 2.08397 63.8556
453 1 13.6845 2.01058 65.0828
454 2 11.5573 3.47721 65.2902
455 1 10.6739 2.3475 61.0503
456 2 11.1871 0.799518 59.097
457 1 12.5201 3.04321 59.1936
458 1 8.38343 0.881819 59.8246
459 1 14.8845 6.16649 61.1142
460 1 12.7761 3.00558 62.9352
461 1 9.6809 2.81719 58.2166
462 1 11.7392 1.54489 56.5966
463 1 15.2236 1.38286 68.9838
464 2 13.144 2.50031 70.4024
465 1 14.9236 4.09236 69.0421
466 2 15.3935 2.82507 66.9397
467 1 2.05398 2.92221 68.9163
468 1 13.8932 4.82819 66.141
469 1 15.9174 3.4425 64.5859
470 2 8.85154 0.555123 62.3836
471 2 7.3086 1.39833 57.3353
472 1 13.2679 4.10707 56.7454
473 1 4.8258 2.99895 68.1658
474 1 0.684137 0.744141 65.1973
475 1 13.0841 0.983421 61.0338
476 1 13.7372 0.51392 58.3259
477 2 0.808569 0.474011 57.5064
478 1 14.2426 1.79843 55.9142
479 2 5.46704 2.93387 65.48
480 1 2.78777 2.40298 66.3968
481 1 3.15576 3.83479 63.9986
482 2 15.0174 1.59519 62.8636
483 1 15.8327 1.03222 60.1807
484 2 16.4564 4.77912 62.4075
485 1 14.7523 3.45883 60.7261
486 1 15.4128 3.02044 58.2234
487 1 2.37273 2.77991 61.6144
488 1 2.97412 2.45565 58.9052
489 1 15.6608 5.50659 57.3672
490 1 16.7873 5.00642 70.7877
491 1 11.7411 5.64979 64.015
492 2 3.9244 3.50035 70.9261
493 1 3.62074 5.42055 68.9111
494 1 7.17876 4.27438 67.0425
495 1 6.60087 4.7728 69.5604
496 1 4.29485 5.00385 66.2926
497 1 3.69257 5.57257 61.5899
498 1 4.45738 5.01663 59.1412
499 1 17.0488 4.85594 59.693
500 2 2.87182 4.60751 57.0412
501 1 8.04925 2.77031 61.8796
502 1 5.69869 4.1101 63.1635
503 1 5.09002 2.76167 60.7231
504 1 7.14049 3.42389 58.9201
505 2 6.47851 4.87988 61.0258
506 1 12.2676 4.84198 69.6743
507 1 9.06661 4.42012 64.9482
508 1 9.44499 4.77574 68.8769
509 1 11.2339 5.48872 66.7988
510 2 10.1667 4.234 62.5424
511 1 9.11666 4.91977 60.1285
512 1 5.25606 3.05676 57.0494
513 2 8.70036 5.21447 57.6183
514 1 12.1487 4.97854 61.1429
515 2 13.7959 5.18176 59.1036
516 1 7.77899 3.53346 55.985
517 1 5.43049 0.311613 55.9947
518 1 3.84591 6.04265 55.2609
519 2 3.35699 5.28472 53.0364
520 1 5.01083 5.35602 50.7858
521 1 7.94017 1.02535 51.2333
522 1 8.2641 5.40646 51.7538
523 2 6.98335 5.90511 49.2936
524 1 5.94427 4.80061 45.0434
525 1 8.30308 5.36252 43.1176
526 1 7.86021 5.11458 46.9293
527 1 5.33492 5.57965 42.4284
528 1 6.03155 0.336723 53.0735
529 2 10.7571 5.52994 51.0612
530 1 12.7632 5.48345 52.915
531 1 5.20214 0.952202 50.1695
532 1 11.4582 6.31079 48.694
533 1 9.08854 6.76786 40.7508
534 1 15.5129 5.6092 52.3746
535 2 16.1521 5.4525 49.6212
536 1 13.5968 4.9776 50.2906
537 1 14.0026 6.42081 48.1521
538 2 8.21615 1.01425 46.4231
539 1 10.1401 5.88506 45.0653
540 1 11.0717 5.49476 42.5489
541 1 13.0095 5.23507 45.9069
542 1 13.7439 4.61183 43.3074
543 1 7.99448 0.713915 54.938
544 1 3.44693 1.37919 48.0101
545 2 14.4176 6.09067 54.9918
546 2 12.3285 3.22464 54.5354
547 1 10.2068 1.28989 53.1351
548 1 13.7562 0.34387 51.2621
549 1 12.9516 0.689741 53.7792
550 1 12.6893 2.84339 51.8756
551 1 10.9542 1.00562 50.4906
552 1 10.5336 0.978656 45.6437
553 1 11.2443 0.559858 43.1389
554 1 8.61679 0.556106 43.6971
555 2 9.43732 -0.0638369 41.0921
556 1 1.50419 2.01331 55.4698
557 1 15.4553 2.66613 51.0979
558 1 14.7253 2.97385 53.6315
559 2 13.5536 2.04354 49.3123
560 1 12.4593 2.62561 46.9146
561 1 3.69711 3.46015 54.8674
562 1 4.91435 3.08005 52.1948
563 1 3.36655 5.38 45.793
564 1 16.6397 6.46817 47.4839
565 1 14.7893 1.23404 46.9336
566 1 15.9713 5.12906 45.1665
567 1 17.6515 5.87625 43.0981
568 2 13.086 0.646797 45.1898
569 1 3.54702 0.835731 53.8425
570 1 2.35611 4.31871 51.0226
571 2 2.0981 2.85629 52.9795
572 1 0.764921 0.844827 49.1258
573 1 0.877173 0.664815 52.8387
574 1 2.75429 1.51207 50.9515
575 2 1.7337 0.159856 46.6478
576 1 0.455961 0.767606 44.2306
577 1 1.93638 2.58389 46.0459
578 1 15.0415 4.00427 47.6434
579 1 15.5996 5.16125 41.2731
580 1 13.4899 2.01629 43.1668
581 2 15.3367 0.723001 41.5966
582 1 16.3294 3.23075 43.1675
583 2 14.6744 2.99295 45.1947
584 1 14.3344 2.96783 40.8413
585 1 6.20124 2.12899 47.7897
586 1 3.59957 0.737286 45.0164
587 1 4.98391 2.80869 41.0207
588 1 2.81781 1.31221 41.8577
589 2 5.27583 1.05427 43.0765
590 1 13.0366 0.787014 40.8468
591 1 16.6903 4.7199 54.6954
592 1 6.02101 4.91237 53.8586
593 2 5.88016 2.32924 54.6299
594 2 4.28883 3.0991 49.5687
595 1 2.56278 4.05722 48.3299
596 1 10.4974 4.37759 55.8659
597 1 7.87709 2.92973 53.1764
598 2 9.39146 3.03309 51.2074
599 1 6.75243 3.46945 50.1749
600 1 8.80478 2.1606 48.9424
601 1 5.11827 4.85146 47.939
602 1 9.13904 4.85753 49.1653
603 2 6.66127 3.36394 42.953
604 1 3.8443 3.3218 43.5737
605 1 6.21309 1.94069 45.1451
606 1 7.26147 4.52376 40.6679
607 1 10.4794 4.04455 53.1309
608 2 8.49347 5.21875 54.3649
609 2 4.17542 3.0255 46.3074
610 2 2.69157 3.94328 41.11
611 1 11.4289 3.51295 49.2918
612 1 8.6086 3.27675 44.9392
613 1 9.44212 2.81014 42.4513
614 2 11.8292 3.0694 41.5256
615 1 9.95106 4.23678 40.4338
616 2 10.3078 3.92583 47.0231
617 1 11.4111 3.42201 44.4401
618 1 7.48674 1.45972 41.2943
ITEM: TIMESTEP
3900
ITEM: NUMBER OF ATOMS
618
ITEM: BOX BOUNDS xy xz yz pp pp ff
0.0000000000000000e+00 1.9317770367296919e+01 4.0025167278329121e+00
0.0000000000000000e+00 6.6702723500479264e+00 0.0000000000000000e+00
0.0000000000000000e+00 1.0921147561319708e+02 0.0000000000000000e+00
ITEM: ATOMS id type x y z
1 1 4.39579 5.68189 5.72856
2 1 6.17184 5.95829 8.35807
3 1 4.51752 5.83994 12.9892
4 1 9.48773 6.84558 5.90425
5 1 7.93709 6.59356 10.6585
6 1 6.24025 6.03337 15.1627
7 1 4.56781 5.93036 20.1808
8 1 12.3668 5.48686 5.71407
9 1 7.24345 0.386638 8.3112
10 1 9.49592 6.82172 13.0054
11 1 7.76722 6.43626 17.8328
12 1 6.11289 6.2244 22.6537
13 1 4.47536 6.06079 27.0773
14 1 10.4519 0.8267 5.67215
15 1 13.8627 6.06388 8.2622
16 1 8.74604 0.827597 10.6409
17 1 12.2045 5.88991 13.0448
18 1 7.25169 0.355777 15.441
19 1 5.36193 0.168633 20.0802
20 1 7.7428 6.48142 24.8323
21 1 6.0721 6.28921 29.3172
22 1 4.64157 5.99258 34.0138
23 1 13.0917 -0.14235 5.8083
24 1 12.7504 2.69197 5.83511
25 1 12.0917 1.24663 8.31006
26 1 15.3948 6.51293 10.6752
27 1 10.9248 2.56861 10.7222
28 1 10.4429 1.16305 13.0858
29 1 13.8803 6.27203 15.4677
30 1 8.79633 0.703784 17.9361
31 1 12.0825 5.95221 20.171
32 1 7.13024 0.550969 22.2836
33 1 5.53237 0.246213 27.018
34 1 7.73081 6.58692 31.6544
35 1 6.11165 6.31538 36.2578
36 1 15.2975 1.75631 5.98178
37 1 14.7464 0.272589 8.41385
38 1 14.1499 2.96909 8.40302
39 1 13.4732 1.65439 10.7791
40 1 13.0652 0.153879 13.2262
41 1 12.6951 3.12911 12.9929
42 1 11.9557 1.59923 15.5204
43 1 15.401 6.48457 17.7538
44 1 11.0344 2.73341 17.702
45 1 10.3851 1.20931 20.1079
46 1 13.7532 6.32438 22.3464
47 1 8.86609 0.916424 24.6685
48 1 12.245 6.02744 27.0677
49 1 7.09302 0.816272 29.4354
50 1 5.50726 0.290831 34.0187
51 1 7.53318 6.68469 38.4636
52 1 2.64914 0.99549 5.98179
53 1 2.15561 3.89924 6.09235
54 1 1.57898 2.12285 8.45104
55 1 0.934402 0.843048 10.8945
56 1 15.7981 3.5827 10.8276
57 1 15.3241 2.07173 13.1629
58 1 14.7949 0.421955 15.4271
59 1 14.1288 3.44253 15.5658
60 1 13.6352 1.79265 17.8082
61 1 13.1682 0.288725 20.1509
62 1 12.5293 3.0835 20.1682
63 1 12.009 1.43633 22.4154
64 1 15.4059 6.57624 24.6813
65 1 11.0557 2.59858 24.6224
66 1 10.587 1.13223 27.0665
67 1 13.9094 6.45068 29.3843
68 1 9.03552 1.18011 31.6646
69 1 12.337 6.13801 34.1461
70 1 7.10637 0.610388 36.3639
71 1 4.68169 2.93549 5.98518
72 1 4.39074 1.15503 8.34668
73 1 3.90347 4.22369 8.53811
74 1 3.26465 2.55479 10.6882
75 1 2.85341 1.10604 13.1051
76 1 17.6515 3.84531 13.1201
77 1 1.68716 2.3954 15.4268
78 1 1.06975 0.717919 17.641
79 1 16.094 3.53171 17.6587
80 1 15.3571 2.04705 19.9415
81 1 14.7483 0.517784 22.3282
82 1 14.4935 3.38108 22.4286
83 1 13.8426 1.88711 24.6111
84 1 13.1546 0.384969 26.8738
85 1 12.7197 3.15833 26.9836
86 1 12.2026 1.70117 29.3741
87 1 15.5443 6.78578 31.8262
88 1 11.1535 2.94723 31.7545
89 1 10.4504 1.31008 34.1326
90 1 13.8732 6.28582 36.3999
91 1 8.78047 0.97823 38.7853
92 1 7.69309 2.01388 5.8767
93 1 7.03318 4.68554 5.79819
94 1 6.63911 3.31398 8.35717
95 1 6.10477 1.79613 10.5722
96 1 5.78878 4.5907 10.7519
97 1 5.1966 3.00095 13.035
98 1 4.34694 1.267 15.5225
99 1 3.98104 4.30435 15.3408
100 1 3.47116 2.77416 17.7494
101 1 2.71464 1.2362 20.2067
102 1 2.03964 4.05811 20.2233
103 1 1.76765 2.30175 22.5708
104 1 1.09405 0.881315 24.7103
105 1 15.8975 3.88425 24.7936
106 1 15.3349 2.2389 27.1049
107 1 14.8351 0.605923 29.3278
108 1 14.4099 3.6138 29.4606
109 1 13.7283 1.9579 31.6897
110 1 13.2592 0.299989 33.8374
111 1 12.7566 3.18442 33.9932
112 1 12.053 1.51983 36.3183
113 1 11.282 -0.147002 38.8799
114 1 11.415 2.69553 38.8503
115 1 10.0159 3.79625 5.82856
116 1 9.36986 2.38355 8.30325
117 1 8.85286 5.05316 8.18366
118 1 8.37813 3.5342 10.7673
119 1 7.65275 1.96099 13.0527
120 1 7.45124 4.83326 13.0382
121 1 6.65836 3.21159 15.4707
122 1 5.99569 1.72979 17.7661
123 1 5.77821 4.7012 17.7383
124 1 4.86194 3.23973 20.0332
125 1 4.46572 1.43496 22.4043
126 1 3.83782 4.32179 22.4737
127 1 3.20183 2.66907 24.7481
128 1 2.65701 1.27058 26.9967
129 1 17.5432 4.14545 27.0894
130 1 1.77967 2.30493 29.4417
131 1 1.1006 0.824611 31.6226
132 1 16.0928 3.88737 31.7234
133 1 15.4585 2.13329 33.9454
134 1 14.8867 0.458164 36.4764
135 1 14.284 3.21208 36.2871
136 1 13.9346 1.86501 38.3996
137 1 11.6957 4.18753 8.24828
138 1 10.633 5.41033 10.6991
139 1 10.0257 3.82216 13.2048
140 1 9.32736 2.29097 15.5236
141 1 8.94215 5.08694 15.3389
142 1 8.30977 3.57778 17.6887
143 1 7.64767 2.04785 20.0955
144 1 7.3053 4.73527 20.2166
145 1 6.75777 3.40273 22.5005
146 1 6.15269 1.90588 24.7987
147 1 5.42959 4.69712 24.8364
148 1 4.82485 3.07923 26.9215
149 1 4.37126 1.34724 29.2397
150 1 3.99638 4.31738 29.3255
151 1 3.42657 2.72909 31.6297
152 1 2.80783 1.3616 34.0005
153 1 17.6201 4.04785 33.9914
154 1 1.68017 2.45191 36.4498
155 1 1.04472 1.12833 39.2639
156 1 16.1869 3.79294 38.8606
157 1 14.9563 4.61865 5.88157
158 1 13.2147 4.49222 10.5013
159 1 11.778 4.43526 15.386
160 1 10.3972 5.61874 17.7342
161 1 9.94567 4.06066 20.1006
162 1 9.312 2.49346 22.3282
163 1 8.96983 5.22852 22.4536
164 1 8.21786 3.68014 24.9089
165 1 7.76605 2.0357 27.0413
166 1 7.15488 4.85347 27.1512
167 1 6.76867 3.52013 29.3709
168 1 6.18133 1.83973 31.6412
169 1 5.51631 4.57353 31.6729
170 1 5.13072 3.10714 33.9967
171 1 4.45812 1.59294 36.364
172 1 3.93501 4.4433 36.3844
173 1 3.39409 2.77862 38.8041
174 1 16.4603 4.95631 8.43889
175 1 14.7606 5.00264 13.0653
176 1 13.0741 4.68054 17.823
177 1 11.6378 4.26665 22.3855
178 1 10.5438 5.65383 24.852
179 1 10.0619 4.03917 27.1551
180 1 9.37031 2.59937 29.3441
181 1 9.08705 5.3721 29.3235
182 1 8.42727 3.83047 31.653
183 1 7.71865 2.21319 33.8889
184 1 7.34946 5.24232 33.9908
185 1 6.73309 3.26451 36.2412
186 1 6.04623 1.83138 38.75
187 1 5.42634 4.81392 38.7271
188 1 18.0273 5.37401 10.8846
189 1 16.4879 5.16987 15.3655
190 1 14.8831 5.00873 20.0616
191 1 13.1283 4.67492 24.7297
192 1 11.716 4.54401 29.3519
193 1 10.6328 5.79757 31.7488
194 1 10.0026 4.10191 34.0371
195 1 9.42463 2.50908 36.2963
196 1 8.69945 5.33273 36.2519
197 1 8.27318 3.84122 38.2842
198 1 18.0557 5.58104 17.5468
199 1 16.4127 5.29619 22.5509
200 1 14.8545 5.05405 27.0817
201 1 13.3752 4.9716 31.7518
202 1 11.7222 4.4734 36.3901
203 1 10.5799 5.72327 38.3545
204 1 18.1272 5.61729 24.6843
205 1 16.556 5.34517 29.4368
206 1 15.0992 5.10729 33.9796
207 1 13.2914 4.80147 38.8059
208 1 18.3224 5.66305 31.6487
209 1 16.5307 5.14513 36.3116
210 1 18.085 5.73292 38.8134
211 2 14.5759 1.115 102.214
212 1 15.1621 0.738275 99.6293
213 1 3.63541 0.0596463 103.248
214 1 2.43703 0.613674 98.9432
215 1 1.55262 1.30329 101.677
216 2 0.611449 0.316901 96.8614
217 1 15.0685 1.14741 94.5419
218 1 6.0784 1.43747 102.867
219 1 6.89769 0.990019 100.119
220 1 6.16818 6.7232 94.6732
221 1 4.66483 2.1955 98.624
222 2 4.43237 0.868134 100.819
223 1 4.16114 1.497 93.5039
224 1 2.32987 2.65269 95.2548
225 1 0.679703 0.673321 90.6743
226 1 3.22975 1.8927 90.7982
227 2 1.77225 1.70313 92.8814
228 1 0.830173 1.08703 88.0072
229 1 8.18748 0.0973104 95.5256
230 1 7.29455 1.24734 88.9725
231 1 9.02675 6.56875 90.1399
232 1 11.9862 4.44603 103.44
233 1 3.72581 2.92793 102.443
234 1 8.33094 2.74835 101.868
235 1 6.20421 4.24247 103.204
236 2 8.14887 0.195079 102.502
237 2 5.81041 3.21434 100.952
238 1 7.23472 3.40201 98.8229
239 2 6.57039 1.28442 97.5061
240 1 5.01082 2.93394 95.9792
241 1 12.5662 1.32239 103.224
242 1 10.4866 1.29093 101.143
243 1 14.3777 5.80837 99.0949
244 2 11.6271 1.29074 98.9151
245 1 10.3328 3.59827 99.7331
246 1 9.04323 1.59567 97.8436
247 1 11.1025 0.311295 96.699
248 1 7.77509 2.87801 95.7996
249 1 11.4379 3.03451 97.1144
250 2 9.31384 4.23785 97.0911
251 1 8.34377 3.25836 92.938
252 2 9.12805 1.77674 90.8658
253 1 10.3281 3.94986 91.1443
254 1 6.33478 1.91352 91.556
255 1 8.60691 0.444139 92.8662
256 1 10.3379 4.02515 94.7358
257 1 7.4323 3.89138 90.0621
258 1 9.58843 2.66267 88.6212
259 1 13.0287 2.19763 100.615
260 2 10.9829 3.13387 102.293
261 1 12.5426 4.87379 100.759
262 2 13.4497 3.58579 98.6835
263 1 15.1536 3.61766 100.566
264 1 11.5396 5.64031 98.0263
265 1 13.7066 4.42341 96.2263
266 2 6.57317 1.44698 94.2604
267 2 5.20178 2.67273 89.2874
268 1 11.0281 5.1361 88.7863
269 1 2.4898 3.84342 99.9175
270 1 13.6952 1.55844 97.1397
271 1 10.9894 1.78313 92.8725
272 1 11.6401 1.44507 90.0401
273 2 14.4067 2.12801 89.4745
274 1 12.2074 3.02941 87.9321
275 2 3.23829 3.80937 97.3533
276 1 16.0601 2.93241 97.872
277 1 16.5061 4.8536 95.9143
278 2 12.6342 2.15263 94.8318
279 1 13.6876 2.04345 92.146
280 2 14.4983 6.12486 94.4056
281 1 12.3822 4.39922 93.0333
282 1 13.0987 4.08219 90.3401
283 1 15.4744 3.74001 93.78
284 1 15.9761 3.37006 91.1183
285 1 13.585 6.5428 89.1258
286 1 14.5282 5.54957 102.826
287 1 5.16071 0.0134321 95.8018
288 2 16.9421 4.20831 102.477
289 1 16.5772 6.15297 100.827
290 1 4.781 4.84672 98.9241
291 1 4.32464 5.47221 101.476
292 1 17.1728 5.8256 98.3195
293 1 16.9783 6.43073 93.5547
294 1 17.4407 6.02147 90.7751
295 1 14.892 5.71908 91.7409
296 2 15.6894 5.28623 89.0891
297 1 5.82109 3.96589 93.547
298 1 3.78123 5.14069 95.0583
299 1 2.93772 3.95008 92.7284
300 1 4.97313 4.60119 90.7263
301 2 4.25613 6.07219 92.765
302 1 9.75142 5.50162 102.036
303 1 6.75291 5.24488 96.8489
304 1 7.1068 5.3007 100.812
305 1 8.95329 6.1859 98.5785
306 2 7.95377 5.08287 94.4526
307 1 6.96975 6.06088 92.1356
308 1 2.64009 3.89701 89.0236
309 2 6.68286 6.35623 89.476
310 1 9.90539 6.06809 93.0045
311 2 11.4906 6.13391 90.9767
312 1 5.22358 4.99836 87.9688
313 1 3.82329 1.38896 87.8021
314 1 13.3542 0.882895 87.3148
315 2 16.7512 6.55742 84.8941
316 1 14.28 0.207814 82.7923
317 1 5.98818 2.2961 82.8759
318 1 1.9883 0.125727 83.4875
319 2 0.71909 0.71999 81.2391
320 1 19.0559 6.10328 77.1218
321 1 1.60292 0.187006 75.1165
322 1 5.55832 6.41432 79.0236
323 1 14.0208 0.0538175 74.1841
324 1 4.29714 1.56076 84.8991
325 2 4.87407 0.109566 82.8806
326 1 6.69567 0.275374 84.937
327 1 3.38463 2.12692 81.9813
328 1 5.24784 0.959685 80.416
329 1 2.37252 1.42155 72.509
330 1 9.44252 0.305805 84.2603
331 2 13.773 6.47218 81.4846
332 1 7.31254 -0.173939 82.3509
333 1 7.8673 1.10326 79.9654
334 2 6.00468 2.56537 78.3717
335 1 3.79917 0.588686 77.0151
336 1 4.36663 0.241164 74.3272
337 1 10.6017 6.59996 77.8149
338 1 11.3376 6.25451 75.1132
339 1 6.4514 2.69039 86.781
340 1 16.8177 2.51667 79.8365
341 2 8.54194 0.881188 86.8176
342 2 10.0635 4.09539 86.3975
343 1 8.37171 2.69602 84.7561
344 1 12.1156 1.7229 82.8817
345 1 11.243 2.07444 85.4782
346 1 10.7327 4.12203 83.6855
347 1 9.14471 2.36253 82.1636
348 1 8.25568 2.43582 77.584
349 1 8.89919 1.92891 74.9753
350 1 6.2379 2.05095 75.7832
351 2 7.03012 1.40285 73.0108
352 1 14.9081 3.40699 87.1709
353 1 13.4446 4.26693 83.0796
354 1 12.7586 4.5673 85.6771
355 2 11.5316 3.57752 81.0275
356 1 10.2286 3.95359 78.6662
357 1 17.1287 4.90213 86.6921
358 1 2.6449 4.25547 84.069
359 1 16.4446 6.55417 77.8949
360 1 10.2699 1.0645 79.1899
361 1 12.5536 2.6156 78.8443
362 1 13.5974 6.49732 76.8357
363 1 11.3776 0.583967 74.8259
364 2 10.9956 1.8807 76.9765
365 1 1.79393 2.12681 85.7685
366 1 15.5861 5.66591 82.7918
367 2 15.3996 4.33562 84.8902
368 1 14.0892 2.66919 80.9253
369 1 14.155 2.05964 84.9027
370 1 16.1116 2.72973 82.8153
371 2 14.7329 1.47111 78.5826
372 1 13.4545 2.03713 76.1885
373 1 14.9018 4.05202 77.7809
374 1 12.8212 5.35782 79.2621
375 1 13.2728 6.38388 72.9811
376 1 11.2216 3.47042 74.9112
377 2 13.1675 2.47686 73.5944
378 1 13.965 4.59063 74.8988
379 2 12.2066 4.33989 76.9319
380 1 11.5228 3.78298 72.2196
381 1 4.08092 3.53877 79.7466
382 1 1.35971 2.11931 76.9922
383 1 2.6826 4.19769 73.1715
384 1 15.6923 2.60316 74.21
385 2 2.92098 2.2283 74.9792
386 1 11.8918 0.909082 72.08
387 1 14.8166 6.24768 86.7557
388 1 3.90062 6.23221 85.6068
389 2 3.90445 3.51365 86.5532
390 2 17.561 4.45968 81.5136
391 1 15.5731 5.17471 80.2149
392 1 8.3545 5.16085 87.6056
393 1 5.78136 4.42112 84.9025
394 2 7.36768 4.29014 82.8719
395 1 4.79039 4.72958 82.1535
396 1 6.80825 3.56349 80.5919
397 1 18.2596 6.20263 80.0609
398 1 7.07254 6.21518 81.0316
399 2 4.4422 4.53611 74.9883
400 1 16.8959 4.58099 75.6837
401 1 3.93387 3.40063 77.0182
402 1 4.94514 5.43625 72.7635
403 1 8.40078 5.36163 84.8276
404 2 6.61957 6.47486 86.404
405 2 17.411 4.40475 78.2895
406 2 15.8707 5.30714 73.3327
407 1 9.34007 4.89682 81.0951
408 1 6.33507 4.6876 76.7651
409 1 7.0245 4.18918 74.0544
410 2 9.59725 4.82681 73.5178
411 1 7.48276 5.8058 71.9575
412 2 8.05623 5.17031 78.7501
413 1 9.05066 4.87965 76.1733
414 1 4.8279 2.61434 73.2281
415 2 1.47066 0.129395 70.4857
416 1 5.99703 6.6771 67.7965
417 1 10.1976 6.09731 71.3536
418 1 8.68014 6.83089 66.9673
419 1 4.04268 0.627513 69.707
420 2 6.84849 6.14164 65.1477
421 1 1.85788 0.404049 62.8252
422 1 8.37755 0.949087 70.7753
423 1 9.3767 0.338779 68.217
424 1 8.22925 5.62507 62.8864
425 1 7.1768 1.56298 66.9018
426 2 6.60297 0.244516 69.0076
427 1 6.51743 0.322614 61.8363
428 1 4.50766 1.50745 63.3667
429 1 6.72343 6.27401 58.8601
430 1 5.32574 0.904337 58.9754
431 2 3.92971 0.620427 60.9561
432 1 6.59821 6.1548 56.1704
433 1 14.7958 5.91684 63.804
434 1 9.52082 0.354082 57.1962
435 1 11.0271 5.54538 58.1779
436 1 14.4417 3.92371 71.9361
437 1 6.09243 2.30896 70.8172
438 1 10.6106 2.20361 69.8692
439 1 8.76343 3.5241 71.459
440 2 14.5133 6.23602 70.6725
441 2 8.07442 2.64047 68.9721
442 1 9.80653 2.71452 67.0156
443 2 9.06259 0.600531 65.5148
444 1 7.22424 1.93226 64.288
445 1 14.8108 1.07735 71.8058
446 1 12.4239 0.356734 69.1859
447 1 16.7762 5.01068 67.246
448 2 14.0704 0.383571 66.9704
449 1 12.8402 2.66557 67.692
450 1 11.483 0.812815 66.0938
451 1 17.6451 6.15161 64.602
452 1 10.2299 2.17113 63.8881
453 1 13.8493 2.19449 65.0735
454 2 11.737 3.41551 65.4112
455 1 10.6074 2.35103 61.0051
456 2 11.1722 0.913884 58.9168
457 1 12.4374 3.01376 59.1188
458 1 8.55784 0.771654 59.6317
459 1 14.9446 6.12018 61.064
460 1 12.8011 2.99286 62.9066
461 1 9.50785 2.89394 58.1507
462 1 11.541 1.84652 56.4578
463 1 15.278 1.46458 69.1839
464 2 13.1489 2.4841 70.4162
465 1 14.9181 4.28956 69.0133
466 2 15.5669 2.73307 67.0391
467 1 2.18414 2.83162 68.8741
468 1 13.9305 4.82179 66.1722
469 1 16.1831 3.65567 64.7588
470 2 9.06486 0.555041 62.3592
471 2 7.19173 1.41815 57.4439
472 1 13.2537 4.33498 56.6794
473 1 4.85114 2.83591 68.1364
474 1 0.766977 0.835793 65.2444
475 1 13.0954 1.02111 60.9005
476 1 13.7984 0.554771 58.3934
477 2 0.839098 0.540624 57.6347
478 1 14.2771 1.98981 56.095
479 2 5.48809 2.80035 65.5715
480 1 2.90986 2.29525 66.2022
481 1 3.4387 3.81827 64.0384
482 2 15.0192 1.66125 62.948
483 1 15.8351 1.05035 60.4424
484 2 16.5946 4.89359 62.4731
485 1 14.6253 3.48027 60.9693
486 1 15.3484 3.04471 58.5571
487 1 2.32246 2.73942 61.6573
488 1 2.81435 2.35469 59.1086
489 1 15.7371 5.64313 57.3394
490 1 17.016 5.02601 70.8837
491 1 11.9015 5.67913 63.9672
492 2 3.99465 3.59558 70.8122
493 1 3.67199 5.51181 68.9353
494 1 7.07358 4.25978 67.0328
495 1 6.65706 4.77738 69.6103
496 1 4.26804 4.93498 66.4295
497 1 3.80826 5.32231 61.7402
498 1 4.4162 4.92291 59.2446
499 1 17.0606 4.81487 59.833
500 2 2.57178 4.33877 57.1303
501 1 8.10182 2.85205 61.7011
502 1 5.94034 4.12932 63.3185
503 1 5.14177 2.82891 61.0957
504 1 6.88342 3.53785 58.9773
505 2 6.29819 5.10519 60.9949
506 1 12.3561 4.91217 69.8345
507 1 9.33211 4.73897 65.1434
508 1 9.47113 4.75846 68.8152
509 1 11.4148 5.47322 66.9837
510 2 10.3354 4.30128 62.6571
511 1 9.05759 5.14848 60.3031
512 1 4.87559 2.84435 57.1482
513 2 8.49469 5.17189 57.6772
514 1 12.2022 4.97522 61.0171
515 2 13.7544 5.04651 58.9189
516 1 7.54588 3.39247 55.9538
517 1 5.44859 0.265847 56.1875
518 1 3.88486 6.2323 55.3926
519 2 3.49563 5.23788 52.9733
520 1 5.17425 5.31286 51.0215
521 1 8.11751 0.872203 51.1469
522 1 8.13433 5.52262 51.966
523 2 7.07783 6.11552 49.4612
524 1 5.9667 4.76865 45.1015
525 1 7.9838 5.37217 43.0531
526 1 7.89569 5.42606 46.9238
527 1 5.19878 5.26579 42.1143
528 1 6.1146 0.207063 53.108
529 2 10.7187 5.35542 51.0728
530 1 12.7647 5.39077 52.9159
531 1 5.26735 0.826462 50.1998
532 1 11.4522 6.32398 48.8324
533 1 9.00331 6.64233 40.5557
534 1 15.5962 5.70769 52.2473
535 2 16.0513 5.50235 49.5565
536 1 13.4594 5.03179 50.2126
537 1 13.9424 6.46775 47.9104
538 2 8.10208 1.00565 46.5835
539 1 9.99504 5.60186 44.9536
540 1 10.8762 5.34457 42.4479
541 1 12.8677 5.32379 45.7719
542 1 13.6897 4.60838 43.1855
543 1 8.05325 0.674009 54.9103
544 1 3.49442 1.41616 47.7346
545 2 14.6134 6.09308 54.9301
546 2 12.3579 3.37134 54.4668
547 1 10.2354 1.34176 53.0348
548 1 13.8635 0.206864 51.0618
549 1 13.0922 0.73829 53.8279
550 1 12.8164 2.72864 51.7343
551 1 10.9537 0.911906 50.4475
552 1 10.5601 1.03756 45.6198
553 1 11.2778 0.608871 43.1961
554 1 8.69688 0.471541 43.8554
555 2 9.48975 -0.125925 41.1845
556 1 1.45862 2.02526 55.4565
557 1 15.3088 2.92113 51.077
558 1 14.7845 3.28831 53.6902
559 2 13.497 1.82349 49.1256
560 1 12.4637 2.56049 46.72
561 1 3.74375 3.53793 54.9339
562 1 4.60784 2.80527 52.2199
563 1 3.54171 5.41711 45.8397
564 1 16.696 6.35796 47.3198
565 1 14.823 1.29393 46.8018
566 1 15.734 5.27251 45.0669
567 1 17.8542 5.7422 43.0565
568 2 13.3142 0.611009 44.9886
569 1 3.61413 0.832653 53.9966
570 1 2.41427 4.2353 50.8304
571 2 2.03534 2.89177 53.0116
572 1 0.902073 1.11338 49.038
573 1 0.628009 0.840951 52.9148
574 1 2.60307 1.45835 51.0583
575 2 1.74991 0.172642 46.541
576 1 0.530789 0.753479 43.9359
577 1 1.9675 2.74496 45.6452
578 1 14.8414 3.94824 47.5625
579 1 15.827 5.27831 41.3228
580 1 13.5073 1.9188 43.0187
581 2 15.4158 0.87534 41.5028
582 1 16.169 3.28113 43.1409
583 2 14.4138 3.06042 45.1536
584 1 14.3899 3.15775 40.8107
585 1 6.25388 2.11322 47.9011
586 1 3.58931 0.734335 44.9081
587 1 4.85116 2.64565 41.1357
588 1 2.79439 1.09504 41.9736
589 2 5.17803 0.879028 42.952
590 1 13.1291 0.90698 40.6831
591 1 16.7081 4.87606 54.7671
592 1 5.95419 4.79222 53.8309
593 2 5.85267 2.19372 54.7509
594 2 4.44389 3.05742 49.5668
595 1 2.49924 3.95113 48.1167
596 1 10.3561 4.41631 55.7272
597 1 7.70089 2.77818 53.0301
598 2 9.37006 3.02758 51.0525
599 1 6.87357 3.34782 50.3158
600 1 9.0347 2.11355 48.7883
601 1 5.18263 4.83801 48.1632
602 1 9.14276 4.83741 49.1649
603 2 6.62572 3.34458 43.1518
604 1 3.80511 3.24612 43.5535
605 1 6.27577 1.77377 45.136
606 1 7.31232 4.13349 40.7432
607 1 10.38 4.05572 53.1145
608 2 8.49892 5.16087 54.6127
609 2 4.4603 3.11111 46.2947
610 2 2.62567 4.05372 41.1398
611 1 11.443 3.49649 49.2627
612 1 8.54121 3.29931 45.0168
613 1 9.31084 2.83215 42.3968
614 2 11.801 2.95929 41.4638
615 1 10.0058 4.20412 40.3541
616 2 10.2246 3.83058 46.8742
617 1 11.2293 3.33474 44.2864
618 1 7.34072 1.23656 41.5053
ITEM: TIMESTEP
4000
ITEM: NUMBER OF ATOMS
618
ITEM: BOX BOUNDS xy xz yz pp pp ff
0.0000000000000000e+00 1.9317770367296919e+01 4.0025167278329121e+00
0.0000000000000000e+00 6.6702723500479264e+00 0.0000000000000000e+00
0.0000000000000000e+00 1.0921147561319708e+02 0.0000000000000000e+00
ITEM: ATOMS id type x y z
1 1 4.39975 5.76258 5.90416
2 1 6.14447 6.04716 8.29304
3 1 4.39646 5.80373 13.1854
4 1 9.46413 6.54125 5.82913
5 1 7.56867 6.35918 10.6691
6 1 5.98313 6.2984 15.4686
7 1 4.39485 5.95349 20.0326
8 1 12.0517 5.94299 6.05906
9 1 6.88441 0.433634 8.4395
10 1 9.4013 6.66861 13.123
11 1 7.80785 6.67487 17.5434
12 1 6.06077 6.42345 22.2248
13 1 4.63954 5.97041 26.9853
14 1 10.2462 1.07651 6.02296
15 1 13.6666 6.09598 8.45783
16 1 8.6343 0.647204 10.7158
17 1 12.2132 5.68794 13.1087
18 1 7.05623 0.502874 15.3418
19 1 5.49222 0.275666 20.0857
20 1 7.76672 6.74077 24.6178
21 1 6.2827 6.42942 29.3899
22 1 4.49718 6.0565 33.9643
23 1 13.0883 0.0631636 5.86119
24 1 12.5813 3.09652 5.94917
25 1 12.0677 1.3868 8.37541
26 1 15.4782 6.42819 10.635
27 1 11.0332 2.6333 10.5916
28 1 10.3414 0.93744 12.9441
29 1 13.6599 6.05279 15.3107
30 1 8.72347 0.908505 17.4375
31 1 12.0722 5.98963 19.9749
32 1 7.10113 0.616383 22.2932
33 1 5.55966 0.305503 27.1122
34 1 8.00763 6.75863 31.6518
35 1 6.12294 6.41242 36.2521
36 1 15.4397 1.98766 5.6697
37 1 14.7386 0.458772 8.23225
38 1 14.3683 3.37071 8.24815
39 1 13.8913 1.7213 10.5284
40 1 13.1392 0.0649859 12.7696
41 1 12.5291 2.87229 13.0287
42 1 12.0809 1.29152 15.2474
43 1 15.4671 6.55459 17.5905
44 1 10.9174 2.64267 17.7467
45 1 10.2595 1.14351 20.0746
46 1 13.8396 6.32615 22.3859
47 1 8.65591 0.927324 24.8346
48 1 12.2369 5.94293 26.9428
49 1 7.24598 0.444332 29.3021
50 1 5.48163 0.358436 33.9688
51 1 7.73104 6.53843 38.4052
52 1 2.82104 0.933803 5.66914
53 1 2.25674 3.71032 5.73676
54 1 1.72615 2.36174 8.22401
55 1 1.23018 0.674725 10.4973
56 1 16.0491 3.44586 10.6184
57 1 15.3047 1.89967 12.8936
58 1 14.7351 0.417404 15.3595
59 1 14.3662 3.30969 15.2232
60 1 13.7349 1.7337 17.6723
61 1 13.0466 0.163083 20.0362
62 1 12.573 2.92115 19.9591
63 1 11.9899 1.47548 22.3803
64 1 15.5069 6.65041 24.735
65 1 10.9885 2.82555 24.7748
66 1 10.2903 1.28363 26.9392
67 1 13.8348 6.16733 29.3272
68 1 8.83438 0.842795 31.7033
69 1 12.1507 5.99912 33.9527
70 1 7.15566 0.636456 36.3791
71 1 5.09685 2.76876 5.74048
72 1 4.36879 1.38444 8.39562
73 1 3.90711 4.09462 8.20558
74 1 3.29182 2.59103 10.8006
75 1 2.57363 1.03749 13.0094
76 1 17.4903 4.04131 12.9813
77 1 1.64986 2.37405 15.2751
78 1 1.00212 0.984658 17.768
79 1 15.8437 3.8284 17.6668
80 1 15.3049 2.10279 20.08
81 1 14.7642 0.546466 22.4579
82 1 14.0834 3.43296 22.4671
83 1 13.5466 1.76984 24.8105
84 1 13.0497 0.232119 27.0972
85 1 12.6941 3.15151 27.0959
86 1 12.0486 1.48536 29.3236
87 1 15.6304 6.5117 31.6699
88 1 10.9407 2.6852 31.6571
89 1 10.4946 1.14665 33.8048
90 1 13.7583 6.48265 36.4304
91 1 8.74129 1.03726 38.92
92 1 7.66886 1.99556 5.92668
93 1 7.3121 4.80626 5.90616
94 1 6.49982 3.17554 8.4099
95 1 5.98739 1.5918 10.8658
96 1 5.37556 4.39126 10.6732
97 1 4.7913 2.87474 12.9151
98 1 4.32796 1.54807 15.3078
99 1 3.76937 4.33665 15.3918
100 1 3.18247 2.72574 17.5954
101 1 2.7073 1.2102 19.9551
102 1 2.35489 3.95531 19.8962
103 1 1.62004 2.52721 22.2754
104 1 1.1998 0.797831 24.6789
105 1 16.0409 3.7226 24.502
106 1 15.3918 2.10866 26.9957
107 1 14.9525 0.529029 29.3966
108 1 14.2851 3.40822 29.2285
109 1 13.7531 1.79581 31.7314
110 1 13.1096 0.294492 33.9898
111 1 12.6464 3.15666 33.9815
112 1 12.1534 1.59931 36.3086
113 1 11.4464 0.0352398 38.8051
114 1 11.347 2.8279 38.7195
115 1 9.83837 3.9634 5.87618
116 1 9.17809 2.34114 8.36633
117 1 8.72473 5.19553 8.33067
118 1 8.14454 3.4302 10.586
119 1 7.72237 2.11536 12.9691
120 1 6.9847 4.83675 13.1248
121 1 6.64944 3.42184 15.2901
122 1 6.00581 1.80257 17.6023
123 1 5.40111 4.5057 17.7055
124 1 5.02195 2.97802 19.9755
125 1 4.12184 1.50934 22.2844
126 1 3.87894 4.43802 22.3046
127 1 3.35061 2.93295 24.7444
128 1 2.80378 1.25975 27.0557
129 1 17.7518 3.96827 26.8663
130 1 1.76688 2.56365 29.2865
131 1 1.20796 0.907008 31.5757
132 1 15.9292 3.72939 31.6994
133 1 15.4047 2.26585 33.9563
134 1 14.8657 0.874916 36.184
135 1 14.4742 3.74257 36.3318
136 1 13.9934 1.87403 38.484
137 1 11.5725 4.09706 8.3984
138 1 10.3497 5.56837 10.6107
139 1 9.83706 3.91798 12.8735
140 1 9.3409 2.33268 15.2174
141 1 8.77889 5.30418 15.4455
142 1 8.11344 3.87499 17.7153
143 1 7.71301 2.14812 20.0988
144 1 7.13521 5.09722 19.7848
145 1 6.57301 3.44632 22.293
146 1 5.94276 1.85766 24.6767
147 1 5.69214 4.7608 24.5668
148 1 5.24228 3.1449 27.0133
149 1 4.62057 1.68342 29.3426
150 1 4.00507 4.51125 29.4191
151 1 3.36205 2.89858 31.6583
152 1 2.73205 1.12657 33.954
153 1 17.6167 4.13778 33.934
154 1 1.68486 2.72515 36.3891
155 1 1.10949 0.874261 38.7392
156 1 16.0868 3.81206 38.8447
157 1 14.8326 4.92381 5.96727
158 1 13.2519 4.46594 10.7535
159 1 11.4302 4.15186 15.3322
160 1 10.5689 5.57132 17.7211
161 1 9.79535 4.03639 20.1397
162 1 9.25507 2.40584 22.3974
163 1 8.69173 5.30889 22.2088
164 1 8.13653 3.7216 24.5199
165 1 7.71164 2.31965 26.9976
166 1 7.31587 5.14302 26.9149
167 1 6.80099 3.41035 29.3374
168 1 6.25028 1.9114 31.7028
169 1 5.78739 4.91351 31.5839
170 1 4.95201 3.26204 33.8472
171 1 4.26098 1.42504 36.283
172 1 3.88987 4.61792 36.4506
173 1 3.28092 2.84032 38.7304
174 1 16.6194 5.20495 8.20642
175 1 14.9374 4.83967 12.9386
176 1 13.2462 4.65176 17.4584
177 1 11.4053 4.40402 22.3419
178 1 10.4952 5.79371 24.7045
179 1 9.90968 4.2094 27.0092
180 1 9.38705 2.48267 29.3878
181 1 8.98816 5.29655 29.3403
182 1 8.39385 3.72959 31.5868
183 1 7.78261 2.1328 34.0113
184 1 7.18985 4.8763 33.9756
185 1 6.52791 3.51027 36.2912
186 1 5.8863 1.65314 38.6298
187 1 5.33694 4.99134 39.2065
188 1 18.1928 5.52698 10.628
189 1 16.5711 5.27143 15.3889
190 1 14.7937 5.01044 20.1386
191 1 13.4131 4.71928 24.7181
192 1 11.6306 4.41112 29.3215
193 1 10.6279 5.67532 31.5504
194 1 10.0179 4.13198 33.9455
195 1 9.38996 2.52288 36.1947
196 1 8.91561 5.38617 36.2168
197 1 8.09195 3.64873 38.3254
198 1 18.1374 5.67735 17.6863
199 1 16.546 5.2712 22.3094
200 1 15.0221 5.05229 26.9691
201 1 13.3869 4.57636 31.6091
202 1 11.6626 4.43135 36.3254
203 1 10.6567 5.66441 38.6824
204 1 18.1583 5.62675 24.7057
205 1 16.616 5.4045 29.3455
206 1 14.8432 5.11793 33.9949
207 1 13.2941 4.71724 38.8095
208 1 18.1976 5.7737 31.6277
209 1 16.659 5.51285 36.4377
210 1 18.1073 5.78357 38.9928
211 2 14.6233 1.25245 102.2
212 1 15.0162 0.786217 99.6161
213 1 3.77567 0.12758 103.251
214 1 2.53879 0.944919 98.9528
215 1 1.65433 1.25008 101.49
216 2 0.759817 0.319244 96.9532
217 1 14.9895 1.24646 94.6896
218 1 6.09248 1.33994 102.716
219 1 6.78758 0.959225 100.025
220 1 6.08181 6.57901 94.7708
221 1 4.84573 2.36965 98.8158
222 2 4.35883 0.892624 100.995
223 1 4.19008 1.32312 93.7696
224 1 2.19224 2.59583 95.245
225 1 0.531886 0.705315 90.8808
226 1 3.36187 1.89629 90.9309
227 2 1.63321 1.68315 92.9748
228 1 0.861399 0.941007 88.25
229 1 8.19484 -0.245919 95.7103
230 1 7.42754 1.35505 89.1413
231 1 8.98638 6.57825 89.9545
232 1 11.9937 4.59556 103.37
233 1 3.77604 2.84478 102.68
234 1 8.38971 2.81363 101.817
235 1 6.28983 4.11885 103.27
236 2 8.2132 0.143742 102.156
237 2 5.86109 3.23883 101.014
238 1 7.32066 3.50915 98.9552
239 2 6.72407 1.25635 97.4037
240 1 5.11124 2.7705 96.1776
241 1 12.6011 1.86947 103.488
242 1 10.3406 1.17345 101.385
243 1 14.2974 5.76801 98.9971
244 2 11.6204 1.22892 98.9571
245 1 10.22 3.37666 99.7692
246 1 9.03255 1.5208 98.0487
247 1 10.9873 0.470386 96.6473
248 1 8.31566 2.58071 95.7571
249 1 11.5122 3.04574 97.0847
250 2 9.37658 4.21042 97.2785
251 1 8.41193 3.2376 93.001
252 2 9.04531 1.83558 91.0199
253 1 10.3205 4.05632 90.9738
254 1 6.35624 1.7283 91.6147
255 1 8.68062 0.431924 93.1127
256 1 10.4522 4.12033 94.8943
257 1 7.32823 3.9305 90.2646
258 1 9.72244 2.57694 88.7131
259 1 12.8898 2.19439 100.763
260 2 10.7764 3.19579 102.419
261 1 12.4978 4.81531 100.661
262 2 13.4485 3.48829 98.7746
263 1 15.15 3.62488 100.581
264 1 11.5128 5.57669 98.096
265 1 13.9306 4.27757 96.4301
266 2 6.69828 1.40339 94.3096
267 2 5.28252 2.63209 89.2797
268 1 11.0383 5.32009 88.6581
269 1 2.59169 3.70877 99.9581
270 1 13.639 1.46996 97.0846
271 1 11.0053 1.94759 92.8443
272 1 11.6575 1.37909 90.2209
273 2 14.2391 1.7669 89.4985
274 1 12.1607 2.8434 88.0236
275 2 3.19926 3.89377 97.425
276 1 15.9222 3.06336 97.8895
277 1 16.4412 4.89587 95.9163
278 2 12.7093 2.56145 94.7739
279 1 13.7218 2.06191 92.1485
280 2 14.388 6.11489 94.3419
281 1 12.4566 4.4407 93.0118
282 1 13.1006 4.00784 90.293
283 1 15.3039 3.84566 93.4841
284 1 16.1663 3.52966 91.0195
285 1 13.6078 6.50343 89.1595
286 1 14.6266 5.35262 102.675
287 1 5.24582 -0.0369816 96.0377
288 2 16.9816 4.14536 102.584
289 1 16.6414 6.12694 100.875
290 1 4.83671 5.1252 99.1273
291 1 4.20055 5.50788 101.756
292 1 17.1856 5.75381 98.3279
293 1 16.9999 6.3606 93.605
294 1 17.5712 5.83111 91.047
295 1 14.925 5.79623 91.5391
296 2 15.8575 5.23007 88.9722
297 1 5.86426 3.7812 93.7947
298 1 3.80228 5.08552 95.2389
299 1 2.96204 3.84018 92.9508
300 1 4.84542 4.56517 90.823
301 2 4.37349 5.93738 92.9612
302 1 9.86829 5.4635 101.877
303 1 6.81658 5.21446 96.937
304 1 7.07128 5.38256 100.994
305 1 8.87449 6.10567 98.8657
306 2 8.00197 4.97607 94.6609
307 1 6.93106 6.03623 92.1876
308 1 2.75388 3.69533 88.9243
309 2 6.54371 6.37443 89.5802
310 1 9.94158 5.96982 93.0643
311 2 11.6155 6.14459 91.0298
312 1 5.32702 4.81214 87.9572
313 1 3.7646 1.20287 87.775
314 1 13.3982 0.757478 87.2004
315 2 16.9035 6.58152 84.9408
316 1 14.3275 0.234419 82.7581
317 1 6.15332 2.40952 82.9233
318 1 2.25149 0.0647571 83.5257
319 2 0.95703 0.764508 81.2655
320 1 18.9953 5.99959 77.0323
321 1 1.6181 0.0522388 75.1996
322 1 5.61883 6.4779 78.8759
323 1 14.1578 -0.0739733 74.0432
324 1 4.28599 1.58734 84.977
325 2 4.78692 0.276127 82.9925
326 1 6.76429 0.178746 84.922
327 1 3.29307 2.27386 82.157
328 1 5.32624 1.19081 80.5913
329 1 2.35449 1.25191 72.8016
330 1 9.5053 0.317826 84.0873
331 2 13.7081 6.38908 81.4912
332 1 7.29979 -0.190269 82.2878
333 1 7.84541 1.03653 79.9705
334 2 6.01401 2.32175 78.3216
335 1 3.86564 0.410517 76.9597
336 1 4.50646 0.121831 74.3601
337 1 10.8164 6.51008 77.695
338 1 11.534 5.98322 75.1677
339 1 6.27373 2.11607 86.8058
340 1 16.6437 2.64506 79.9798
341 2 8.57009 0.673412 86.8518
342 2 10.1202 3.97714 86.5063
343 1 8.43756 2.6827 84.9104
344 1 11.8404 1.60109 82.9582
345 1 11.3257 1.92627 85.6112
346 1 10.6251 4.08687 83.7556
347 1 9.00656 2.36881 82.2741
348 1 8.32251 2.40827 77.5024
349 1 8.9685 1.96208 74.7508
350 1 6.31612 1.74035 75.7684
351 2 7.22793 1.33929 73.0302
352 1 14.6903 3.22658 87.0869
353 1 13.3441 4.27172 83.042
354 1 12.5782 4.69301 85.7416
355 2 11.5748 3.66988 81.0714
356 1 10.3936 4.01873 78.7055
357 1 17.0231 4.73297 86.7603
358 1 2.72965 4.37537 84.1656
359 1 16.3376 6.62006 77.7013
360 1 10.4425 1.23011 79.3443
361 1 12.6441 2.63014 78.8114
362 1 13.7589 6.65349 77.0325
363 1 11.5349 0.535921 74.9206
364 2 10.7836 2.22765 76.8194
365 1 1.60936 2.12229 85.7936
366 1 15.6247 5.66044 82.8197
367 2 15.2473 4.22488 84.8915
368 1 13.9946 2.16182 81.022
369 1 14.103 2.03245 84.7634
370 1 15.9244 2.81332 82.8455
371 2 14.7532 1.40475 78.457
372 1 13.7039 2.12312 76.0823
373 1 15.002 3.99244 77.7657
374 1 12.785 5.33982 79.2941
375 1 13.4458 6.36002 73.0479
376 1 11.3055 3.41497 74.8436
377 2 13.225 2.32847 73.5868
378 1 13.9055 4.63191 74.942
379 2 12.4967 4.44199 77.0038
380 1 11.6648 3.77826 72.2534
381 1 4.30033 3.74418 79.6918
382 1 1.46175 2.12307 77.1492
383 1 2.69323 3.90113 73.1335
384 1 15.7203 2.66576 74.2009
385 2 2.88646 2.27819 75.0926
386 1 11.932 0.917426 72.0938
387 1 14.8288 6.06571 86.6393
388 1 4.02859 6.08884 85.7505
389 2 3.90987 3.48763 86.5756
390 2 17.5269 4.4614 81.4804
391 1 15.4506 5.31399 80.1836
392 1 8.2035 4.79496 87.704
393 1 5.84159 4.27803 85.0346
394 2 7.50708 4.57589 82.9161
395 1 4.80557 4.90321 82.0777
396 1 6.97758 3.48577 80.5861
397 1 18.0892 6.23029 79.9036
398 1 7.09531 6.30311 80.9722
399 2 4.33448 4.58096 74.9221
400 1 16.9109 4.50505 75.7415
401 1 4.03944 3.16067 77.0234
402 1 4.93232 5.30097 72.7842
403 1 8.52099 5.44121 85.1233
404 2 6.49705 6.42328 86.2896
405 2 17.4403 4.40871 78.3368
406 2 15.8708 5.34323 73.3988
407 1 9.34157 4.95161 81.2083
408 1 6.25612 4.523 76.7724
409 1 7.00924 4.12825 74.2112
410 2 9.74199 4.77099 73.4775
411 1 7.53193 5.80807 72.0036
412 2 8.08741 5.27004 78.8802
413 1 8.97763 4.72984 76.2741
414 1 5.02376 2.50035 73.3134
415 2 1.38753 0.159176 70.5237
416 1 6.06554 6.70159 67.7193
417 1 10.1117 6.11797 71.2783
418 1 8.72023 6.84643 67.0833
419 1 3.99788 0.610542 69.7011
420 2 6.97722 6.09474 65.1147
421 1 1.91795 0.3466 62.8188
422 1 8.45779 0.830506 70.8474
423 1 9.37915 0.371153 68.2714
424 1 8.14224 5.61659 62.8577
425 1 7.06541 1.70446 66.9061
426 2 6.82892 0.218868 68.9053
427 1 6.39746 0.312928 61.8951
428 1 4.38663 1.60214 63.5681
429 1 6.81759 6.48191 59.036
430 1 5.47945 0.917952 58.9539
431 2 3.87259 0.834453 61.2022
432 1 6.65989 5.92603 56.318
433 1 14.7181 6.12562 63.9485
434 1 9.44609 0.34531 57.3164
435 1 11.2201 5.58513 58.2064
436 1 14.5073 3.94144 71.9525
437 1 6.14918 2.15847 70.7881
438 1 10.672 2.31607 69.8789
439 1 8.84009 3.50312 71.5278
440 2 14.4491 6.17185 70.6038
441 2 8.07817 2.52352 68.9647
442 1 9.75685 2.74163 66.9981
443 2 9.03983 0.490715 65.7373
444 1 7.21001 1.74677 64.4136
445 1 14.7511 0.966522 71.737
446 1 12.3318 0.248102 69.0997
447 1 16.8655 4.96692 67.0942
448 2 14.0098 0.504561 67.1274
449 1 12.7969 2.85271 67.7729
450 1 11.5556 0.953781 66.2509
451 1 17.4964 6.26139 64.8042
452 1 10.1116 2.17369 64.0446
453 1 13.8291 2.26585 65.1571
454 2 11.7275 3.479 65.4218
455 1 10.5754 2.40515 61.2746
456 2 11.2783 0.918567 59.142
457 1 12.465 3.09755 59.1383
458 1 8.5246 1.07817 59.7927
459 1 14.8307 6.30209 61.2666
460 1 12.7645 3.08605 62.9267
461 1 9.76133 2.99586 58.2618
462 1 11.8058 1.75967 56.7237
463 1 15.1334 1.36034 69.1484
464 2 13.1955 2.43782 70.3461
465 1 14.9648 4.37901 69.1641
466 2 15.4659 2.76127 67.1374
467 1 2.13719 2.79419 69.1074
468 1 14.0225 4.87429 66.3168
469 1 16.0359 3.53524 64.8561
470 2 8.90645 0.612912 62.4859
471 2 7.32575 1.52779 57.3976
472 1 13.3658 4.31289 56.8385
473 1 4.86088 2.98087 68.3407
474 1 0.846708 0.867357 65.3458
475 1 13.2027 1.11266 60.8991
476 1 13.8024 0.469801 58.3781
477 2 0.787559 0.530735 57.4514
478 1 14.1511 1.88139 55.8851
479 2 5.48204 2.97769 65.5718
480 1 2.9195 2.44298 66.4107
481 1 3.29758 3.97287 64.1135
482 2 15.1086 1.75608 62.9134
483 1 15.8818 1.12653 60.183
484 2 16.4585 4.95467 62.5592
485 1 14.7071 3.50626 60.8392
486 1 15.3459 3.15255 58.2375
487 1 2.22954 2.8566 61.8071
488 1 3.08536 2.51428 59.1697
489 1 15.893 5.76435 57.2633
490 1 17.1385 5.18349 71.0136
491 1 11.9268 5.61176 64.0491
492 2 3.91887 3.72811 71.0021
493 1 3.68448 5.4475 68.8547
494 1 7.33561 4.24584 67.0736
495 1 6.64044 4.75904 69.7746
496 1 4.38504 5.10919 66.3913
497 1 3.78167 5.36837 61.7771
498 1 4.59149 5.10496 59.1966
499 1 16.9941 4.81735 59.825
500 2 2.72705 4.25715 57.1126
501 1 7.9762 3.01106 61.9454
502 1 5.92021 4.01724 63.1963
503 1 5.28507 2.80039 60.9367
504 1 7.07092 3.5938 58.8957
505 2 6.41824 5.00224 60.9295
506 1 12.2442 4.90754 69.7943
507 1 9.37816 4.81909 65.0804
508 1 9.45296 4.69891 68.9239
509 1 11.2851 5.49003 66.9153
510 2 10.3251 4.41186 62.6458
511 1 9.1467 5.03756 60.3318
512 1 5.19103 3.16451 57.1165
513 2 8.70951 5.23167 57.6527
514 1 12.2258 5.06189 61.1573
515 2 13.8481 5.26082 59.1382
516 1 7.89554 3.41202 55.9684
517 1 5.36609 0.387757 55.9801
518 1 3.86098 6.20034 55.2561
519 2 3.40288 5.2907 53.0113
520 1 4.98684 5.3629 50.8696
521 1 8.11173 0.951445 51.1533
522 1 8.15875 5.22269 51.6101
523 2 7.04392 5.99022 49.3401
524 1 6.0065 4.88836 44.9627
525 1 7.865 5.28858 43.14
526 1 7.79918 5.13275 46.9153
527 1 5.14305 5.47417 42.2175
528 1 6.13116 0.194821 52.9731
529 2 10.9298 5.34241 50.9017
530 1 12.6411 5.5132 52.9127
531 1 5.48184 0.751647 50.1557
532 1 11.32 6.35371 48.5215
533 1 8.66421 6.47884 40.8103
534 1 15.449 5.51944 52.1788
535 2 16.1802 5.3675 49.6192
536 1 13.4867 5.0006 50.2773
537 1 14.069 6.4011 48.0731
538 2 8.1146 1.03084 46.4113
539 1 9.96131 5.7146 45.081
540 1 10.7128 5.34555 42.3909
541 1 12.9863 5.18693 45.8891
542 1 13.9111 4.78546 43.1505
543 1 8.05419 0.689856 55.0252
544 1 3.50591 1.25638 48.051
545 2 14.4558 5.98183 54.9067
546 2 12.3812 3.1961 54.448
547 1 10.3545 1.2528 52.954
548 1 13.9253 0.284619 51.0691
549 1 13.1373 0.641407 53.6191
550 1 12.7817 2.72549 51.6721
551 1 11.1477 0.826958 50.3577
552 1 10.4378 0.985407 45.5282
553 1 11.2621 0.649098 43.0291
554 1 8.47026 0.375427 43.7421
555 2 9.5152 -0.0160274 40.9436
556 1 1.53344 1.75334 55.2837
557 1 15.4381 2.71513 50.9321
558 1 14.7635 3.20169 53.485
559 2 13.5796 1.93661 49.1521
560 1 12.481 2.64369 46.8543
561 1 3.61464 3.41122 54.8646
562 1 4.7666 2.91511 52.2204
563 1 3.36223 5.25143 45.7496
564 1 16.6041 6.56223 47.3166
565 1 14.7496 1.23657 46.9072
566 1 15.7773 5.24394 45.1348
567 1 17.82 5.87714 42.9382
568 2 13.1689 0.770184 45.0466
569 1 3.64699 0.778774 53.7556
570 1 2.37602 4.23759 51.069
571 2 2.07619 2.82654 52.9644
572 1 0.716033 0.788189 49.0738
573 1 0.81534 0.60207 52.8714
574 1 2.81644 1.28304 50.8737
575 2 1.66174 0.0541305 46.6807
576 1 0.532376 0.774604 44.2254
577 1 1.79689 2.62319 46.0418
578 1 15.1276 3.88868 47.636
579 1 15.7965 5.27013 41.1449
580 1 13.5305 2.1226 43.1343
581 2 15.2082 0.771416 41.3822
582 1 16.3072 3.37844 43.0779
583 2 14.587 3.04677 45.2033
584 1 14.3092 3.05486 40.7692
585 1 6.23758 2.23184 47.7195
586 1 3.50926 0.79552 45.1766
587 1 4.7112 2.58544 41.03
588 1 2.5449 1.11038 41.8479
589 2 5.05809 0.808473 43.0521
590 1 12.8558 0.97594 40.8666
591 1 16.6824 4.72725 54.7761
592 1 5.89701 4.84409 53.8579
593 2 5.85647 2.28171 54.6175
594 2 4.36508 3.10044 49.6903
595 1 2.56629 4.10499 48.2705
596 1 10.5573 4.30812 55.7944
597 1 8.01872 2.92943 53.3408
598 2 9.6067 3.03409 51.1241
599 1 6.71807 3.39176 50.2246
600 1 8.96445 2.05309 48.76
601 1 5.11157 4.73124 47.9045
602 1 9.16099 4.79138 49.0823
603 2 6.5799 3.06454 42.8961
604 1 3.70274 3.33142 43.5395
605 1 6.15238 1.91372 45.0582
606 1 7.08361 4.01832 40.7577
607 1 10.4825 3.98851 53.1355
608 2 8.60295 5.26398 54.3425
609 2 4.25529 3.0807 46.4373
610 2 2.43776 3.72096 41.0244
611 1 11.4597 3.44655 49.2259
612 1 8.54501 3.27098 44.9673
613 1 9.26974 2.63891 42.4629
614 2 11.7787 3.14362 41.4539
615 1 9.73669 4.08526 40.3544
616 2 10.2419 3.86301 46.9788
617 1 11.3695 3.45609 44.4018
618 1 7.21122 1.13354 41.2554
ITEM: TIMESTEP
4100
ITEM: NUMBER OF ATOMS
618
ITEM: BOX BOUNDS xy xz yz pp pp ff
0.0000000000000000e+00 1.9317770367296919e+01 4.0025167278329121e+00
0.0000000000000000e+00 6.6702723500479264e+00 0.0000000000000000e+00
0.0000000000000000e+00 1.0921147561319708e+02 0.0000000000000000e+00
ITEM: ATOMS id type x y z
1 1 4.58136 5.89284 5.56525
2 1 6.08919 6.19198 8.32261
3 1 4.35506 5.82612 12.8352
4 1 9.40502 6.8477 5.91778
5 1 7.70245 6.56552 10.6072
6 1 6.08893 6.14048 15.1593
7 1 4.39376 6.05874 19.8721
8 1 12.0051 5.77332 5.79563
9 1 7.08495 0.376075 8.39121
10 1 9.26257 6.93899 12.9153
11 1 7.69267 6.39441 17.6819
12 1 6.16344 6.3266 22.2874
13 1 4.62538 6.14323 26.9597
14 1 10.4245 1.18653 5.84456
15 1 13.8624 6.19573 8.17055
16 1 8.67052 0.811844 10.6849
17 1 12.0076 5.92612 12.9697
18 1 6.97806 0.422646 15.3199
19 1 5.37855 0.180246 19.7937
20 1 7.78023 6.65901 24.5031
21 1 6.19448 6.36662 29.3196
22 1 4.54185 6.1128 34.0843
23 1 13.1509 0.295157 5.73532
24 1 12.5984 3.07176 5.8491
25 1 12.0558 1.49652 8.30818
26 1 15.4454 6.47355 10.7372
27 1 10.8099 2.50599 10.707
28 1 10.2312 1.03047 13.0242
29 1 13.6655 6.2787 15.288
30 1 8.57129 0.571451 17.6301
31 1 12.0848 6.06592 19.9861
32 1 7.07798 0.572808 22.1697
33 1 5.50626 0.343106 26.7001
34 1 7.75365 6.58549 31.6074
35 1 6.20172 6.39386 36.3172
36 1 15.2893 2.27115 5.73277
37 1 14.6913 0.463421 8.17703
38 1 14.1702 3.33507 8.37029
39 1 13.477 1.5432 10.6956
40 1 13.0219 0.0212068 13.0455
41 1 12.6377 2.99337 12.9267
42 1 11.8621 1.40556 15.234
43 1 15.3384 6.44841 17.619
44 1 10.8938 2.84002 17.48
45 1 10.4233 1.23854 19.907
46 1 13.7425 6.16004 22.2878
47 1 8.81672 0.880174 24.4954
48 1 12.142 6.07995 27.0211
49 1 7.13037 0.656369 29.3069
50 1 5.5328 0.100199 33.9483
51 1 7.51434 6.83723 38.4721
52 1 2.56698 1.11685 5.80935
53 1 2.3282 4.21339 5.62915
54 1 1.59889 2.40988 8.20399
55 1 0.894506 0.792124 10.6239
56 1 15.8006 3.60896 10.5908
57 1 15.3443 2.10205 12.905
58 1 14.6348 0.398923 15.1872
59 1 14.0543 3.36829 15.3248
60 1 13.5235 1.77178 17.5967
61 1 12.9737 0.34371 19.7733
62 1 12.5338 3.09953 19.9895
63 1 11.8387 1.56345 22.2744
64 1 15.4634 6.63832 24.5826
65 1 10.9295 2.63951 24.5056
66 1 10.5893 1.02156 26.8425
67 1 13.7668 6.14123 29.1993
68 1 8.6012 0.92241 31.6063
69 1 12.3294 5.98758 33.9634
70 1 7.06953 0.557584 36.2068
71 1 4.82765 3.00033 5.81129
72 1 4.37051 1.22675 8.21986
73 1 3.86382 4.22694 8.22358
74 1 3.24216 2.67336 10.4413
75 1 2.65368 1.09998 12.9279
76 1 17.6442 3.76078 12.8263
77 1 1.57792 2.34769 15.3677
78 1 0.927181 0.815942 17.4773
79 1 15.7946 3.5871 17.5245
80 1 15.2278 2.13998 19.7895
81 1 14.7499 0.55279 22.0979
82 1 14.3256 3.49006 22.1562
83 1 13.628 1.9515 24.4146
84 1 13.2846 0.236651 26.8571
85 1 12.6383 2.94146 26.9207
86 1 12.1432 1.40878 29.3157
87 1 15.4042 6.55827 31.606
88 1 10.9996 2.77142 31.6855
89 1 10.4501 1.26033 33.9611
90 1 13.9337 6.35947 36.4226
91 1 8.62745 1.10261 38.8431
92 1 7.74018 1.83694 5.89321
93 1 7.31279 4.8337 5.77134
94 1 6.57809 3.15708 8.29888
95 1 5.88379 1.66154 10.4954
96 1 5.56236 4.5445 10.4596
97 1 4.9055 3.05433 12.9929
98 1 4.22104 1.25982 15.3999
99 1 3.72806 4.40527 15.2593
100 1 3.3113 2.81634 17.6996
101 1 2.59096 1.24858 19.9789
102 1 2.11848 4.20676 19.9931
103 1 1.59955 2.52551 22.1914
104 1 1.1544 0.995761 24.4866
105 1 15.9083 3.90254 24.7782
106 1 15.4892 2.23448 27.0098
107 1 14.8221 0.51767 29.3176
108 1 14.2488 3.39899 29.3062
109 1 13.8196 1.78255 31.5818
110 1 13.164 0.383899 33.8465
111 1 12.7021 3.07747 33.9765
112 1 11.9701 1.68407 36.3982
113 1 11.2951 0.211065 38.8541
114 1 11.5423 2.91597 39.0253
115 1 9.82652 3.87861 6.08001
116 1 9.26848 2.22716 8.51019
117 1 8.75764 5.08918 8.38005
118 1 8.12169 3.43963 10.8007
119 1 7.43598 1.91883 13.0151
120 1 7.16434 4.82671 12.9856
121 1 6.50683 3.22823 15.3637
122 1 5.90891 1.76602 17.5958
123 1 5.57855 4.74183 17.5841
124 1 4.83461 3.21702 19.8175
125 1 4.52833 1.57454 22.1588
126 1 3.79267 4.4909 22.2393
127 1 3.38881 2.83125 24.4733
128 1 2.86026 1.34832 26.8078
129 1 17.6003 4.21921 26.9434
130 1 1.82794 2.38947 29.2304
131 1 1.1401 0.940661 31.6693
132 1 16.0658 3.8537 31.6459
133 1 15.4289 2.28783 33.9552
134 1 14.8317 0.596835 36.2921
135 1 14.3486 3.33915 36.167
136 1 13.7482 1.97566 38.4135
137 1 11.4435 4.33885 8.48927
138 1 10.5084 5.38946 10.7627
139 1 9.8242 3.83351 13.1791
140 1 9.08322 2.21873 15.2562
141 1 8.71389 5.21359 15.1882
142 1 8.22229 3.63412 17.5776
143 1 7.56394 2.12646 19.9478
144 1 7.21581 5.01772 19.9958
145 1 6.74657 3.43933 22.2532
146 1 6.26011 1.97475 24.5377
147 1 5.60446 4.74206 24.6028
148 1 4.98014 3.21079 26.8899
149 1 4.37828 1.59478 29.2564
150 1 4.01872 4.54665 29.2906
151 1 3.42502 2.82388 31.6426
152 1 2.79477 1.4045 33.9672
153 1 17.7544 4.26592 34.051
154 1 1.78555 2.59657 36.4031
155 1 0.92169 1.0577 38.9836
156 1 15.8839 3.80713 38.7968
157 1 14.8691 5.03323 5.73297
158 1 13.145 4.57241 10.5309
159 1 11.6267 4.46445 15.196
160 1 10.3489 5.66135 17.4144
161 1 9.78564 4.01042 19.7699
162 1 9.29902 2.64793 22.0116
163 1 8.90867 5.35561 22.2416
164 1 8.37454 3.85806 24.6462
165 1 7.69721 2.14255 26.8675
166 1 7.33752 5.02586 26.9175
167 1 6.59927 3.5997 29.3164
168 1 5.95272 1.86828 31.5595
169 1 5.56045 4.78631 31.7847
170 1 5.11501 3.27312 34.1251
171 1 4.44844 1.55914 36.2467
172 1 3.93133 4.59429 36.4249
173 1 3.30693 2.90294 38.7618
174 1 16.3819 5.17709 8.1621
175 1 14.7244 4.87252 12.916
176 1 13.1197 4.68443 17.5978
177 1 11.5649 4.44363 22.1746
178 1 10.5385 5.67687 24.5453
179 1 10.0185 4.02458 27.001
180 1 9.33488 2.55057 29.3673
181 1 9.06637 5.4216 29.2882
182 1 8.20035 3.71861 31.6109
183 1 7.62453 2.15886 33.8358
184 1 7.12986 5.30537 33.8924
185 1 6.81865 3.45245 36.078
186 1 6.11735 2.03909 38.8764
187 1 5.37266 4.84178 38.8738
188 1 18.0771 5.41381 10.5959
189 1 16.3868 5.17512 15.254
190 1 14.8408 5.11316 19.8827
191 1 13.0463 4.69215 24.5968
192 1 11.5975 4.26513 29.1804
193 1 10.43 5.64891 31.6146
194 1 10.0045 3.91014 33.9916
195 1 9.50987 2.5839 36.5639
196 1 8.81397 5.45432 36.1227
197 1 8.02143 3.9653 38.3206
198 1 17.936 5.53267 17.5482
199 1 16.4076 5.45165 22.3706
200 1 14.6601 5.0051 26.9532
201 1 13.2259 4.7233 31.5465
202 1 11.6689 4.53436 36.3778
203 1 10.4419 5.85492 38.4672
204 1 18.1384 5.67292 24.5527
205 1 16.623 5.38981 29.3118
206 1 14.8636 5.09677 33.9626
207 1 13.19 5.03815 38.9181
208 1 18.2159 5.72173 31.6388
209 1 16.5308 5.4319 36.3309
210 1 17.8009 5.60567 38.8979
211 2 14.6688 1.0851 102.428
212 1 15.0577 0.647251 99.6929
213 1 3.54411 0.19108 103.366
214 1 2.4343 0.811369 98.9684
215 1 1.6845 1.33946 101.714
216 2 0.644847 0.439138 96.9394
217 1 14.9422 1.21119 94.5937
218 1 5.89248 1.44344 102.936
219 1 6.74057 1.1809 100.352
220 1 6.05606 6.58264 94.7305
221 1 4.63966 2.34659 98.8423
222 2 4.15694 1.09976 101.066
223 1 4.34766 1.34078 93.7889
224 1 2.36274 2.59281 95.3206
225 1 0.599918 0.565401 90.7715
226 1 3.28608 1.66671 90.933
227 2 1.74288 1.56368 92.8898
228 1 0.853291 0.940755 88.2405
229 1 8.42719 -0.145141 95.7481
230 1 7.26217 1.15414 89.0602
231 1 8.95207 6.4587 90.2125
232 1 11.9057 4.67173 103.391
233 1 3.78672 2.99915 102.676
234 1 8.35893 2.8044 102.331
235 1 6.19466 4.41681 103.332
236 2 8.32925 0.224898 102.091
237 2 5.93852 3.38331 101.101
238 1 7.37845 3.51363 98.9409
239 2 6.69666 1.22041 97.6888
240 1 5.13249 2.66976 96.1588
241 1 12.7092 1.62487 103.471
242 1 10.495 1.35911 101.698
243 1 14.4395 5.74304 99.3093
244 2 11.5822 1.18953 99.1681
245 1 10.0794 3.40336 99.8455
246 1 9.00762 1.37759 98.2422
247 1 11.0475 0.142654 97.0049
248 1 8.18243 2.64428 95.8839
249 1 11.3772 2.84137 97.0408
250 2 9.22747 4.17421 97.3999
251 1 8.49113 3.19654 93.0594
252 2 8.92968 1.81873 90.8996
253 1 10.3218 4.0199 91.0856
254 1 6.3474 1.84338 91.7241
255 1 8.69948 0.366112 93.0173
256 1 10.5814 4.03428 94.949
257 1 7.40205 3.77713 89.9968
258 1 9.56067 2.69665 88.6316
259 1 13.0074 2.15583 100.896
260 2 11.0012 3.24041 102.333
261 1 12.316 4.82692 100.848
262 2 13.3757 3.47208 98.773
263 1 15.2687 3.59767 100.474
264 1 11.635 5.46537 98.1176
265 1 13.888 4.20007 96.6109
266 2 6.78334 1.40926 94.3668
267 2 5.2197 2.4569 89.4314
268 1 10.8951 5.17894 88.5139
269 1 2.62199 3.6738 99.8677
270 1 13.6231 1.4846 97.134
271 1 10.9801 1.98168 92.8696
272 1 11.7653 1.52955 90.2741
273 2 14.2177 1.8822 89.3856
274 1 11.9998 2.83787 87.8597
275 2 3.19328 3.7349 97.4079
276 1 15.9312 2.98605 97.9259
277 1 16.5226 4.87532 95.9523
278 2 12.8796 2.57327 94.7924
279 1 13.7614 2.05009 92.1933
280 2 14.4761 5.93342 94.4868
281 1 12.5453 4.39395 92.8253
282 1 13.1736 4.07359 90.1049
283 1 15.5597 3.71882 93.7188
284 1 16.0905 3.26978 91.131
285 1 13.6826 6.55417 89.392
286 1 14.603 5.39974 102.708
287 1 5.57432 -0.1985 96.0939
288 2 16.8929 4.14666 102.413
289 1 16.6665 6.24925 100.962
290 1 4.98505 4.93181 99.018
291 1 4.24356 5.5309 101.622
292 1 17.3562 5.71425 98.381
293 1 16.98 6.18487 93.4714
294 1 17.7024 5.87694 90.8977
295 1 14.9625 5.76675 91.7552
296 2 15.7795 5.23785 89.1254
297 1 5.84393 3.8236 93.8606
298 1 3.82602 5.16326 95.1905
299 1 3.02662 3.77984 92.7233
300 1 4.87691 4.42098 90.9263
301 2 4.2011 5.98203 92.8858
302 1 9.84867 5.52578 101.89
303 1 6.69525 5.26594 96.8425
304 1 7.06929 5.5658 100.956
305 1 9.00752 6.17498 98.9213
306 2 8.04253 5.09298 94.622
307 1 6.88241 5.95451 92.2197
308 1 2.77981 3.73167 89.025
309 2 6.51485 6.12421 89.589
310 1 9.90009 6.00306 93.0681
311 2 11.5514 6.15133 90.845
312 1 5.29598 4.72063 88.0798
313 1 3.65643 1.24325 87.996
314 1 13.4245 0.781394 87.0488
315 2 16.7042 6.53725 84.7717
316 1 14.2779 0.0367296 82.7742
317 1 5.87453 2.3783 83.3377
318 1 2.10478 0.055827 83.7221
319 2 0.881111 0.674628 81.3629
320 1 19.1107 6.07146 77.1596
321 1 1.65012 -0.0603417 75.0715
322 1 5.89564 6.41939 79.0232
323 1 14.1507 -0.0367891 74.2365
324 1 4.10386 1.32031 85.2746
325 2 4.79806 0.0051766 83.0394
326 1 6.7853 0.314034 85.0339
327 1 3.06091 2.11429 82.1968
328 1 5.39105 1.14405 80.7966
329 1 2.40512 1.34463 72.6919
330 1 9.56643 0.186101 84.1921
331 2 13.7238 6.36585 81.4099
332 1 7.42399 -0.217431 82.4381
333 1 7.9013 1.11981 79.9117
334 2 5.90749 2.44956 78.5162
335 1 3.82436 0.439452 77.0483
336 1 4.53162 0.177172 74.361
337 1 10.6779 6.78664 77.6529
338 1 11.4256 6.24338 75.0889
339 1 6.35411 2.33428 87.0497
340 1 16.8032 2.54713 79.8769
341 2 8.63428 0.856553 86.8864
342 2 10.0609 4.02295 86.3636
343 1 8.46587 2.57419 84.7729
344 1 11.872 1.58877 82.845
345 1 11.2798 1.94681 85.4405
346 1 10.7 4.05407 83.6584
347 1 9.0516 2.26951 82.141
348 1 8.40671 2.42815 77.6791
349 1 8.99325 2.27473 75.0567
350 1 6.22354 1.94784 75.8076
351 2 6.93599 1.18529 73.0906
352 1 14.7847 3.45261 87.3076
353 1 13.3781 4.2725 83.0845
354 1 12.6806 4.62802 85.7121
355 2 11.651 3.54435 80.9892
356 1 10.4502 4.02919 78.6748
357 1 17.1418 4.81345 86.7662
358 1 2.72211 4.0828 84.2244
359 1 16.6291 6.65689 78.0033
360 1 10.5022 1.08302 79.3878
361 1 12.7285 2.6281 78.8895
362 1 13.6799 6.5953 76.7199
363 1 11.6007 0.659426 74.817
364 2 11.118 1.94035 77.0327
365 1 1.51485 2.02164 85.8038
366 1 15.739 5.60192 82.7528
367 2 15.3735 4.11964 85.036
368 1 14.1572 2.41201 81.03
369 1 14.0427 1.98007 84.8271
370 1 15.8967 2.78129 82.9388
371 2 14.9206 1.50686 78.7512
372 1 13.5819 2.10014 76.2605
373 1 14.9939 4.06583 77.8324
374 1 12.7835 5.44363 79.1093
375 1 13.4565 6.40573 73.214
376 1 11.348 3.50101 74.877
377 2 13.2417 2.42562 73.6147
378 1 13.9381 4.51289 74.967
379 2 12.2593 4.47625 76.8892
380 1 11.5032 3.74985 72.2431
381 1 4.18559 3.50349 79.7538
382 1 1.33462 1.99197 77.0063
383 1 2.68543 3.89603 73.13
384 1 15.8264 2.61249 74.2028
385 2 2.9776 2.19832 74.9754
386 1 12.1491 0.830298 72.0954
387 1 14.9054 6.21326 86.7115
388 1 4.07228 6.13077 85.8484
389 2 3.87164 3.516 86.5628
390 2 17.5587 4.41578 81.6173
391 1 15.5339 5.29504 80.1963
392 1 8.32558 5.1457 87.7951
393 1 5.94303 4.40802 85.2465
394 2 7.56103 4.38815 83.0796
395 1 4.76527 4.66926 82.189
396 1 6.90235 3.42082 80.7896
397 1 18.4029 6.18935 80.1734
398 1 7.24632 6.13439 81.2057
399 2 4.38497 4.45791 75.0493
400 1 17.0724 4.47201 75.7741
401 1 4.01594 3.21733 77.0988
402 1 5.02115 5.43941 72.7172
403 1 8.53215 5.26615 85.1642
404 2 6.44144 6.43311 86.5179
405 2 17.4948 4.39592 78.4066
406 2 15.896 5.25843 73.3748
407 1 9.48587 4.90433 81.1673
408 1 6.46924 4.64468 76.8713
409 1 7.13561 4.18062 74.1741
410 2 9.69741 4.7467 73.5592
411 1 7.63361 5.88993 72.1038
412 2 8.23342 5.23445 78.9062
413 1 9.13596 4.82267 76.2205
414 1 5.02284 2.64421 73.2151
415 2 1.58074 0.150748 70.5311
416 1 6.06783 6.82546 67.8016
417 1 10.2099 6.00066 71.2722
418 1 8.66792 6.91293 67.0672
419 1 4.04861 0.684269 69.7065
420 2 6.78486 6.28308 65.2172
421 1 2.03695 0.53699 62.8227
422 1 8.53656 0.762362 70.9192
423 1 9.44319 0.236922 68.1894
424 1 8.1902 5.72581 62.9459
425 1 7.07187 1.69044 66.9508
426 2 6.66773 0.374544 69.0104
427 1 6.41917 0.396449 61.8757
428 1 4.51709 1.80055 63.2753
429 1 6.90356 6.47484 58.8471
430 1 5.52795 1.06721 58.9413
431 2 3.92811 0.718282 60.8303
432 1 6.80851 5.91564 56.1351
433 1 14.644 5.98229 63.7105
434 1 9.65574 0.370292 57.1026
435 1 11.33 5.66737 58.1453
436 1 14.3642 4.05374 72.0578
437 1 6.18068 2.04857 70.7045
438 1 10.8014 2.25576 69.9119
439 1 8.64766 3.4907 71.5021
440 2 14.633 6.14765 70.6335
441 2 8.2958 2.60877 69.1371
442 1 9.77416 2.70514 67.0721
443 2 8.9145 0.642464 65.6155
444 1 7.15082 1.95062 64.2774
445 1 14.9322 0.960933 71.7804
446 1 12.617 0.265524 69.1914
447 1 16.7073 5.02542 67.1604
448 2 14.1063 0.447269 66.9462
449 1 12.8046 2.74273 67.7952
450 1 11.529 0.756007 66.1346
451 1 17.5124 6.28046 64.5946
452 1 10.0749 2.30372 64.0866
453 1 13.7751 2.26548 65.2165
454 2 11.512 3.56328 65.4224
455 1 10.6783 2.44342 61.2595
456 2 11.3031 0.919411 59.0775
457 1 12.5641 3.14004 59.252
458 1 8.66814 0.925142 59.8597
459 1 14.8228 6.20442 61.1162
460 1 12.6635 3.16176 62.9917
461 1 9.59279 3.07173 58.1469
462 1 11.8535 1.94798 56.9168
463 1 15.3158 1.41031 69.1041
464 2 13.277 2.47433 70.5506
465 1 14.8656 4.11093 69.1937
466 2 15.4841 2.85527 67.0091
467 1 2.18676 2.91096 68.9808
468 1 13.8965 4.95766 66.2057
469 1 15.9668 3.65229 64.753
470 2 9.03173 0.747639 62.4306
471 2 7.46689 1.60054 57.4273
472 1 13.4732 4.29983 56.9308
473 1 4.88443 3.00597 68.1553
474 1 0.742092 0.804804 65.3401
475 1 13.2152 1.01279 61.0585
476 1 13.7889 0.683266 58.4583
477 2 1.03648 0.686964 57.545
478 1 14.3737 1.7413 56.0571
479 2 5.361 2.92036 65.5997
480 1 2.70031 2.45171 66.2328
481 1 3.23245 3.93102 64.0924
482 2 15.0125 1.70302 63.0207
483 1 15.9305 1.10968 60.381
484 2 16.6546 4.94001 62.503
485 1 14.8211 3.44607 60.973
486 1 15.4455 3.13906 58.4169
487 1 2.48023 2.94484 61.5604
488 1 2.98199 2.56733 58.8901
489 1 15.982 5.67429 57.1668
490 1 17.17 4.86446 70.9245
491 1 11.7229 5.77592 64.1701
492 2 3.94341 3.36065 70.9115
493 1 3.71874 5.45196 68.9863
494 1 7.28591 4.37485 67.2159
495 1 6.55992 4.72757 69.7212
496 1 4.23171 4.97979 66.3685
497 1 3.85288 5.58263 61.6704
498 1 4.67803 5.09907 59.15
499 1 17.1549 4.98907 59.7605
500 2 2.80513 4.51629 57.0995
501 1 8.12617 3.00433 61.9019
502 1 5.85208 4.2932 63.3624
503 1 5.17791 2.9575 60.9358
504 1 7.11249 3.62536 59.0189
505 2 6.62544 5.16028 61.077
506 1 12.2754 4.90998 69.7879
507 1 9.09291 4.75408 65.1875
508 1 9.52888 4.74621 68.889
509 1 11.2216 5.54547 66.9817
510 2 10.2497 4.42259 62.6974
511 1 9.2127 5.04838 60.2979
512 1 5.39115 3.32806 57.0379
513 2 8.78814 5.31388 57.5658
514 1 12.219 5.07462 61.2865
515 2 13.8309 5.30378 59.0386
516 1 8.09953 3.37295 55.8358
517 1 5.47008 0.508702 56.1474
518 1 4.11411 6.16522 55.2771
519 2 3.44344 5.00371 52.9727
520 1 5.16743 5.1829 50.9525
521 1 8.35102 0.799239 50.9879
522 1 8.23277 5.38452 51.7236
523 2 7.04075 5.90386 49.4002
524 1 5.87338 4.46145 45.1924
525 1 7.75103 5.34454 43.1991
526 1 7.7734 5.0295 46.9119
527 1 5.17665 5.30707 42.0422
528 1 6.32916 0.17055 52.962
529 2 10.8547 5.4788 50.9919
530 1 12.9605 5.26018 52.8889
531 1 5.18718 0.623001 49.8821
532 1 11.5743 6.3382 48.6084
533 1 8.75187 6.65874 40.6973
534 1 15.6038 5.53758 52.361
535 2 16.1247 5.50675 49.596
536 1 13.5725 4.96399 50.2978
537 1 14.207 6.59604 48.0199
538 2 8.24348 1.10129 46.4599
539 1 9.98199 5.70923 45.0332
540 1 10.6231 5.36445 42.4369
541 1 12.8381 5.2775 45.8476
542 1 13.5788 4.7088 43.2562
543 1 8.2595 0.625884 54.9407
544 1 3.18024 1.26184 47.8049
545 2 14.6268 5.95036 55.0052
546 2 12.4351 3.06609 54.6905
547 1 10.3021 1.27617 53.1425
548 1 13.9118 0.0376472 51.1871
549 1 13.3196 0.519057 53.8433
550 1 12.7077 2.52691 51.8959
551 1 11.1289 0.978153 50.515
552 1 10.6246 1.08704 45.6929
553 1 11.1987 0.501224 43.1681
554 1 8.52196 0.434431 43.909
555 2 9.42117 0.193166 41.1461
556 1 1.63455 1.78443 55.2567
557 1 15.3129 2.84163 51.0419
558 1 14.778 2.95507 53.6092
559 2 13.4682 1.83224 49.2484
560 1 12.4707 2.74643 46.7858
561 1 3.87941 3.37174 54.8689
562 1 4.8745 2.67566 52.1653
563 1 3.47082 5.34078 46.018
564 1 16.6434 6.62516 47.3377
565 1 14.889 1.43843 46.9702
566 1 15.7112 5.1992 45.1105
567 1 17.7499 5.69204 42.9534
568 2 13.1381 0.600611 45.1221
569 1 3.79033 0.74856 53.8649
570 1 2.48859 4.07382 50.8842
571 2 2.15726 2.68781 52.9873
572 1 0.642336 0.411167 49.2186
573 1 0.775298 0.446786 52.8189
574 1 2.71775 1.2874 50.8151
575 2 1.5834 0.0536759 46.4619
576 1 0.252048 0.56556 44.1206
577 1 1.72612 2.73969 45.7147
578 1 14.9225 4.09871 47.7118
579 1 15.5176 5.22975 41.1452
580 1 13.3266 2.12678 43.1392
581 2 15.2654 0.765376 41.4529
582 1 16.0744 3.33703 42.9896
583 2 14.5475 3.00075 45.161
584 1 14.2748 2.93933 40.7261
585 1 6.17233 2.05968 47.7605
586 1 3.56956 0.543814 45.1606
587 1 4.69394 2.67762 41.1224
588 1 2.39007 0.954129 42.2591
589 2 5.03953 0.869631 43.0507
590 1 12.9006 0.745255 40.7895
591 1 16.8066 4.56699 54.7515
592 1 6.15223 4.88704 53.7147
593 2 6.11908 2.21413 54.6694
594 2 4.31807 2.91799 49.4805
595 1 2.36934 4.07057 48.1402
596 1 10.8432 4.53847 55.7857
597 1 7.85169 2.87603 53.0275
598 2 9.46766 2.99509 51.0264
599 1 6.8712 3.35396 50.0946
600 1 8.96745 2.20131 48.7
601 1 5.23673 4.72108 48.0258
602 1 9.23654 4.87375 48.9339
603 2 6.34139 3.18941 43.1129
604 1 3.55159 3.26331 43.4959
605 1 6.2891 1.70994 45.2345
606 1 7.22775 4.14622 40.6854
607 1 10.5421 3.96604 53.0982
608 2 8.80567 5.13363 54.4126
609 2 4.18918 2.81308 46.228
610 2 2.32476 3.65773 41.024
611 1 11.4269 3.37449 49.3022
612 1 8.47436 3.36804 44.9381
613 1 9.13845 2.78502 42.3483
614 2 11.6872 3.00313 41.5474
615 1 9.83026 4.18134 40.2537
616 2 10.162 3.76993 46.8829
617 1 11.1398 3.32309 44.2142
618 1 7.15456 1.25479 41.5069
ITEM: TIMESTEP
4200
ITEM: NUMBER OF ATOMS
618
ITEM: BOX BOUNDS xy xz yz pp pp ff
0.0000000000000000e+00 1.9317770367296919e+01 4.0025167278329121e+00
0.0000000000000000e+00 6.6702723500479264e+00 0.0000000000000000e+00
0.0000000000000000e+00 1.0921147561319708e+02 0.0000000000000000e+00
ITEM: ATOMS id type x y z
1 1 4.2753 6.03439 5.98573
2 1 6.04712 6.30484 8.1283
3 1 4.31398 5.89391 12.8802
4 1 9.42665 6.82033 5.6821
5 1 7.64347 6.61092 10.4931
6 1 5.95169 6.19033 15.2549
7 1 4.42285 5.88372 19.9315
8 1 12.2726 5.91259 5.77001
9 1 6.97357 0.544987 8.13556
10 1 9.36967 6.71561 12.9724
11 1 7.68062 6.59849 17.4161
12 1 6.13531 6.40922 22.1881
13 1 4.30128 5.91612 26.8906
14 1 10.267 1.04576 5.62582
15 1 13.6132 6.09192 8.31131
16 1 8.59254 0.849088 10.5375
17 1 11.9541 5.87479 13.0402
18 1 6.97956 0.419124 15.2655
19 1 5.33525 0.236784 19.9908
20 1 7.84209 6.60944 24.6055
21 1 6.00962 6.31222 29.0886
22 1 4.64506 5.83941 33.8354
23 1 12.966 0.25606 5.61008
24 1 12.5465 2.93339 5.56781
25 1 11.8603 1.20448 8.21843
26 1 15.2562 6.59411 10.5632
27 1 10.9034 2.78699 10.4208
28 1 10.2424 1.186 12.8956
29 1 13.5629 6.1411 15.3129
30 1 8.5004 0.916619 17.3995
31 1 11.9717 5.93256 19.7642
32 1 6.98551 0.642516 22.2452
33 1 5.45218 0.264168 26.9787
34 1 7.81807 6.66324 31.5243
35 1 5.99686 6.29308 36.1975
36 1 15.3269 2.1016 5.64757
37 1 14.6064 0.600787 8.39514
38 1 14.2493 3.19685 8.14866
39 1 13.6113 1.89444 10.5316
40 1 12.8663 0.296339 12.8061
41 1 12.461 2.98259 13.0256
42 1 11.932 1.42926 15.2215
43 1 15.3717 6.47741 17.5901
44 1 10.791 2.73948 17.7329
45 1 10.262 1.16525 19.8184
46 1 13.8324 6.343 22.0561
47 1 8.76892 0.95191 24.6002
48 1 12.2444 5.81873 26.7946
49 1 7.04215 0.561532 29.2488
50 1 5.43204 0.518859 33.936
51 1 7.53999 6.72414 38.5087
52 1 2.86445 1.28791 5.79626
53 1 2.15825 4.01578 6.02601
54 1 1.54028 2.40567 8.28276
55 1 1.02807 0.74574 10.5733
56 1 15.8376 3.60409 10.6905
57 1 15.0723 1.86657 12.835
58 1 14.6389 0.388453 15.2713
59 1 14.1988 3.41457 15.2837
60 1 13.725 1.76453 17.6855
61 1 13.127 0.175361 19.8071
62 1 12.5851 2.98766 19.7307
63 1 12.1599 1.52892 22.1256
64 1 15.4011 6.64232 24.4843
65 1 11.1926 2.85947 24.4692
66 1 10.2758 1.19879 26.8539
67 1 13.794 6.42646 29.2386
68 1 8.9322 0.97439 31.5618
69 1 12.0158 6.12838 34.0269
70 1 7.06123 0.754742 36.4364
71 1 4.92184 3.12407 5.76048
72 1 4.21147 1.57262 8.34513
73 1 3.73073 4.3401 8.34883
74 1 3.13425 2.70917 10.6388
75 1 2.62277 1.12431 12.8333
76 1 17.3057 4.12492 12.8913
77 1 1.45847 2.31944 14.9891
78 1 0.970704 0.784399 17.6235
79 1 15.9201 3.79783 17.5315
80 1 15.3235 2.12004 19.8389
81 1 14.8236 0.631279 22.1445
82 1 14.1868 3.50417 22.1072
83 1 13.7085 1.75101 24.6279
84 1 12.9546 0.309442 26.9625
85 1 12.6267 3.32853 26.9284
86 1 12.1914 1.77882 29.1163
87 1 15.6978 6.73104 31.6697
88 1 10.9904 2.97902 31.5658
89 1 10.3996 1.23892 34.0812
90 1 13.6815 6.34725 36.4375
91 1 8.59422 1.37431 39.0284
92 1 7.56223 2.16347 5.72657
93 1 6.98275 5.03607 5.80932
94 1 6.43542 3.47683 8.35584
95 1 6.02284 1.84249 10.4994
96 1 5.31678 4.58567 10.6239
97 1 4.7421 2.91979 12.8427
98 1 4.23176 1.38943 14.9697
99 1 3.76667 4.26346 15.0733
100 1 3.07585 2.65674 17.4337
101 1 2.75164 1.19855 19.7781
102 1 2.22625 3.90474 19.7269
103 1 1.78168 2.44963 22.1824
104 1 1.2442 0.962509 24.5641
105 1 16.0221 3.80691 24.2693
106 1 15.2402 2.16457 26.7902
107 1 14.6451 0.647192 29.1002
108 1 14.1816 3.62368 29.192
109 1 13.5562 1.93331 31.6033
110 1 13.1172 0.228298 33.947
111 1 12.6172 3.29692 34.0147
112 1 12.1222 1.39443 36.1793
113 1 11.0126 0.0544293 38.8464
114 1 11.3232 2.76118 38.813
115 1 9.98148 3.98076 5.4378
116 1 9.37561 2.41373 8.09995
117 1 8.87692 5.37895 8.01497
118 1 8.26507 3.60778 10.3219
119 1 7.72767 2.08423 12.8314
120 1 7.06108 4.96615 12.8238
121 1 6.49984 3.32617 15.065
122 1 5.75219 1.63108 17.5023
123 1 5.25243 4.54685 17.5403
124 1 4.88775 3.05412 19.8891
125 1 4.31122 1.51242 22.4153
126 1 3.91477 4.52639 22.2239
127 1 3.27235 2.87392 24.6488
128 1 2.57622 1.26564 26.9443
129 1 17.5667 4.09489 26.8066
130 1 1.62617 2.56032 29.1808
131 1 1.04896 0.837312 31.4649
132 1 15.8095 3.92228 31.5149
133 1 15.3166 2.06146 33.9624
134 1 14.7761 0.62858 36.2071
135 1 14.1807 3.45619 36.342
136 1 13.671 1.72968 38.3864
137 1 11.592 4.14127 8.08013
138 1 10.3775 5.62951 10.4099
139 1 9.7363 4.01912 12.8112
140 1 9.12446 2.45022 15.1178
141 1 8.64176 5.24115 15.3647
142 1 7.96227 3.89392 17.497
143 1 7.64447 2.28164 19.9308
144 1 7.12371 5.00971 19.786
145 1 6.60112 3.46716 22.2467
146 1 5.83363 1.85446 24.6151
147 1 5.61197 4.8361 24.536
148 1 4.93654 3.05651 26.8013
149 1 4.31187 1.52393 29.1811
150 1 3.84701 4.3367 29.1141
151 1 3.32652 2.81862 31.4441
152 1 2.76235 1.08347 34.003
153 1 17.5422 3.92894 33.9028
154 1 1.6406 2.47941 36.4537
155 1 1.01725 1.13081 39.1928
156 1 15.9348 3.93843 38.8807
157 1 14.8625 4.95813 5.77412
158 1 12.9983 4.56903 10.7212
159 1 11.2984 4.25333 15.3503
160 1 10.2522 5.63523 17.6457
161 1 9.85385 4.02249 20.1043
162 1 9.3573 2.42203 22.3867
163 1 8.8555 5.39001 22.2901
164 1 8.10053 3.77051 24.4562
165 1 7.57158 2.19445 26.7475
166 1 7.16942 5.04747 26.7634
167 1 6.61633 3.35139 29.1995
168 1 6.2068 1.94757 31.5426
169 1 5.55767 4.67579 31.4275
170 1 4.91914 3.23856 33.7464
171 1 4.3672 1.66352 36.2698
172 1 3.96061 4.59593 36.3374
173 1 3.12306 2.96123 38.8682
174 1 16.367 5.16939 8.43748
175 1 14.6905 4.99891 12.8636
176 1 13.0509 4.6066 17.4305
177 1 11.6006 4.33026 22.2601
178 1 10.4689 5.64473 24.4033
179 1 9.95206 4.19304 26.8029
180 1 9.27542 2.57356 29.2136
181 1 8.65499 5.19513 29.1937
182 1 8.37982 3.92235 31.5086
183 1 7.89456 2.22594 33.8706
184 1 7.27633 4.97539 33.8144
185 1 6.47703 3.58053 36.1641
186 1 5.81744 2.06779 38.6989
187 1 5.18154 4.97232 39.0887
188 1 18.0056 5.61381 10.7598
189 1 16.4905 5.31818 15.3675
190 1 14.8244 4.99373 19.806
191 1 13.3911 4.7808 24.3526
192 1 11.6094 4.60874 29.1509
193 1 10.6233 5.78183 31.5811
194 1 9.99505 4.29637 33.8729
195 1 9.58119 2.56784 36.2005
196 1 8.84589 5.58775 36.2228
197 1 8.15223 3.9252 38.307
198 1 18.0668 5.68031 17.4685
199 1 16.5926 5.25064 21.9923
200 1 15.072 5.12115 26.7931
201 1 13.2729 4.88558 31.6619
202 1 11.6901 4.46443 36.4174
203 1 10.6036 5.72277 38.6081
204 1 18.1116 5.6271 24.4981
205 1 16.4368 5.50102 29.1326
206 1 14.8747 5.04828 33.9455
207 1 13.1401 4.88343 38.9625
208 1 18.1838 5.79383 31.4909
209 1 16.5009 5.24793 36.419
210 1 17.9691 5.63181 38.9421
211 2 14.4891 0.955884 102.272
212 1 14.999 0.742264 99.6762
213 1 3.65061 0.136016 103.327
214 1 2.44819 0.868699 99.0153
215 1 1.7528 1.30545 101.694
216 2 0.685584 0.159579 97.0074
217 1 14.9852 1.17867 94.6484
218 1 6.068 1.65516 102.905
219 1 6.90911 0.878423 100.283
220 1 5.96829 6.44589 94.8159
221 1 4.77581 2.43626 98.8264
222 2 4.44739 0.996988 100.962
223 1 4.28771 1.17302 93.7204
224 1 2.26047 2.3876 95.4508
225 1 0.503349 0.730599 90.8303
226 1 3.29193 1.73486 90.8539
227 2 1.67716 1.58699 92.9158
228 1 0.891117 1.02655 88.1667
229 1 8.26647 0.0617878 95.7282
230 1 7.36968 1.30879 89.1866
231 1 9.17005 6.55919 89.9691
232 1 12.2467 4.38194 103.614
233 1 3.88933 3.01547 102.729
234 1 8.48662 2.7518 101.966
235 1 6.18248 4.44048 103.515
236 2 8.20461 0.223331 102.661
237 2 5.702 3.41583 101.012
238 1 7.50216 3.50085 98.9497
239 2 6.69325 1.29062 97.5464
240 1 5.02744 2.68282 96.0508
241 1 12.7046 1.41457 103.55
242 1 10.4299 1.19153 101.409
243 1 14.0145 5.89842 99.1462
244 2 11.6035 1.26845 99.1173
245 1 10.244 3.84358 99.8913
246 1 9.18752 1.70523 98.0146
247 1 11.1481 0.245009 96.7545
248 1 7.85701 2.96183 95.9436
249 1 11.5167 2.94753 97.1056
250 2 9.36933 4.257 97.3292
251 1 8.43532 3.16232 93.144
252 2 9.07785 1.67319 91.0478
253 1 10.3066 4.03123 91.0462
254 1 6.46229 1.66457 91.6885
255 1 8.66233 0.405805 93.1982
256 1 10.5712 3.79942 94.9792
257 1 7.48171 3.94321 90.266
258 1 9.53539 2.77361 88.7534
259 1 12.8349 2.16693 100.952
260 2 10.9939 3.14589 102.597
261 1 12.5216 4.95763 101.025
262 2 13.3293 3.57061 98.8783
263 1 15.0604 3.66177 100.68
264 1 11.5345 5.68861 98.1498
265 1 13.6813 4.40293 96.6189
266 2 6.68458 1.39804 94.376
267 2 5.10226 2.57195 89.279
268 1 11.0721 5.28213 88.5407
269 1 2.60068 3.67419 100.055
270 1 13.7613 1.52996 97.1904
271 1 10.8945 1.88599 92.9561
272 1 11.6176 1.33633 90.2532
273 2 14.2376 1.94517 89.5425
274 1 12.1408 2.96172 87.9879
275 2 3.16908 3.77799 97.4357
276 1 16.0657 3.05283 98.107
277 1 16.3615 4.75219 95.9148
278 2 12.7039 2.28152 94.9802
279 1 13.622 1.92542 92.2562
280 2 14.2377 5.78107 94.4474
281 1 12.5012 4.33904 93.0515
282 1 13.173 3.88388 90.5059
283 1 15.4503 3.71751 93.6313
284 1 16.0901 3.28201 91.1237
285 1 13.4619 6.5077 89.3569
286 1 14.5885 5.54724 102.883
287 1 5.44643 -0.101244 96.0992
288 2 16.8853 4.03108 102.649
289 1 16.4893 6.13848 100.916
290 1 4.97613 5.0369 99.027
291 1 4.35878 5.66503 101.778
292 1 17.151 5.66506 98.3242
293 1 16.9133 6.36369 93.6907
294 1 17.5817 5.94852 91.1621
295 1 14.7729 5.78091 91.6935
296 2 15.6793 5.22699 89.0381
297 1 5.86059 3.74289 93.6702
298 1 3.72746 5.0091 95.2846
299 1 3.03733 3.69564 92.7873
300 1 4.81037 4.69871 90.7773
301 2 4.3788 5.86943 92.966
302 1 9.96407 5.56841 102.398
303 1 6.9732 5.44425 97.1115
304 1 7.25661 5.42796 101.086
305 1 8.95063 6.26838 98.8423
306 2 8.11266 5.25709 94.542
307 1 7.05968 5.86028 92.2228
308 1 2.76782 3.78846 89.1164
309 2 6.54353 6.34909 89.6217
310 1 10.0562 5.83993 93.1562
311 2 11.7103 6.1391 91.0317
312 1 5.34264 4.84748 88.0838
313 1 3.75757 1.09848 87.9309
314 1 13.3203 0.785249 87.3862
315 2 16.8324 6.58811 85.0243
316 1 14.3075 0.0109196 82.8504
317 1 6.36784 2.08379 83.0574
318 1 2.2135 0.0871801 83.8687
319 2 0.999024 0.548929 81.4675
320 1 19.0147 6.12885 77.0266
321 1 1.73433 0.177777 75.2355
322 1 5.74661 6.45783 78.9861
323 1 14.2472 0.115279 74.277
324 1 4.26961 1.51422 85.1087
325 2 4.79079 0.0121589 83.0951
326 1 6.77079 -0.0579965 85.1238
327 1 3.33631 2.08395 82.2369
328 1 5.36938 0.896256 80.6131
329 1 2.42761 1.42215 72.8474
330 1 9.46691 0.215222 84.2665
331 2 13.8948 6.26957 81.6071
332 1 7.41564 -0.380743 82.4335
333 1 8.03789 0.928416 80.0418
334 2 6.06237 2.32121 78.5856
335 1 3.93802 0.4306 77.1634
336 1 4.52291 0.142425 74.5413
337 1 10.756 6.46316 77.8431
338 1 11.4408 6.0944 75.2468
339 1 6.4767 2.38313 86.9995
340 1 16.8121 2.51626 80.0627
341 2 8.69024 0.784825 86.9393
342 2 10.0791 3.89705 86.4633
343 1 8.2122 2.64529 84.9246
344 1 11.896 1.5352 82.9682
345 1 11.2585 1.9061 85.5911
346 1 10.6791 3.91445 83.7647
347 1 9.1221 2.14911 82.2211
348 1 8.3985 2.16068 77.6029
349 1 9.03459 1.76658 75.0637
350 1 6.29602 1.83764 75.8396
351 2 7.20142 1.33062 73.1338
352 1 14.7795 3.24183 87.2044
353 1 13.4121 4.14283 83.162
354 1 12.6871 4.49045 85.8051
355 2 11.6655 3.66157 81.1824
356 1 10.3852 3.94661 78.844
357 1 17.1258 4.83981 86.8059
358 1 2.64741 4.29118 84.2435
359 1 16.5519 6.68103 77.8583
360 1 10.556 1.00148 79.5319
361 1 12.66 2.56046 78.8028
362 1 13.7925 6.4792 77.1125
363 1 11.6088 0.507656 74.875
364 2 10.9536 2.12464 77.018
365 1 1.769 2.16134 85.8249
366 1 15.7805 5.43266 82.928
367 2 15.3546 4.34327 84.9853
368 1 14.2098 2.22318 81.051
369 1 14.0862 2.02662 84.7967
370 1 16.0852 2.56874 83.065
371 2 14.8616 1.37828 78.6136
372 1 13.5556 2.25513 76.2477
373 1 15.0803 3.94661 77.7907
374 1 13.1121 5.08571 79.3233
375 1 13.6211 6.42747 73.0484
376 1 11.166 3.36734 74.8596
377 2 13.2363 2.4236 73.5943
378 1 13.938 4.64052 74.8237
379 2 12.3467 4.28868 76.9709
380 1 11.5956 3.77778 72.3568
381 1 4.23497 3.52012 79.8143
382 1 1.58358 2.09171 77.2026
383 1 2.62428 4.0394 73.1026
384 1 15.852 2.71814 74.3423
385 2 2.99803 2.40959 75.2036
386 1 12.21 0.810923 72.1029
387 1 14.7781 6.21459 86.7665
388 1 4.06927 6.27741 85.8097
389 2 3.84933 3.43648 86.6798
390 2 17.6575 4.33156 81.6878
391 1 15.6313 5.00975 80.2967
392 1 8.17764 4.84804 87.8251
393 1 5.68586 4.12478 84.9422
394 2 7.32035 4.26754 82.9824
395 1 4.77401 4.68257 82.3022
396 1 6.96742 3.32282 80.6741
397 1 18.2495 6.10932 80.0757
398 1 7.02746 6.02822 81.2385
399 2 4.54746 4.72483 75.0022
400 1 17.141 4.61866 75.7628
401 1 4.23163 3.26589 77.1897
402 1 5.04688 5.49571 72.6785
403 1 8.41423 5.14459 85.0333
404 2 6.64195 6.33933 86.3901
405 2 17.578 4.29961 78.4525
406 2 15.9682 5.34244 73.3945
407 1 9.39707 4.79708 81.4075
408 1 6.45973 4.67379 76.9874
409 1 7.177 4.18158 74.2818
410 2 9.70446 4.79276 73.5466
411 1 7.64892 5.77526 72.0336
412 2 8.07778 5.28048 78.9332
413 1 9.08889 4.65433 76.3984
414 1 4.96233 2.68496 73.4197
415 2 1.47984 0.156532 70.5134
416 1 6.07691 6.7906 67.7168
417 1 10.1437 6.11069 71.3515
418 1 8.78172 6.7001 67.1607
419 1 4.13404 0.653185 69.7343
420 2 7.05422 6.29256 65.0414
421 1 1.96954 0.44611 62.7111
422 1 8.51046 0.755132 70.8682
423 1 9.26467 0.360155 68.2129
424 1 8.31242 5.7773 62.8447
425 1 7.06506 1.46451 66.8145
426 2 6.65502 0.178751 69.1003
427 1 6.61342 0.600677 61.8109
428 1 4.66683 1.85216 63.2045
429 1 6.9486 6.5683 59.0681
430 1 5.53921 1.0075 58.7728
431 2 4.08257 0.848855 61.0223
432 1 6.80179 6.14585 56.3109
433 1 14.5877 5.91641 63.9046
434 1 9.76165 0.4716 57.1319
435 1 11.3306 5.60436 58.2
436 1 14.367 3.99638 71.9191
437 1 6.10595 2.22444 70.7688
438 1 10.7345 2.21887 69.8535
439 1 8.85268 3.52962 71.318
440 2 14.5121 6.2233 70.6757
441 2 8.06705 2.64557 68.9044
442 1 9.7114 2.85051 66.8262
443 2 9.04686 0.565106 65.6862
444 1 7.41626 2.12406 64.1342
445 1 15.1292 1.31864 71.8165
446 1 12.33 0.171973 69.1365
447 1 16.653 4.98779 67.0951
448 2 13.9998 0.537483 67.0546
449 1 12.7028 2.85633 67.8963
450 1 11.4697 0.820038 66.2571
451 1 17.4773 6.21934 64.6541
452 1 10.4583 2.16036 63.8908
453 1 13.6987 2.1682 65.0708
454 2 11.725 3.49133 65.4132
455 1 10.6105 2.47828 61.052
456 2 11.3243 1.02935 59.1471
457 1 12.6552 3.18165 59.1513
458 1 8.66315 0.913624 59.7827
459 1 14.902 6.35651 61.196
460 1 12.8141 3.46945 62.8796
461 1 9.75373 3.00352 58.2641
462 1 12.0093 1.74415 56.7099
463 1 15.1411 1.40447 69.1119
464 2 13.1892 2.45574 70.3047
465 1 14.8447 4.22566 69.0033
466 2 15.4455 2.81175 67.0635
467 1 2.08383 2.84762 69.0356
468 1 13.964 4.86784 66.2288
469 1 16.0653 3.61978 64.7443
470 2 8.98566 0.712038 62.4423
471 2 7.52117 1.54866 57.2949
472 1 13.4594 4.38106 56.6809
473 1 4.90618 2.9813 68.3025
474 1 0.773855 0.894366 65.3401
475 1 13.3371 1.15646 61.1856
476 1 13.8892 0.808945 58.4743
477 2 1.16336 0.62699 57.5626
478 1 14.5682 1.8274 56.0039
479 2 5.37288 2.75507 65.4517
480 1 2.91691 2.34709 66.312
481 1 3.33874 3.79529 63.9952
482 2 15.1082 1.78357 62.921
483 1 16.0365 1.2368 60.2293
484 2 16.4993 4.91576 62.5801
485 1 14.8533 3.63538 61.0098
486 1 15.5335 3.07733 58.3648
487 1 2.50217 2.79385 61.6188
488 1 3.27625 2.5794 58.9606
489 1 16.0023 5.6296 57.376
490 1 16.8765 4.93408 70.9671
491 1 11.7894 5.81648 64.1489
492 2 3.90426 3.58747 70.935
493 1 3.48393 5.3967 68.9589
494 1 7.15349 4.3542 67.0675
495 1 6.52551 4.74166 69.6281
496 1 4.3033 5.06507 66.1855
497 1 3.66655 5.63477 61.837
498 1 4.61374 5.25912 59.2453
499 1 17.2455 4.87525 59.7811
500 2 2.91341 4.41778 57.2159
501 1 8.14042 3.16329 61.8053
502 1 5.93611 4.386 63.3727
503 1 5.33992 3.04302 60.8522
504 1 7.21443 3.78301 58.8213
505 2 6.42851 5.33833 61.0363
506 1 12.2697 4.82484 69.9486
507 1 9.26695 4.76141 64.9941
508 1 9.57329 4.64725 68.944
509 1 11.3489 5.47303 66.8921
510 2 10.379 4.38939 62.5569
511 1 9.24771 5.31378 60.3036
512 1 5.39195 3.16093 56.942
513 2 8.8317 5.28003 57.6447
514 1 12.2822 5.10777 61.0939
515 2 13.9202 5.2801 59.033
516 1 8.04176 3.50298 55.9996
517 1 5.60166 0.276861 56
518 1 4.11008 6.02683 55.3642
519 2 3.75059 5.11573 52.9752
520 1 5.19615 5.2905 50.847
521 1 8.05446 0.775845 51.076
522 1 8.32883 5.39034 51.8424
523 2 7.00913 5.78253 49.3612
524 1 5.98329 4.77931 45.0081
525 1 7.91014 5.30715 43.1926
526 1 7.8707 5.16961 46.853
527 1 5.06171 5.50175 42.3541
528 1 6.28815 0.0848961 53.2078
529 2 10.946 5.15074 51.1168
530 1 12.9147 5.28506 52.828
531 1 5.32733 0.523131 50.2453
532 1 11.4111 6.11714 48.7146
533 1 8.92355 6.46116 40.7855
534 1 15.6236 5.34836 52.2086
535 2 16.0459 5.24413 49.531
536 1 13.6059 4.88433 50.2271
537 1 13.9852 6.35025 48.0404
538 2 8.02161 0.963278 46.5339
539 1 9.92842 5.77328 45.1587
540 1 10.7586 5.38448 42.524
541 1 12.7054 5.14587 45.9304
542 1 13.6191 4.82396 43.286
543 1 8.29985 0.501772 54.9853
544 1 3.55596 1.20386 48.0666
545 2 14.8496 6.18165 54.8857
546 2 12.651 3.22365 54.4616
547 1 10.4428 1.1307 52.9595
548 1 13.8521 0.150425 51.0956
549 1 13.312 0.759867 53.7506
550 1 12.9246 2.60718 51.6531
551 1 11.0978 0.811305 50.367
552 1 10.4768 0.913613 45.7023
553 1 11.1071 0.581291 43.2102
554 1 8.37609 0.44824 43.9837
555 2 9.35545 0.102511 41.1616
556 1 1.61925 1.75477 55.1599
557 1 15.5769 2.55485 50.9384
558 1 15.1008 3.08454 53.5292
559 2 13.5484 1.78267 49.0756
560 1 12.3519 2.46309 46.866
561 1 3.90264 3.31629 54.9354
562 1 4.66675 2.82468 52.2857
563 1 3.27853 5.11117 45.6815
564 1 16.6502 6.2799 47.3894
565 1 14.7679 1.20184 46.8434
566 1 15.6375 5.0949 45.1294
567 1 17.5001 5.79352 43.0024
568 2 13.05 0.634395 45.0638
569 1 3.66549 0.716798 53.8286
570 1 2.54616 4.14577 50.9151
571 2 2.18648 2.77479 52.895
572 1 0.697787 0.548882 49.0182
573 1 0.954681 0.549326 53.0194
574 1 2.59928 1.18166 50.9367
575 2 1.56041 -0.0132709 46.6462
576 1 0.510425 0.751472 44.199
577 1 1.75192 2.72167 45.948
578 1 15.0351 3.76583 47.544
579 1 15.4646 5.30012 41.2067
580 1 13.3875 2.07042 43.0654
581 2 15.12 0.748959 41.586
582 1 16.0824 3.27683 43.1087
583 2 14.2263 3.0344 45.173
584 1 14.2733 3.05054 40.6944
585 1 6.26773 1.99762 47.7846
586 1 3.4216 0.626633 45.1316
587 1 4.71287 2.83454 41.0962
588 1 2.54142 1.07351 41.8758
589 2 5.04682 0.887449 43.0518
590 1 12.8231 0.946571 40.7477
591 1 16.9873 4.82874 54.8358
592 1 6.25752 4.69721 53.9451
593 2 6.04436 2.16635 54.5379
594 2 4.35483 2.92689 49.701
595 1 2.43237 3.94653 48.2769
596 1 10.8693 4.42688 55.8449
597 1 7.98803 2.78089 53.299
598 2 9.45609 2.89693 51.1157
599 1 6.86579 3.28341 50.2411
600 1 8.99586 1.85395 48.8974
601 1 5.26054 4.72139 47.8663
602 1 9.0597 4.62438 49.1427
603 2 6.58295 3.31278 43.0223
604 1 3.71248 3.21224 43.5141
605 1 6.03136 1.88471 45.1361
606 1 7.04759 4.06555 40.6947
607 1 10.6995 3.84038 53.0679
608 2 8.73675 5.05623 54.4314
609 2 4.25029 2.99739 46.3659
610 2 2.30408 4.03854 41.1446
611 1 11.4054 3.33665 49.3034
612 1 8.46813 3.25581 45.0252
613 1 9.26547 2.72371 42.4446
614 2 11.7273 3.07746 41.4098
615 1 9.70913 4.00611 40.376
616 2 10.2762 3.7909 47.0667
617 1 11.1605 3.30979 44.2166
618 1 7.19223 1.32349 41.3641
ITEM: TIMESTEP
4300
ITEM: NUMBER OF ATOMS
618
ITEM: BOX BOUNDS xy xz yz pp pp ff
0.0000000000000000e+00 1.9317770367296919e+01 4.0025167278329121e+00
0.0000000000000000e+00 6.6702723500479264e+00 0.0000000000000000e+00
0.0000000000000000e+00 1.0921147561319708e+02 0.0000000000000000e+00
ITEM: ATOMS id type x y z
1 1 4.52229 5.8075 5.68928
2 1 6.07727 6.2755 8.23519
3 1 4.23672 5.97131 12.8614
4 1 5.26967 0.410087 5.56522
5 1 7.62773 6.58914 10.4549
6 1 6.04692 6.23619 15.1273
7 1 4.41587 5.96581 19.7573
8 1 11.902 6.06694 5.45649
9 1 7.01229 0.551262 8.02852
10 1 5.15643 0.299801 12.8274
11 1 7.82981 6.44496 17.5284
12 1 6.02314 6.11755 22.2985
13 1 4.43585 6.06109 26.8917
14 1 10.3925 1.11179 5.61374
15 1 13.6992 6.57283 7.82852
16 1 8.56519 0.890741 10.3541
17 1 12.0089 6.06667 12.6621
18 1 6.84108 0.552593 15.0951
19 1 5.43692 0.0974478 19.7023
20 1 7.64535 6.54335 24.3951
21 1 6.1399 6.33696 29.2729
22 1 4.27833 6.10213 34.0141
23 1 12.9117 0.0513044 5.8179
24 1 12.6247 3.07719 5.74827
25 1 11.8308 1.7991 8.06443
26 1 15.2557 6.62746 10.5188
27 1 10.7726 2.7937 10.457
28 1 10.1917 1.21653 12.7514
29 1 13.5328 6.36388 15.1865
30 1 8.69042 0.696969 17.5252
31 1 12.198 5.83854 19.9333
32 1 6.98773 0.465837 22.219
33 1 5.31641 0.295667 26.6942
34 1 3.77738 -0.0192762 31.5369
35 1 5.89877 6.2942 36.1606
36 1 15.2588 1.93171 5.87999
37 1 14.5782 0.520984 8.12307
38 1 14.0458 3.3983 8.28403
39 1 13.4192 1.72233 10.6014
40 1 12.9816 0.277441 12.8795
41 1 12.3607 3.08216 12.6875
42 1 11.8332 1.5675 15.0432
43 1 15.3529 6.4987 17.5146
44 1 10.9712 2.81535 17.488
45 1 10.3972 1.23963 19.881
46 1 13.8132 6.16675 22.3696
47 1 8.7466 0.947646 24.415
48 1 12.0545 6.20308 26.8794
49 1 7.23203 0.777557 29.234
50 1 5.47248 0.218604 33.8755
51 1 3.29455 0.011577 38.4012
52 1 2.46966 1.08586 5.80764
53 1 17.5495 3.79846 5.61362
54 1 1.51679 2.44301 8.29254
55 1 0.824595 0.99126 10.6232
56 1 15.6579 3.74333 10.4541
57 1 15.2258 2.31947 12.8538
58 1 14.5329 0.604321 15.2007
59 1 13.9753 3.39986 15.137
60 1 13.4677 1.81266 17.5074
61 1 13.039 0.299899 19.8315
62 1 12.5946 3.11952 19.9004
63 1 11.8795 1.65929 22.1657
64 1 15.439 6.6553 24.6439
65 1 10.7486 2.86143 24.3404
66 1 10.5156 1.32603 26.7819
67 1 13.7485 6.4024 29.1489
68 1 8.59851 1.12971 31.6274
69 1 12.3958 6.13502 33.8431
70 1 7.01412 0.669786 36.1808
71 1 4.86181 3.09118 5.65216
72 1 4.34311 1.52412 8.07058
73 1 3.85151 4.26951 8.17149
74 1 3.20325 2.7652 10.5523
75 1 2.52065 1.14987 12.8495
76 1 17.4817 3.96496 12.8332
77 1 1.56643 2.45668 15.3038
78 1 0.888515 0.790518 17.3853
79 1 15.6644 3.73723 17.6171
80 1 15.197 2.05796 19.7279
81 1 14.6889 0.395503 22.0651
82 1 14.2723 3.48124 22.1967
83 1 13.5539 2.12998 24.3514
84 1 13.1512 0.248356 26.8402
85 1 12.5351 3.22442 26.8598
86 1 11.9867 1.58682 29.2922
87 1 11.2623 -0.12637 31.5423
88 1 11.0264 2.96311 31.6462
89 1 10.5371 1.4254 33.8727
90 1 13.8957 6.46918 36.434
91 1 8.73247 0.925904 38.6814
92 1 7.56874 2.27281 5.35129
93 1 7.19002 5.22406 5.56285
94 1 6.58521 3.43918 8.01013
95 1 5.88828 1.81843 10.4024
96 1 5.42683 4.74281 10.4687
97 1 4.76535 3.16525 12.846
98 1 4.23869 1.45106 15.3147
99 1 3.7403 4.49884 15.2941
100 1 3.2811 2.72271 17.6794
101 1 2.59173 1.14517 19.8278
102 1 17.5394 4.07344 19.8659
103 1 1.59781 2.44856 22.205
104 1 0.91039 0.864958 24.399
105 1 15.8637 3.71696 24.6894
106 1 15.2669 2.28061 26.8425
107 1 14.6279 0.658114 29.2153
108 1 14.1214 3.51161 29.1258
109 1 13.6807 1.92934 31.4359
110 1 12.932 0.344634 33.863
111 1 12.7351 3.11293 33.95
112 1 12.0115 1.82866 36.3679
113 1 15.2541 6.4975 38.9961
114 1 11.3028 2.86531 38.9693
115 1 9.67878 4.19262 5.73633
116 1 9.16366 2.58442 8.15145
117 1 8.5927 5.3147 8.24766
118 1 8.06553 3.63394 10.5045
119 1 7.50196 2.15648 12.8043
120 1 7.02672 4.97584 12.8887
121 1 6.47298 3.46298 15.1634
122 1 6.07595 1.73739 17.5419
123 1 5.6328 4.74825 17.5228
124 1 4.91204 3.09604 19.7299
125 1 4.29835 1.30218 22.0104
126 1 3.84176 4.20004 22.0545
127 1 3.27442 2.63814 24.5025
128 1 2.71229 1.20869 26.7975
129 1 17.4798 4.19613 26.8297
130 1 1.65201 2.4739 29.1146
131 1 1.01722 0.835013 31.4952
132 1 15.8941 3.84221 31.554
133 1 15.3298 2.39568 33.8996
134 1 14.6543 0.653446 36.2942
135 1 14.2733 3.49061 36.1433
136 1 13.7956 2.14639 38.4077
137 1 11.2634 4.50175 8.07943
138 1 10.4218 5.62184 10.4296
139 1 9.76289 3.97391 12.7426
140 1 9.10375 2.45365 15.1787
141 1 8.85559 5.29935 15.0603
142 1 8.33949 3.71686 17.4551
143 1 7.49704 1.98442 19.9585
144 1 7.12913 4.86298 19.7948
145 1 6.58155 3.29827 22.2067
146 1 6.04655 1.83871 24.5015
147 1 5.50652 4.40361 24.5566
148 1 4.77887 3.13308 26.9007
149 1 4.3636 1.64322 29.1403
150 1 3.73909 4.39591 29.235
151 1 3.42364 2.88792 31.5377
152 1 2.6365 1.32205 33.7802
153 1 17.6092 4.24094 33.9463
154 1 1.61114 2.59423 36.3437
155 1 0.934349 1.06272 39.0322
156 1 16.0233 3.90516 38.8664
157 1 14.6123 4.84756 5.66757
158 1 13.0426 4.76183 10.2412
159 1 11.5068 4.55315 15.0432
160 1 10.3826 5.62524 17.3128
161 1 9.86378 4.07342 19.647
162 1 9.27878 2.59617 22.0031
163 1 8.77331 5.26037 22.2087
164 1 8.23533 3.78998 24.5394
165 1 7.64781 2.38665 26.9495
166 1 7.06884 5.06286 26.9166
167 1 6.5882 3.55239 29.3117
168 1 5.84033 1.97648 31.5316
169 1 5.4908 4.76501 31.6548
170 1 4.83014 3.18911 33.9853
171 1 4.18196 1.49189 36.1933
172 1 3.83678 4.36261 36.4446
173 1 3.24323 2.89186 38.7191
174 1 16.334 5.25984 8.18323
175 1 14.6724 5.00042 12.8228
176 1 13.1292 4.65295 17.6502
177 1 11.3596 4.38309 22.3033
178 1 10.4188 5.72459 24.574
179 1 9.90146 4.1572 26.9843
180 1 9.30857 2.67482 29.3019
181 1 9.02136 5.54849 29.2523
182 1 8.24429 3.82593 31.49
183 1 7.51336 2.26715 33.8508
184 1 6.88397 5.28429 33.7553
185 1 6.40339 3.43106 36.3063
186 1 5.91527 1.91475 38.7063
187 1 5.15207 4.85914 38.8676
188 1 17.9608 5.58319 10.5724
189 1 16.3109 5.21405 15.2475
190 1 14.8734 4.89057 19.91
191 1 13.0003 4.72312 24.5319
192 1 11.623 4.41052 29.1725
193 1 10.5238 5.76595 31.5688
194 1 10.0342 4.10044 33.8749
195 1 9.2408 2.51304 36.226
196 1 8.65961 5.38229 35.9786
197 1 8.14571 3.75256 38.2789
198 1 17.9498 5.55204 17.4667
199 1 16.4608 5.31004 22.264
200 1 14.6405 5.26158 26.9416
201 1 13.1766 4.74495 31.507
202 1 11.5928 4.58472 36.3061
203 1 10.4617 5.85469 38.5899
204 1 18.0925 5.57382 24.5601
205 1 16.5061 5.44294 29.1369
206 1 14.7567 5.15693 33.9549
207 1 13.2162 4.89862 38.7396
208 1 18.0035 5.6868 31.5712
209 1 16.466 5.49545 36.2696
210 1 17.9701 5.75058 38.8113
211 2 14.5229 1.08752 102.28
212 1 15.1238 0.820194 99.5987
213 1 3.63884 0.168767 103.452
214 1 2.65366 0.816714 99.0855
215 1 1.73054 1.293 101.739
216 2 0.642594 0.312416 97.0333
217 1 14.9083 1.15331 94.7104
218 1 6.06945 1.43058 103.102
219 1 7.266 1.07104 100.373
220 1 5.79661 6.52918 94.8694
221 1 4.81939 2.41788 99.1366
222 2 4.54816 0.939775 101.166
223 1 4.15326 1.21851 94.0429
224 1 2.16906 2.54099 95.3714
225 1 0.55924 0.615528 90.9231
226 1 3.27053 1.78574 90.979
227 2 1.66753 1.5812 93.0512
228 1 0.884454 1.0353 88.2725
229 1 12.505 6.83097 95.824
230 1 7.37359 1.22117 89.1432
231 1 9.00412 6.59971 90.2053
232 1 12.2311 4.31632 103.616
233 1 3.79529 3.0701 102.599
234 1 8.28221 2.78952 102.231
235 1 6.18542 4.32358 103.377
236 2 8.12442 0.243484 102.644
237 2 6.06552 3.24884 101.016
238 1 7.36816 3.62414 98.7922
239 2 6.66914 1.39478 97.6611
240 1 4.95224 2.75584 96.3951
241 1 12.4865 1.52517 103.365
242 1 10.1232 1.05441 101.303
243 1 14.434 5.65926 99.109
244 2 11.5414 1.31348 99.0216
245 1 10.1171 3.35569 99.8902
246 1 9.1664 1.58702 98.1824
247 1 11.0687 0.390319 96.6784
248 1 7.90418 2.9409 95.9435
249 1 11.4978 3.0971 97.1503
250 2 9.35044 4.32691 97.3686
251 1 8.32969 3.1776 93.1451
252 2 9.13475 1.62017 91.0866
253 1 10.2021 3.96237 91.1691
254 1 6.28827 1.88811 91.7449
255 1 8.61732 0.406381 93.1627
256 1 10.4499 4.05939 94.806
257 1 7.60994 3.92813 90.0854
258 1 9.76028 2.55113 88.7403
259 1 12.8089 2.31964 100.887
260 2 10.8706 3.11677 102.386
261 1 12.6085 5.01009 100.972
262 2 13.3662 3.54079 98.8978
263 1 15.0581 3.59328 100.819
264 1 11.5551 5.66644 98.2991
265 1 13.7246 4.44068 96.6309
266 2 6.72702 1.42367 94.357
267 2 5.33191 2.55528 89.4039
268 1 10.9926 5.21066 88.6135
269 1 2.40686 3.78309 100.048
270 1 13.7256 1.55676 97.1734
271 1 11.1223 1.70394 93.0374
272 1 11.9757 1.33761 90.3119
273 2 14.3662 2.05586 89.5493
274 1 12.2967 2.96151 88.1305
275 2 3.14227 3.61905 97.551
276 1 15.9879 3.04594 98.2039
277 1 16.3737 4.80788 96.0541
278 2 12.7601 2.5981 94.88
279 1 13.8248 1.94093 92.2258
280 2 14.3404 5.68004 94.531
281 1 12.4202 4.40045 92.9401
282 1 13.2055 3.97029 90.4394
283 1 15.3535 3.65674 93.7382
284 1 16.171 3.23119 91.1773
285 1 13.5489 6.54334 89.3928
286 1 14.6205 5.47659 103.055
287 1 9.56135 6.58655 96.1216
288 2 16.8246 4.14461 102.65
289 1 16.4636 6.36769 100.979
290 1 5.04411 5.10525 99.2004
291 1 4.39261 5.47219 101.706
292 1 17.2086 5.91592 98.3927
293 1 16.9055 6.22684 93.6529
294 1 17.6606 5.76058 90.9331
295 1 14.8607 5.66302 91.7703
296 2 15.804 5.18939 89.1889
297 1 5.68746 3.82191 93.856
298 1 3.6565 5.03287 95.4157
299 1 2.8467 3.76187 93.0207
300 1 4.94894 4.46173 90.9917
301 2 4.0543 5.95075 92.9331
302 1 9.84073 5.33229 102.432
303 1 6.902 5.50476 97.0955
304 1 7.27979 5.38231 101.033
305 1 9.0385 6.409 98.9599
306 2 7.92673 5.10546 94.616
307 1 6.81648 6.03255 92.3087
308 1 2.85239 3.62018 89.1033
309 2 6.59344 6.30159 89.5795
310 1 9.82213 5.93657 93.0342
311 2 11.4054 6.18064 90.9566
312 1 5.30577 4.84732 88.1017
313 1 3.73807 1.1827 87.8999
314 1 13.4491 0.592143 87.5517
315 2 16.8068 6.37419 85.0205
316 1 14.4774 -0.0569864 83.0531
317 1 6.08001 2.26568 83.1035
318 1 2.17611 -0.100829 83.727
319 2 1.02237 0.698443 81.3409
320 1 19.0661 6.0647 77.1172
321 1 1.69804 0.0658236 75.263
322 1 5.8986 6.39452 78.9371
323 1 13.9484 -0.0626087 74.132
324 1 4.15425 1.39187 85.0843
325 2 8.97072 6.58279 83.049
326 1 10.8426 6.70015 85.031
327 1 3.35362 2.02646 82.1677
328 1 5.31438 0.838378 80.4432
329 1 2.37178 1.45205 72.6508
330 1 9.45181 0.13101 84.4023
331 2 13.6709 6.15151 81.6458
332 1 11.3937 6.26813 82.3907
333 1 7.85864 1.05953 80.0897
334 2 6.08377 2.42958 78.4435
335 1 4.03186 0.428811 77.2071
336 1 4.56927 0.132703 74.4601
337 1 10.7335 6.6276 77.7842
338 1 11.5595 6.14148 75.1637
339 1 6.31664 2.10149 86.9663
340 1 1.61899 2.60409 79.9901
341 2 8.52937 0.682028 86.961
342 2 10.0694 3.96071 86.6151
343 1 8.39243 2.62709 84.9949
344 1 11.9658 1.62762 83.2177
345 1 11.1617 1.88343 85.7995
346 1 10.7036 3.95113 83.7801
347 1 9.07517 1.95995 82.3869
348 1 8.4797 2.37922 77.7333
349 1 9.09932 2.06826 75.1721
350 1 6.4295 1.89986 75.7822
351 2 7.23511 1.54102 73.0469
352 1 14.7661 3.28136 87.3205
353 1 13.422 3.98958 83.2637
354 1 12.615 4.46356 85.9183
355 2 11.7253 3.49149 81.1346
356 1 10.4039 3.91705 78.7923
357 1 17.0464 4.63391 86.9224
358 1 2.82741 4.10228 84.1768
359 1 16.5818 6.65963 77.9647
360 1 10.3348 1.02592 79.5
361 1 12.7485 2.57667 78.8982
362 1 13.6914 6.58079 76.9579
363 1 11.4655 0.584364 74.9383
364 2 11.034 1.90623 77.2113
365 1 1.53471 2.12973 85.8291
366 1 15.6805 5.46107 83.1179
367 2 15.3507 4.03831 85.0742
368 1 14.1209 2.26993 81.1102
369 1 14.0948 1.84081 85.0248
370 1 16.1006 2.75251 82.9095
371 2 15.0221 1.36071 78.8694
372 1 13.665 2.01293 76.2562
373 1 14.9255 4.0138 77.9638
374 1 12.7765 5.31574 79.3931
375 1 13.4883 6.65666 73.1276
376 1 11.3936 3.47733 75.0006
377 2 13.2017 2.34435 73.6793
378 1 14.0644 4.56374 74.9707
379 2 12.4462 4.3118 77.1094
380 1 11.4208 3.69546 72.3365
381 1 4.33285 3.58828 79.8385
382 1 1.56721 2.06712 77.1526
383 1 2.73469 4.11414 73.1624
384 1 15.7709 2.60558 74.1325
385 2 3.13268 2.07128 75.0561
386 1 11.9677 0.804271 72.1463
387 1 14.7714 6.10789 86.8199
388 1 3.9899 6.03097 85.9455
389 2 3.84309 3.37954 86.582
390 2 17.6997 4.38524 81.6126
391 1 15.5779 5.21202 80.3377
392 1 8.17143 4.99108 87.8181
393 1 5.84531 4.09521 85.1564
394 2 7.55421 4.26457 83.0806
395 1 4.91117 4.8464 82.1239
396 1 6.99348 3.42163 80.8423
397 1 18.3997 6.14403 80.2314
398 1 7.22471 6.06314 81.2066
399 2 4.44125 4.479 75.1185
400 1 16.9609 4.5229 75.8129
401 1 4.18235 3.15174 77.1525
402 1 5.0157 5.53701 72.8465
403 1 8.5338 5.23668 85.0977
404 2 6.5031 6.4575 86.3148
405 2 17.5898 4.38404 78.5737
406 2 15.8799 5.35154 73.4694
407 1 9.40832 4.53287 81.4024
408 1 6.49945 4.53016 76.9004
409 1 7.0981 4.17983 74.2232
410 2 9.68477 4.69055 73.4852
411 1 7.58164 5.85315 71.9946
412 2 8.19338 4.8899 78.9736
413 1 9.14853 4.79808 76.2021
414 1 4.97388 2.59902 73.3843
415 2 1.48943 0.239561 70.5825
416 1 2.0509 -0.0513754 67.8304
417 1 10.0891 6.09044 71.1943
418 1 4.73824 0.175765 67.0396
419 1 4.03168 0.60921 69.7394
420 2 7.01791 6.30183 65.174
421 1 2.21371 0.616743 62.7677
422 1 8.33178 0.897749 70.9088
423 1 9.4676 0.196873 68.2153
424 1 8.33055 5.69147 62.8746
425 1 7.06406 1.63866 66.8137
426 2 6.7086 0.255442 68.8949
427 1 6.64201 0.444304 61.7859
428 1 4.76199 1.79451 63.3111
429 1 6.93073 6.50907 58.9222
430 1 5.63761 0.9152 58.9173
431 2 4.03664 0.7649 61.011
432 1 6.72625 5.9448 56.1569
433 1 14.7129 5.84053 63.7202
434 1 9.65973 0.617246 57.0545
435 1 11.4263 5.76646 58.0649
436 1 14.2326 4.1141 72.08
437 1 6.07224 2.1564 70.774
438 1 10.7026 2.31314 69.8124
439 1 8.7429 3.53271 71.2617
440 2 14.5511 6.27049 70.5998
441 2 8.16253 2.51703 69.0117
442 1 9.83356 2.71389 66.9466
443 2 9.01074 0.541932 65.5803
444 1 7.54149 2.10566 64.2832
445 1 14.9022 1.17839 71.7934
446 1 12.5061 0.22783 69.13
447 1 16.7947 4.86314 67.2185
448 2 14.1253 0.297471 67.0268
449 1 12.8931 2.7882 67.8782
450 1 11.4504 0.767014 66.0364
451 1 17.4965 6.1903 64.6184
452 1 10.3646 2.27021 63.768
453 1 13.8573 2.19205 65.1278
454 2 11.7527 3.5433 65.3657
455 1 10.8934 2.53591 61.0285
456 2 11.3796 1.06092 58.9679
457 1 12.707 3.2204 59.006
458 1 8.9319 1.10176 59.8219
459 1 15.1213 6.32602 61.0026
460 1 13.0583 3.40138 62.8912
461 1 9.8681 3.01419 58.1714
462 1 11.8884 1.94815 56.5638
463 1 15.1435 1.39057 69.1613
464 2 13.1726 2.61226 70.4738
465 1 15.0135 4.2466 69.1511
466 2 15.53 2.71581 67.1119
467 1 2.25457 2.81474 69.1061
468 1 13.938 4.88688 66.1726
469 1 16.1535 3.65441 64.7541
470 2 9.09012 0.65164 62.3863
471 2 7.51524 1.57905 57.5979
472 1 13.5347 4.46229 56.5786
473 1 4.75898 2.90028 68.3329
474 1 0.762727 0.698418 65.2439
475 1 13.3809 1.17431 60.9712
476 1 13.9187 0.761603 58.271
477 2 0.942884 0.582602 57.5437
478 1 14.4468 1.92865 55.9956
479 2 5.38656 2.86872 65.625
480 1 2.7969 2.18352 66.2963
481 1 3.41268 3.91133 64.0354
482 2 15.1573 1.69791 62.9072
483 1 0.855553 1.19383 60.1939
484 2 16.6603 5.01987 62.4957
485 1 14.8248 3.63014 60.8856
486 1 15.7005 3.21485 58.1586
487 1 2.64183 3.0172 61.5501
488 1 3.04196 2.55111 58.9774
489 1 16.0687 5.78889 57.1995
490 1 17.0918 5.10114 71.0463
491 1 11.8385 5.84039 64.1097
492 2 4.07927 3.64396 70.9818
493 1 3.68085 5.44516 69.037
494 1 7.34757 4.31346 67.0913
495 1 6.48715 4.59788 69.7085
496 1 4.32781 4.95737 66.2514
497 1 4.09558 5.76848 61.9726
498 1 4.70608 5.09832 59.2092
499 1 17.3145 4.96062 59.8584
500 2 2.7736 4.43038 57.0806
501 1 8.17877 3.06302 61.9008
502 1 6.05771 4.44939 63.4382
503 1 5.44611 3.02216 60.952
504 1 7.38762 3.763 58.8019
505 2 6.64641 5.16671 61.0356
506 1 12.3267 4.79021 69.8433
507 1 9.25386 4.5996 65.1081
508 1 9.40206 4.81425 68.955
509 1 11.3677 5.52646 66.7902
510 2 10.4409 4.43693 62.6654
511 1 9.44358 5.08055 60.3013
512 1 5.25255 3.05037 57.1272
513 2 8.896 5.23843 57.5971
514 1 12.455 5.2116 61.1255
515 2 14.0582 5.29478 58.9681
516 1 8.0461 3.4382 55.9537
517 1 5.58715 0.316916 56.1569
518 1 4.08482 6.16765 55.2406
519 2 3.43326 5.14031 52.9805
520 1 5.30977 5.29873 50.9788
521 1 8.2462 0.688999 51.2568
522 1 8.18105 5.28362 51.803
523 2 7.14042 6.00067 49.4753
524 1 5.82885 4.80809 45.0948
525 1 7.70976 5.35143 43.0155
526 1 7.79629 5.23515 46.9002
527 1 5.0683 5.40351 42.1649
528 1 6.20377 -0.0233403 53.2224
529 2 10.8447 5.23753 51.0158
530 1 12.8728 5.22992 52.8345
531 1 5.4486 0.581195 50.2482
532 1 11.471 6.12009 48.7353
533 1 8.70719 6.67546 40.7048
534 1 15.6306 5.40525 52.2647
535 2 16.2035 5.31777 49.5257
536 1 13.6411 4.74052 50.27
537 1 14.0682 6.2666 48.1017
538 2 8.02689 0.835691 46.5569
539 1 9.84466 5.67088 44.9087
540 1 10.7082 5.30402 42.4805
541 1 12.9705 5.15344 45.8533
542 1 13.6361 4.60651 43.1792
543 1 8.29171 0.334673 54.8159
544 1 3.51926 1.37419 47.9841
545 2 14.8189 6.14145 54.907
546 2 12.5768 3.26932 54.5413
547 1 10.473 1.20491 53.0632
548 1 14.0424 0.0241195 51.0394
549 1 13.0987 0.613825 53.7958
550 1 12.7778 2.48932 51.8809
551 1 11.1376 0.77163 50.2965
552 1 10.3642 0.967005 45.6761
553 1 11.1177 0.408495 43.1132
554 1 8.33808 0.403973 43.7778
555 2 9.37381 -0.0919084 41.0457
556 1 1.72226 1.81446 55.3608
557 1 15.4961 2.69456 51.0972
558 1 14.9556 3.0686 53.6656
559 2 13.5014 1.67232 49.2053
560 1 12.4489 2.46833 46.6603
561 1 3.92235 3.52003 54.9227
562 1 5.04626 2.76653 52.3289
563 1 3.14527 5.10777 45.8386
564 1 16.6317 6.49639 47.3923
565 1 14.9154 1.11476 46.8608
566 1 15.5904 5.25463 45.2355
567 1 17.6209 5.64544 43.0289
568 2 13.0738 0.587435 44.9992
569 1 3.66305 0.719395 53.8433
570 1 2.52453 4.05562 50.9144
571 2 2.17496 2.68305 53.1065
572 1 0.939569 0.959946 49.1508
573 1 0.961119 0.510625 52.8727
574 1 2.81597 1.33736 51.0793
575 2 1.79313 -0.0147372 46.6591
576 1 0.492768 0.73059 44.1064
577 1 1.70075 2.67967 45.8104
578 1 15.0441 3.65439 47.7026
579 1 15.6848 5.17747 41.198
580 1 13.3504 1.9803 43.0769
581 2 15.2993 0.841057 41.5468
582 1 16.0186 3.22633 43.207
583 2 14.5605 2.96281 45.2867
584 1 14.1611 3.07294 40.8509
585 1 6.32438 2.07227 47.7605
586 1 3.46877 0.632206 45.044
587 1 4.74826 2.86912 41.0478
588 1 2.63146 1.14105 42.0215
589 2 5.01413 0.891115 43.0255
590 1 12.7995 0.882629 40.8483
591 1 16.9161 4.6308 54.8567
592 1 6.24609 4.67623 53.855
593 2 6.10988 2.1722 54.7352
594 2 4.46187 2.88871 49.5742
595 1 2.42611 3.99625 48.1721
596 1 10.7611 4.39676 55.7825
597 1 8.05662 2.68131 53.2719
598 2 9.6242 2.84378 51.0507
599 1 6.96112 3.12438 50.277
600 1 8.98523 1.8737 48.8818
601 1 5.25898 4.90302 48.09
602 1 9.17809 4.6538 49.157
603 2 6.47152 3.18802 43.1403
604 1 3.61115 3.33601 43.616
605 1 6.11194 1.81456 45.1372
606 1 6.9639 4.20686 40.6723
607 1 10.6391 3.85617 53.0145
608 2 8.69813 5.11365 54.3815
609 2 4.33887 3.07814 46.3699
610 2 17.8288 3.78919 40.9667
611 1 11.4359 3.33628 49.2209
612 1 8.34221 3.22007 45.0217
613 1 9.14132 2.87195 42.4672
614 2 11.5909 2.90769 41.5343
615 1 9.75509 4.19935 40.3252
616 2 10.1509 3.79419 47.0369
617 1 11.1496 3.34055 44.2948
618 1 7.11812 1.29511 41.3681
ITEM: TIMESTEP
4400
ITEM: NUMBER OF ATOMS
618
ITEM: BOX BOUNDS xy xz yz pp pp ff
0.0000000000000000e+00 1.9317770367296919e+01 4.0025167278329121e+00
0.0000000000000000e+00 6.6702723500479264e+00 0.0000000000000000e+00
0.0000000000000000e+00 1.0921147561319708e+02 0.0000000000000000e+00
ITEM: ATOMS id type x y z
1 1 4.23046 5.97339 5.46102
2 1 5.89601 6.19234 8.00331
3 1 4.4371 6.02152 12.8287
4 1 5.31432 0.0935869 5.51696
5 1 7.52824 6.73916 10.5136
6 1 6.00663 6.32598 15.2187
7 1 4.25017 5.76377 19.9049
8 1 12.2031 6.01004 5.69697
9 1 6.84042 0.695041 8.23194
10 1 5.34997 0.41795 12.9091
11 1 7.68777 6.61461 17.4785
12 1 6.02935 6.26488 21.9763
13 1 4.34933 5.92406 26.7319
14 1 10.1706 1.33806 5.50388
15 1 13.482 6.24208 8.23075
16 1 8.49623 1.12214 10.4226
17 1 11.9304 5.95563 12.8979
18 1 7.10211 0.516425 15.1934
19 1 5.37458 0.327201 19.7827
20 1 7.72217 6.67651 24.5464
21 1 6.05844 6.4791 29.278
22 1 4.49282 6.02804 33.8988
23 1 12.9918 0.461831 5.50211
24 1 12.3464 3.10336 5.53956
25 1 11.8506 1.43993 7.98022
26 1 15.4049 6.63762 10.4144
27 1 10.7342 3.0215 10.4065
28 1 10.2567 1.32076 12.594
29 1 13.8547 6.23266 15.0068
30 1 8.63705 0.911225 17.2667
31 1 11.964 6.00249 19.669
32 1 6.95301 0.604018 22.1138
33 1 5.33184 0.382299 26.9508
34 1 3.51896 0.165138 31.6398
35 1 6.07247 6.43189 36.3006
36 1 15.0736 2.22318 5.3916
37 1 14.5858 0.676406 8.00832
38 1 14.158 3.43268 7.93004
39 1 13.6274 2.00876 10.3735
40 1 12.8512 0.341547 12.6147
41 1 12.5874 3.13136 12.7656
42 1 12.0926 1.48429 15.2185
43 1 15.3667 6.48655 17.3754
44 1 10.8237 2.89617 17.3664
45 1 10.3878 1.20032 19.7817
46 1 13.6084 6.25337 22.1454
47 1 8.50891 0.909128 24.6288
48 1 12.1695 5.88569 26.9267
49 1 6.85054 0.700482 29.2962
50 1 5.07699 0.449102 33.872
51 1 3.59493 -0.151026 38.4419
52 1 2.55698 1.28634 5.37512
53 1 17.2318 4.17268 5.61328
54 1 1.39455 2.43927 7.86756
55 1 0.893899 0.902977 10.412
56 1 15.786 3.74402 10.4375
57 1 15.0569 2.06468 12.6703
58 1 14.6192 0.54479 15.1248
59 1 14.2261 3.38171 15.1287
60 1 13.7363 1.88415 17.4566
61 1 12.9999 0.216952 19.8413
62 1 12.5021 3.021 19.737
63 1 11.8103 1.43514 22.2441
64 1 15.1992 6.61712 24.5531
65 1 11.0042 2.81287 24.6918
66 1 10.1874 1.09941 27.0028
67 1 13.7256 6.23856 29.2023
68 1 8.67118 0.901151 31.5346
69 1 11.7823 6.09536 33.8984
70 1 6.98011 0.68735 36.3025
71 1 4.72771 3.10052 5.5376
72 1 3.99649 1.46576 8.14123
73 1 3.66782 4.3748 8.0779
74 1 3.00166 2.88097 10.4407
75 1 2.50991 1.37927 12.8451
76 1 17.4592 4.11635 12.8066
77 1 1.43319 2.48947 15.0485
78 1 1.00146 0.940475 17.6631
79 1 15.8808 3.76709 17.4522
80 1 15.138 2.19726 19.9765
81 1 14.6648 0.654351 22.2629
82 1 14.0868 3.37849 22.2872
83 1 13.6305 1.70086 24.6779
84 1 12.803 0.1454 26.935
85 1 12.5869 3.14999 26.9756
86 1 12.0473 1.60229 29.1641
87 1 11.4778 0.147243 31.5922
88 1 10.8521 2.8455 31.5288
89 1 10.1917 1.1276 33.8398
90 1 13.5426 6.40525 36.1974
91 1 8.37407 0.732061 38.7986
92 1 7.58098 2.09558 5.8544
93 1 6.97696 4.81843 5.74037
94 1 6.20068 3.46416 8.1446
95 1 5.7709 1.94313 10.5244
96 1 5.30501 4.68834 10.478
97 1 4.78653 3.24641 12.8162
98 1 4.34575 1.50085 15.1462
99 1 3.71914 4.54968 15.0102
100 1 3.22024 2.86243 17.3826
101 1 2.69776 1.11338 19.8492
102 1 17.4249 3.92256 19.9037
103 1 1.46005 2.40786 22.2356
104 1 1.11841 0.951767 24.5941
105 1 15.7019 3.56018 24.4393
106 1 15.3086 2.21233 26.8914
107 1 14.6981 0.594506 29.2339
108 1 14.2442 3.4119 29.2554
109 1 13.6052 2.02556 31.5882
110 1 13.0024 0.516533 33.9681
111 1 12.3894 3.36401 33.8212
112 1 11.8823 1.55148 36.1741
113 1 15.027 6.60564 38.8381
114 1 11.1654 2.7055 38.8862
115 1 9.86605 4.10791 5.54096
116 1 9.23927 2.54633 8.16006
117 1 8.67445 5.32278 7.94786
118 1 8.05141 4.02271 10.4146
119 1 7.56376 2.25883 12.7449
120 1 6.9972 5.12302 12.8464
121 1 6.51389 3.46175 15.1787
122 1 5.79436 1.84216 17.429
123 1 5.35282 4.65788 17.4864
124 1 4.74638 2.96861 19.88
125 1 4.27124 1.55165 22.2755
126 1 3.68976 4.31555 22.2199
127 1 3.04817 2.85059 24.5036
128 1 2.66933 1.34878 26.8748
129 1 17.5923 4.02789 26.9059
130 1 1.67399 2.54305 29.2239
131 1 1.00685 1.13057 31.6177
132 1 15.798 3.98766 31.6112
133 1 15.0969 2.36878 33.9451
134 1 14.6976 0.839264 36.1198
135 1 14.1687 3.66649 36.1899
136 1 13.7028 1.93107 38.3787
137 1 11.4853 4.35065 8.15278
138 1 10.2112 5.751 10.4304
139 1 9.74816 4.12059 12.7882
140 1 9.31994 2.5093 14.966
141 1 8.70756 5.46076 15.2594
142 1 8.13547 3.9031 17.4607
143 1 7.61968 2.25089 19.6631
144 1 7.10216 4.98875 19.6923
145 1 6.48715 3.39188 22.12
146 1 5.83193 1.92582 24.4695
147 1 5.45042 4.83237 24.4473
148 1 5.01615 3.2012 26.8053
149 1 4.20845 1.7614 29.3746
150 1 3.90739 4.51128 29.1818
151 1 3.1693 2.96992 31.6769
152 1 2.67324 1.31005 34.0637
153 1 17.4433 4.25019 33.8324
154 1 1.60986 2.68045 36.3616
155 1 0.996971 0.738539 38.8019
156 1 15.9463 3.73256 38.8449
157 1 14.716 5.2969 5.57523
158 1 12.9648 4.71786 10.5221
159 1 11.3558 4.26243 15.1316
160 1 10.3707 5.63219 17.5121
161 1 9.90324 3.85913 19.8288
162 1 9.29912 2.43724 22.447
163 1 8.78275 5.22286 22.1231
164 1 8.10426 3.7957 24.3912
165 1 7.45436 2.10878 26.9404
166 1 7.24754 5.1481 26.7903
167 1 6.52506 3.50748 29.1738
168 1 6.00126 2.04764 31.5791
169 1 5.4359 4.82455 31.6333
170 1 4.82452 3.31863 33.7947
171 1 4.32966 1.77419 36.3069
172 1 3.75368 4.66448 36.2862
173 1 3.30121 2.84643 38.7197
174 1 16.3077 5.4001 7.98416
175 1 14.7333 5.03117 12.6212
176 1 13.2004 4.69024 17.3516
177 1 11.5803 4.30098 22.1074
178 1 10.4308 5.52333 24.4151
179 1 9.77417 4.16427 26.783
180 1 9.14604 2.63283 29.2084
181 1 8.58439 5.31913 29.298
182 1 8.07143 3.82513 31.5276
183 1 7.54626 2.11567 33.8528
184 1 7.04785 5.09151 33.9823
185 1 6.46054 3.29327 36.2347
186 1 5.88241 1.88143 38.6752
187 1 5.44821 4.61506 38.4805
188 1 17.9122 5.69203 10.4756
189 1 16.5425 5.47431 15.0854
190 1 14.5872 4.96418 19.7159
191 1 13.1452 4.71891 24.5088
192 1 11.3451 4.52381 29.2542
193 1 10.2717 5.75157 31.5273
194 1 9.7221 4.23317 33.7715
195 1 9.27664 2.46963 36.1335
196 1 8.66553 5.32072 36.1409
197 1 8.37332 3.53937 38.1964
198 1 18.1246 5.6571 17.5392
199 1 16.2905 5.24472 22.1625
200 1 14.853 4.90254 26.8707
201 1 13.1687 4.84577 31.5573
202 1 11.5358 4.37706 36.1914
203 1 10.5367 5.52478 38.4463
204 1 17.9406 5.57899 24.645
205 1 16.4635 5.41966 29.268
206 1 14.7999 5.1661 33.836
207 1 13.1559 4.83138 38.7857
208 1 18.1393 5.75954 31.522
209 1 16.3564 5.44675 36.399
210 1 17.9922 5.49667 38.9408
211 2 14.5403 1.28727 102.498
212 1 14.9728 0.83343 99.7586
213 1 3.59425 0.27253 103.524
214 1 2.39663 0.911489 99.0352
215 1 1.60374 1.42302 101.792
216 2 0.673386 0.397532 97.0836
217 1 15.0355 1.2145 94.7886
218 1 6.10344 1.47665 103.048
219 1 6.82732 1.06636 100.437
220 1 5.94534 6.43926 94.9573
221 1 4.78658 2.25707 99.0041
222 2 4.16437 1.05721 101.12
223 1 4.15957 1.27542 93.9507
224 1 2.29818 2.5303 95.4145
225 1 0.625821 0.689374 90.9622
226 1 3.29268 1.62291 90.9591
227 2 1.74394 1.64207 93.09
228 1 0.810134 0.760544 88.358
229 1 12.3554 6.63857 95.7341
230 1 7.21136 1.06547 89.2022
231 1 9.01377 6.46191 90.2349
232 1 12.1409 4.39273 103.449
233 1 3.72716 3.03254 102.83
234 1 8.3098 2.78724 102.163
235 1 6.16223 4.34582 103.483
236 2 8.13103 0.169056 102.489
237 2 5.76541 3.3575 101.278
238 1 7.3594 3.45267 99.1269
239 2 6.77888 1.25247 97.6949
240 1 4.91003 2.82385 96.3461
241 1 12.5924 1.47003 103.503
242 1 10.115 1.28795 101.126
243 1 14.3735 5.90563 99.0843
244 2 11.7403 1.2521 98.9679
245 1 10.2961 3.51629 99.7909
246 1 9.21453 1.58451 98.1191
247 1 11.2031 0.247603 96.599
248 1 7.81731 2.99528 96.0247
249 1 11.588 3.05459 97.1912
250 2 9.2537 4.24526 97.4775
251 1 8.40173 3.27039 93.1226
252 2 8.94799 1.77396 91.0535
253 1 10.1881 3.90104 91.1653
254 1 6.36439 1.61203 91.8445
255 1 8.57774 0.484557 93.1975
256 1 10.4439 4.11657 94.9966
257 1 7.26831 3.72886 90.3165
258 1 9.40873 2.66939 88.6488
259 1 12.8655 2.27279 100.905
260 2 10.8866 3.01096 102.447
261 1 12.4522 4.88636 100.883
262 2 13.2543 3.58838 98.8715
263 1 15.2527 3.62651 100.661
264 1 11.5199 5.59766 98.1829
265 1 13.9447 4.40192 96.6849
266 2 6.71529 1.49872 94.5342
267 2 5.15977 2.45256 89.535
268 1 10.8967 5.1067 88.7065
269 1 2.7031 3.74818 100.121
270 1 13.7536 1.58393 97.2105
271 1 10.9773 1.85807 93.0958
272 1 11.5344 1.38656 90.2471
273 2 14.1616 1.85648 89.5872
274 1 12.2278 2.90938 87.9978
275 2 3.17925 3.93605 97.4599
276 1 16.0167 3.03781 98.0853
277 1 16.3835 4.80268 95.9056
278 2 12.8132 2.67457 94.9723
279 1 13.6245 1.96721 92.2225
280 2 14.3164 5.90619 94.501
281 1 12.4937 4.4824 92.9987
282 1 13.0361 3.96941 90.4398
283 1 15.3401 3.71118 93.6666
284 1 16.0431 3.33529 91.1403
285 1 13.4731 6.47092 89.2434
286 1 14.7349 5.70634 102.756
287 1 9.36702 6.5548 96.2116
288 2 17.0385 4.26632 102.626
289 1 16.5419 6.2926 100.914
290 1 5.00856 4.95811 99.2123
291 1 4.30877 5.50129 101.782
292 1 17.3184 5.76883 98.4548
293 1 16.8452 6.44386 93.7355
294 1 17.5285 5.95775 91.1009
295 1 14.8424 5.76242 91.6746
296 2 15.7562 5.027 89.1609
297 1 5.88669 3.94702 93.9185
298 1 3.64894 5.02893 95.335
299 1 3.03964 3.81948 92.9278
300 1 4.67487 4.50931 90.9289
301 2 4.26305 6.01181 93.0234
302 1 9.63072 5.41093 102.139
303 1 6.92328 5.4674 97.2046
304 1 6.94379 5.49912 101.1
305 1 8.88893 6.25943 99.0304
306 2 8.06195 5.18736 94.7031
307 1 6.95071 5.85418 92.241
308 1 2.69609 3.59438 89.1152
309 2 6.53125 6.10518 89.6907
310 1 9.97667 5.90627 93.2288
311 2 11.6384 5.96503 91.1417
312 1 5.44971 4.63325 88.1636
313 1 3.69818 1.08883 88.0614
314 1 13.4935 0.619993 87.5288
315 2 16.9124 6.46925 85.039
316 1 14.3857 -0.134695 83.0334
317 1 6.12965 2.10347 83.2073
318 1 2.28304 -0.0966352 83.8618
319 2 0.918274 0.456196 81.5774
320 1 19.1774 6.08932 77.2191
321 1 1.72538 0.0677624 75.0955
322 1 5.65751 6.46496 79.105
323 1 14.2373 -0.0991072 74.2872
324 1 4.25439 1.46264 85.1391
325 2 8.7056 6.69844 82.9934
326 1 10.8005 6.72816 84.9395
327 1 3.28968 2.10301 82.1961
328 1 5.4439 0.962837 80.7835
329 1 2.42581 1.21328 72.7391
330 1 9.54889 0.138868 84.2569
331 2 13.9885 6.38503 81.5716
332 1 11.5292 6.36174 82.439
333 1 7.98428 1.02851 80.0412
334 2 6.04362 2.35906 78.5735
335 1 3.83065 0.440391 77.0138
336 1 4.53414 0.255956 74.4275
337 1 10.8071 6.50415 77.8192
338 1 11.3873 6.08018 75.2375
339 1 6.41745 2.15658 87.0762
340 1 1.56378 2.46302 80.1118
341 2 8.63664 0.544838 87.0064
342 2 10.2389 4.0223 86.5199
343 1 8.41653 2.43381 84.9757
344 1 11.9563 1.50417 82.9632
345 1 11.3661 1.93645 85.6922
346 1 10.6821 3.85143 83.8808
347 1 9.12974 2.19267 82.2677
348 1 8.42073 2.42627 77.6338
349 1 9.07548 1.93161 75.0072
350 1 6.28183 1.94842 75.8006
351 2 7.31884 1.26742 73.1521
352 1 14.8118 3.125 87.3165
353 1 13.4512 3.96593 83.1322
354 1 12.7234 4.50754 85.8298
355 2 11.6619 3.3984 81.1934
356 1 10.5096 3.86622 78.7899
357 1 17.068 4.57472 86.9242
358 1 2.74521 4.2037 84.4041
359 1 16.4836 6.44016 77.7127
360 1 10.6296 0.959677 79.3907
361 1 12.6744 2.57134 78.9363
362 1 13.8242 6.64352 76.9814
363 1 11.6054 0.573827 74.9822
364 2 11.0203 2.12936 76.9137
365 1 1.62797 1.96006 85.9398
366 1 15.7946 5.44169 83.046
367 2 15.5116 4.08463 85.0181
368 1 14.1443 2.24919 81.135
369 1 14.1787 1.92713 84.9307
370 1 16.0664 2.51127 83.1356
371 2 14.9005 1.58097 78.7184
372 1 13.6142 1.93417 76.3496
373 1 14.9699 3.99162 77.7841
374 1 13.0228 5.2978 79.357
375 1 13.4725 6.59422 73.1805
376 1 11.3656 3.50683 74.8624
377 2 13.2632 2.39799 73.6981
378 1 14.0095 4.65304 75.0207
379 2 12.4112 4.48114 77.0094
380 1 11.4987 3.6245 72.1944
381 1 4.15013 3.58631 79.9045
382 1 1.52431 1.93072 77.3112
383 1 2.66067 3.98324 73.1298
384 1 15.6568 2.50716 74.3838
385 2 2.98773 2.29851 75.059
386 1 12.0403 0.820465 72.282
387 1 14.9582 5.97411 86.7002
388 1 4.14997 6.12957 85.8884
389 2 3.95734 3.42026 86.7791
390 2 17.5994 4.28352 81.7304
391 1 15.6766 5.00237 80.1731
392 1 8.256 4.8981 87.9692
393 1 5.79185 4.12653 85.2702
394 2 7.4207 4.37449 83.124
395 1 4.76474 4.57396 82.4036
396 1 6.98245 3.39248 80.8579
397 1 18.247 6.17732 80.1209
398 1 7.03984 6.06279 81.2285
399 2 4.47289 4.59593 75.0856
400 1 17.1512 4.46329 75.8233
401 1 4.13225 3.09835 77.1666
402 1 4.9311 5.26433 72.7795
403 1 8.49548 5.17357 85.1693
404 2 6.6837 6.10943 86.5934
405 2 17.4734 4.19343 78.4054
406 2 16.0178 5.33448 73.4263
407 1 9.43983 4.75795 81.2484
408 1 6.2937 4.51796 77.0103
409 1 7.12216 4.13799 74.4326
410 2 9.68609 4.75694 73.6064
411 1 7.53576 5.66108 72.0716
412 2 8.07527 5.2368 78.9949
413 1 9.06987 4.80023 76.363
414 1 5.00576 2.60968 73.214
415 2 1.45832 -0.0589089 70.6139
416 1 2.15227 0.103741 67.7757
417 1 10.1443 5.99359 71.2669
418 1 4.72942 0.135062 67.0442
419 1 4.17592 0.71459 69.8097
420 2 6.99147 6.15089 65.1524
421 1 2.04623 0.308068 62.6851
422 1 8.5262 0.726501 70.8692
423 1 9.46611 0.228096 68.3428
424 1 8.3697 5.69958 62.8259
425 1 7.16079 1.64049 66.8336
426 2 6.78445 0.235552 69.0754
427 1 6.79831 0.362636 61.7699
428 1 4.49942 1.79199 63.2199
429 1 6.94823 6.5942 58.9869
430 1 5.66407 1.10275 58.9417
431 2 4.17264 0.823826 60.9235
432 1 6.80929 5.96053 56.2168
433 1 15.0014 5.95543 63.8579
434 1 9.72033 0.358276 57.2327
435 1 11.3514 5.63257 58.1422
436 1 14.4782 3.88457 71.9882
437 1 6.21249 2.16633 70.7752
438 1 10.7691 2.17659 69.9497
439 1 8.66331 3.44355 71.5303
440 2 14.6403 6.06158 70.823
441 2 8.31736 2.6139 69.0705
442 1 9.81584 2.68021 66.9293
443 2 9.16237 0.541779 65.6226
444 1 7.45991 1.86858 64.2169
445 1 14.9083 0.914566 71.876
446 1 12.401 0.223953 69.2169
447 1 16.6807 5.07094 67.1953
448 2 14.0854 0.605377 67.0905
449 1 12.9578 2.8376 67.8535
450 1 11.5779 0.724768 66.3074
451 1 17.6234 6.1586 64.8481
452 1 10.286 2.24621 64.022
453 1 13.9046 2.15557 65.1315
454 2 11.7923 3.52917 65.4382
455 1 10.8805 2.34104 61.2179
456 2 11.369 1.02501 59.1294
457 1 12.7326 3.17411 59.214
458 1 8.84756 0.970294 59.8476
459 1 15.1934 6.27093 61.1753
460 1 12.9214 3.08352 62.9652
461 1 9.71487 3.0489 58.1951
462 1 11.7915 2.09049 56.7258
463 1 15.2522 1.42317 69.2154
464 2 13.2131 2.35056 70.4618
465 1 14.9975 4.18461 69.1121
466 2 15.6009 2.83217 66.9866
467 1 2.3134 3.02125 68.9473
468 1 14.0075 4.90228 66.2159
469 1 16.2317 3.57893 64.7601
470 2 9.19145 0.681323 62.3569
471 2 7.467 1.52323 57.4384
472 1 13.5672 4.33628 56.8193
473 1 4.93819 2.86816 68.247
474 1 0.884635 0.728919 65.2745
475 1 13.3794 1.16343 61.0339
476 1 13.9383 0.537277 58.4158
477 2 0.97677 0.489464 57.566
478 1 14.4955 1.84562 55.9884
479 2 5.65624 2.98563 65.4633
480 1 2.99591 2.64429 66.3612
481 1 3.52144 4.04157 63.9626
482 2 15.108 1.68206 62.9377
483 1 0.767502 1.06364 60.3326
484 2 16.8159 5.02463 62.512
485 1 14.9779 3.55283 60.8128
486 1 15.7492 3.06638 58.1069
487 1 2.58682 2.86175 61.6802
488 1 3.23307 2.63509 59.024
489 1 16.1604 5.75374 57.1119
490 1 17.0291 4.95168 70.9727
491 1 12.1053 5.7674 64.0917
492 2 3.9343 3.3321 70.9081
493 1 3.65862 5.44577 68.9671
494 1 7.35468 4.24073 67.0178
495 1 6.85826 4.698 69.6924
496 1 4.43067 4.99298 66.4312
497 1 4.00389 5.27214 61.6513
498 1 4.81093 5.07109 59.0643
499 1 17.1987 4.92728 59.7315
500 2 2.96399 4.33291 57.1149
501 1 8.19082 2.99143 61.9474
502 1 6.12575 4.19197 63.2169
503 1 5.44527 2.99257 60.8296
504 1 7.34961 3.67126 58.9758
505 2 6.65338 5.15943 61.0403
506 1 12.3767 4.66841 69.7598
507 1 9.21484 4.67302 65.0804
508 1 9.67257 4.73408 68.8411
509 1 11.517 5.49962 66.898
510 2 10.4756 4.43522 62.6296
511 1 9.2581 5.09292 60.2758
512 1 5.4746 3.35167 56.9926
513 2 8.75435 5.30217 57.6659
514 1 12.6071 5.0441 61.2721
515 2 14.2077 5.29989 59.0494
516 1 8.26227 3.33064 55.8409
517 1 5.39117 0.514612 56.2607
518 1 3.94327 6.12951 55.3323
519 2 3.52935 5.19916 53.0902
520 1 4.97384 5.43776 50.8912
521 1 8.28434 0.804554 50.8938
522 1 8.44018 5.34544 51.8291
523 2 7.0717 5.93991 49.2999
524 1 6.03195 4.68875 45.1011
525 1 7.9137 5.33624 43.0184
526 1 7.90874 4.99711 47.0148
527 1 5.0621 5.23178 42.0007
528 1 6.43876 0.22819 52.9551
529 2 11.0077 5.28045 50.9729
530 1 12.8108 5.31751 52.8446
531 1 5.49722 0.711424 50.1283
532 1 11.5434 6.28474 48.4488
533 1 8.74635 6.58573 40.762
534 1 15.6063 5.57142 52.3099
535 2 16.1491 5.42088 49.6329
536 1 13.5918 5.03294 50.1684
537 1 14.121 6.41367 48.0256
538 2 8.25076 1.0298 46.4199
539 1 10.0842 5.73088 45.0235
540 1 10.9059 5.35862 42.444
541 1 12.898 5.18742 45.8615
542 1 13.7175 4.66608 43.2278
543 1 8.1601 0.652376 55.0645
544 1 3.67589 1.10029 48.0004
545 2 14.7162 5.96881 54.9577
546 2 12.549 3.11992 54.5944
547 1 10.2031 1.17236 53.0518
548 1 13.922 0.143585 51.1643
549 1 13.2089 0.600471 53.6779
550 1 12.7281 2.70681 51.7813
551 1 11.1513 0.889976 50.3124
552 1 10.6394 0.964383 45.7188
553 1 11.2932 0.561351 43.0577
554 1 8.65255 0.498446 43.8684
555 2 9.33939 -0.26378 41.1013
556 1 1.72022 1.83848 55.488
557 1 15.5263 2.67606 50.9465
558 1 14.8682 3.04346 53.6055
559 2 13.6095 1.8841 49.2264
560 1 12.4187 2.47448 46.865
561 1 3.96739 3.3905 54.8759
562 1 4.84937 2.77423 52.264
563 1 3.40494 5.01287 45.6964
564 1 16.7467 6.32047 47.3404
565 1 14.7782 1.20152 46.875
566 1 15.8225 5.12591 45.1485
567 1 17.6929 5.8416 43.0138
568 2 13.1133 0.543949 45.0185
569 1 3.78761 0.690093 53.872
570 1 2.39078 4.19351 50.8795
571 2 2.22216 2.66764 52.9428
572 1 0.652412 0.762135 49.1284
573 1 0.892293 0.580699 53.0065
574 1 2.87026 1.12235 50.7881
575 2 1.82838 0.171929 46.5939
576 1 0.439951 0.697089 44.3733
577 1 1.79793 2.65673 45.9632
578 1 15.1261 3.76904 47.7609
579 1 15.6889 5.28046 41.0966
580 1 13.4617 2.05157 43.0637
581 2 15.2711 0.695762 41.4959
582 1 16.128 3.21442 43.1633
583 2 14.4521 2.9378 45.2624
584 1 14.3435 3.1098 40.7667
585 1 6.50502 2.26158 47.7411
586 1 3.60827 0.698354 45.0943
587 1 4.63253 2.58283 41.0234
588 1 2.3589 0.892499 42.0043
589 2 5.18465 0.869584 43.0421
590 1 12.8425 0.976598 40.7484
591 1 16.8456 4.48891 54.8614
592 1 6.0419 4.83015 53.828
593 2 6.13982 2.21342 54.6333
594 2 4.4102 3.02168 49.6313
595 1 2.51342 3.99618 48.1385
596 1 10.8037 4.59939 55.8209
597 1 7.88425 2.83005 53.0371
598 2 9.35005 3.05666 51.0748
599 1 6.92017 3.37993 50.2002
600 1 9.12714 2.22462 48.6965
601 1 5.14892 4.86929 47.805
602 1 9.35433 4.85222 49.1042
603 2 6.48138 3.23862 42.9676
604 1 3.72611 3.24921 43.4869
605 1 6.25792 1.74446 45.0908
606 1 7.00325 4.09052 40.6497
607 1 10.5634 3.82215 53.2015
608 2 8.79357 5.19411 54.4907
609 2 4.38009 2.85661 46.3875
610 2 17.7097 3.62596 41.102
611 1 11.5076 3.47527 49.3416
612 1 8.4511 3.32515 44.8987
613 1 9.22502 2.74427 42.4583
614 2 11.7126 3.00886 41.4011
615 1 9.74423 4.28755 40.4846
616 2 10.333 3.79968 46.8818
617 1 11.2745 3.3965 44.2241
618 1 7.09981 1.21296 41.4488
ITEM: TIMESTEP
4500
ITEM: NUMBER OF ATOMS
618
ITEM: BOX BOUNDS xy xz yz pp pp ff
0.0000000000000000e+00 1.9317770367296919e+01 4.0025167278329121e+00
0.0000000000000000e+00 6.6702723500479264e+00 0.0000000000000000e+00
0.0000000000000000e+00 1.0921147561319708e+02 0.0000000000000000e+00
ITEM: ATOMS id type x y z
1 1 4.25178 6.11044 5.536
2 1 5.83281 6.41817 7.96888
3 1 4.33064 5.99056 12.6566
4 1 5.0959 0.256189 5.73689
5 1 7.67561 6.60034 10.2442
6 1 6.0942 6.30587 14.9951
7 1 4.4829 6.13055 19.8227
8 1 11.6714 6.01477 5.67432
9 1 6.91255 0.47958 8.12344
10 1 5.31305 0.275603 12.6475
11 1 7.75624 6.64919 17.448
12 1 5.97277 6.41075 22.3477
13 1 4.40169 5.98253 26.9975
14 1 10.1253 1.22701 5.72424
15 1 13.6557 6.4909 7.95207
16 1 8.52004 0.975491 10.4896
17 1 12.0919 6.09177 12.7433
18 1 6.75232 0.771922 15.0683
19 1 5.18975 0.372881 19.8137
20 1 7.65697 6.61955 24.6476
21 1 5.96807 6.37579 29.2424
22 1 4.29667 6.20212 33.9644
23 1 12.7702 0.29369 5.45348
24 1 12.5725 3.34997 5.54979
25 1 11.8622 1.79735 7.94005
26 1 15.2041 6.67786 10.5405
27 1 10.8062 2.8711 10.4512
28 1 10.2687 1.25294 13.0426
29 1 13.6154 6.49022 15.3103
30 1 8.49372 0.860795 17.5697
31 1 11.9999 5.81636 19.8971
32 1 6.98637 0.574243 22.2177
33 1 5.28138 0.185932 26.7466
34 1 3.67204 0.0219274 31.4999
35 1 5.80647 6.33698 36.2243
36 1 15.3028 2.29071 5.4404
37 1 14.3884 0.71184 7.79037
38 1 13.9787 3.57067 8.1478
39 1 13.5221 1.87266 10.4704
40 1 13.1333 0.382446 12.868
41 1 12.4587 3.22953 12.7586
42 1 11.8507 1.6419 15.046
43 1 15.2293 6.65192 17.4463
44 1 10.8826 2.83635 17.562
45 1 10.1278 1.25125 19.8988
46 1 13.6505 6.23469 22.1872
47 1 8.76679 0.797145 24.4346
48 1 11.9436 6.009 26.7487
49 1 6.95174 0.559438 28.9781
50 1 5.46613 0.308877 33.8687
51 1 3.45385 -0.141986 38.4411
52 1 2.42252 1.21927 5.61266
53 1 17.5272 4.20593 5.31244
54 1 1.42326 2.72894 8.03596
55 1 0.837514 1.0849 10.2755
56 1 15.6915 3.84586 10.3618
57 1 15.2829 2.34433 12.7201
58 1 14.6118 0.665742 15.0799
59 1 14.1755 3.48957 15.1391
60 1 13.4789 1.86654 17.3428
61 1 12.8803 0.322274 19.8022
62 1 12.3964 3.16636 19.886
63 1 11.8962 1.61852 22.0464
64 1 15.2944 6.4237 24.538
65 1 10.6196 2.70061 24.2498
66 1 10.2128 1.1043 26.7057
67 1 13.5992 6.38385 29.1667
68 1 8.48295 1.11032 31.5625
69 1 12.1744 6.05043 33.9559
70 1 6.971 0.587959 36.2366
71 1 4.69381 3.2357 5.6387
72 1 4.31407 1.69347 8.11034
73 1 3.6931 4.52597 7.78131
74 1 3.20267 2.84342 10.3019
75 1 2.64353 1.16812 12.5759
76 1 17.4215 4.12025 12.5887
77 1 1.61391 2.61516 15.0111
78 1 0.855382 0.882448 17.2784
79 1 15.6103 3.80344 17.4145
80 1 15.1879 2.13933 19.7476
81 1 14.6002 0.640848 22.0696
82 1 14.1928 3.3003 22.1143
83 1 13.502 1.87339 24.4082
84 1 13.0958 0.349676 26.8636
85 1 12.4325 3.0459 26.7897
86 1 11.8092 1.50226 29.29
87 1 10.9988 -0.0406443 31.6434
88 1 10.7251 2.86681 31.5009
89 1 10.1981 1.29902 33.9333
90 1 13.7178 6.2396 36.5424
91 1 8.71548 0.829096 38.7493
92 1 7.26325 2.27531 5.55567
93 1 6.91749 5.08562 5.47191
94 1 6.44401 3.5275 8.10182
95 1 5.8931 1.98448 10.4042
96 1 5.38591 4.80088 10.3191
97 1 4.76763 3.23235 12.6205
98 1 4.19844 1.54588 15.0615
99 1 3.91438 4.47597 15.1047
100 1 3.22232 2.75468 17.639
101 1 2.60955 1.36463 19.8751
102 1 17.4849 4.18821 19.702
103 1 1.57313 2.59576 22.3711
104 1 0.860814 0.969097 24.5691
105 1 15.9048 3.76763 24.5748
106 1 15.1975 2.26267 26.7835
107 1 14.5531 0.80495 29.413
108 1 14.0321 3.6691 29.2475
109 1 13.4029 2.00427 31.596
110 1 12.7533 0.295583 33.8883
111 1 12.5748 3.07533 33.9744
112 1 11.7549 1.43037 36.262
113 1 15.0951 6.29505 38.8073
114 1 11.1905 2.4737 38.8927
115 1 9.54683 3.96987 5.73139
116 1 8.93141 2.52827 8.13365
117 1 8.46896 5.37683 8.24791
118 1 8.12562 3.58171 10.4568
119 1 7.53228 2.24963 12.8051
120 1 7.01469 4.99718 12.6147
121 1 6.46737 3.5241 15.087
122 1 5.94225 1.9328 17.5308
123 1 5.4666 4.7263 17.5092
124 1 4.88772 3.29465 19.8304
125 1 4.25955 1.80715 22.0195
126 1 3.89445 4.40041 22.0465
127 1 3.23711 2.67979 24.5557
128 1 2.51841 1.28792 26.8278
129 1 17.2934 4.15418 26.9039
130 1 1.48131 2.60863 29.2952
131 1 0.991561 0.988021 31.5094
132 1 15.8216 3.92787 31.6274
133 1 15.2261 2.45572 33.8361
134 1 14.6132 0.541465 36.2436
135 1 14.0636 3.25319 36.244
136 1 13.6819 1.58113 38.4771
137 1 11.3484 4.49822 8.15753
138 1 10.3638 5.66185 10.4287
139 1 9.8577 4.11056 12.669
140 1 9.16162 2.57549 15.2635
141 1 8.76763 5.35042 15.1353
142 1 8.1018 3.77609 17.5269
143 1 7.3905 2.13672 19.907
144 1 7.04504 5.16011 19.8951
145 1 6.43332 3.45896 22.3001
146 1 6.01431 1.84206 24.5706
147 1 5.41357 4.70566 24.7181
148 1 4.68473 3.1349 26.9374
149 1 4.2818 1.48864 29.049
150 1 3.62468 4.45643 29.319
151 1 3.13309 3.00865 31.5611
152 1 2.62936 1.36758 33.7387
153 1 17.4787 4.22907 34.0275
154 1 1.45614 2.60059 36.3873
155 1 0.990917 1.04705 39.016
156 1 15.9873 3.74099 38.8103
157 1 14.7307 4.9843 5.48596
158 1 13.0985 4.67404 10.4151
159 1 11.5252 4.5725 15.1513
160 1 10.3699 5.6415 17.4324
161 1 9.68999 4.24839 19.7211
162 1 9.0601 2.49437 21.9593
163 1 8.66989 5.38538 22.3486
164 1 8.24407 3.70751 24.6066
165 1 7.62211 2.16401 26.7437
166 1 6.91132 4.83476 26.8972
167 1 6.47652 3.34633 29.2576
168 1 5.74979 1.87651 31.5008
169 1 5.36545 4.85225 31.5217
170 1 4.77669 3.24971 34.0988
171 1 4.22318 1.49867 36.1381
172 1 3.83783 4.45588 36.4807
173 1 3.2743 2.78688 38.8289
174 1 16.209 5.53271 7.98482
175 1 14.7307 5.16385 12.7594
176 1 13.006 4.72119 17.5326
177 1 11.3119 4.34352 22.2725
178 1 10.3872 5.63943 24.5438
179 1 9.75672 3.93695 26.9534
180 1 9.07147 2.43239 29.1762
181 1 8.78393 5.29916 29.0762
182 1 8.06038 3.86046 31.3332
183 1 7.41266 2.26697 33.769
184 1 7.07597 5.29828 33.7423
185 1 6.48988 3.54856 36.3274
186 1 6.00521 1.87099 38.5531
187 1 5.20087 4.85728 39.0466
188 1 17.9318 5.69171 10.3148
189 1 16.3588 5.34366 15.1904
190 1 14.7947 4.97829 19.841
191 1 12.9671 4.5188 24.5331
192 1 11.3767 4.35544 29.1117
193 1 10.3487 5.7384 31.5235
194 1 9.80044 4.13854 33.8848
195 1 9.09299 2.37407 36.0414
196 1 8.62244 5.37939 36.0551
197 1 8.44179 3.5429 38.1786
198 1 18.0084 5.68745 17.2918
199 1 16.3137 5.21445 22.1733
200 1 14.605 5.14713 26.9318
201 1 12.9259 4.74115 31.5974
202 1 11.5022 4.37713 36.2625
203 1 10.4193 5.71541 38.3324
204 1 18.1176 5.65246 24.4605
205 1 16.2221 5.47215 29.2482
206 1 14.5512 5.12059 34.0315
207 1 13.0324 4.64947 38.8072
208 1 17.9845 5.85519 31.6013
209 1 16.3658 5.37185 36.3089
210 1 17.9515 5.47256 38.8892
211 2 14.4296 1.30975 102.352
212 1 14.9997 1.03678 99.7021
213 1 3.49722 0.061537 103.404
214 1 2.36119 0.918299 99.0755
215 1 1.57975 1.33694 101.729
216 2 0.695653 0.351543 97.1129
217 1 14.9782 1.22111 94.78
218 1 5.98384 1.65558 102.911
219 1 6.72875 1.09574 100.251
220 1 5.93328 6.51653 94.977
221 1 4.74582 2.42232 98.9297
222 2 4.35387 1.11879 101.1
223 1 4.26703 1.19192 93.9267
224 1 2.4538 2.62433 95.3809
225 1 0.503962 0.600044 90.9381
226 1 3.25396 1.75636 90.9081
227 2 1.65967 1.51379 93.0096
228 1 0.781488 0.906433 88.3395
229 1 12.282 6.75007 95.8283
230 1 7.27235 1.06322 89.3006
231 1 9.01456 6.37375 90.3085
232 1 11.8168 4.51732 103.584
233 1 3.61463 2.89917 102.787
234 1 8.35591 2.77669 101.976
235 1 6.19273 4.22205 103.38
236 2 8.13238 0.289481 102.513
237 2 5.60796 3.50109 101.086
238 1 7.24715 3.59594 99.0765
239 2 6.59849 1.47382 97.7839
240 1 5.04045 2.84781 96.1997
241 1 12.5035 1.66638 103.464
242 1 10.3612 1.28911 101.556
243 1 14.2691 5.98337 99.1138
244 2 11.6447 1.33014 99.1001
245 1 10.1002 3.59474 99.9916
246 1 8.93861 1.61481 98.4119
247 1 11.0275 0.406818 96.7514
248 1 8.03935 2.85894 95.8624
249 1 11.4601 3.1062 97.2807
250 2 9.38358 4.31557 97.4254
251 1 8.3798 3.20302 93.1846
252 2 8.97876 1.74633 91.1474
253 1 10.1619 3.95503 91.2105
254 1 6.35089 1.78396 91.8215
255 1 8.72064 0.32682 93.2518
256 1 10.5037 3.90181 95.0611
257 1 7.48118 3.86134 90.2106
258 1 9.61833 2.51869 88.788
259 1 12.7946 2.25578 100.836
260 2 10.9021 3.21861 102.444
261 1 12.5136 4.9217 100.943
262 2 13.4974 3.55751 98.9116
263 1 15.115 3.71358 100.884
264 1 11.5358 5.73338 98.4036
265 1 13.7563 4.58753 96.7941
266 2 6.72385 1.3041 94.4971
267 2 5.12755 2.46408 89.5241
268 1 11.0091 5.04757 88.7381
269 1 2.5297 3.75989 100.092
270 1 13.6299 1.61432 97.2036
271 1 10.964 1.8871 93.0933
272 1 11.7412 1.41272 90.4611
273 2 14.1778 1.63671 89.5436
274 1 12.2207 2.846 88.1464
275 2 3.16509 3.75193 97.5137
276 1 15.9226 3.13099 98.0706
277 1 16.4154 4.84755 95.9959
278 2 12.718 2.40985 95.0116
279 1 13.6668 1.98256 92.2395
280 2 14.2754 5.73578 94.6029
281 1 12.5118 4.33339 92.9871
282 1 13.1791 4.01728 90.3782
283 1 15.6131 3.70131 93.7782
284 1 16.0694 3.29614 91.1147
285 1 13.5226 6.46523 89.3712
286 1 14.6026 5.58432 103.007
287 1 9.4897 6.47007 96.1344
288 2 16.9382 4.38853 102.642
289 1 16.5381 6.21277 100.921
290 1 4.77779 5.07194 99.1004
291 1 4.18406 5.5631 101.946
292 1 17.2381 5.8713 98.3309
293 1 16.8956 6.3726 93.7422
294 1 17.6261 5.80403 91.1346
295 1 14.9112 5.73859 91.8921
296 2 15.7326 5.23544 89.3078
297 1 5.77385 3.80382 93.7778
298 1 3.73983 5.05188 95.3167
299 1 3.1323 3.62907 92.9472
300 1 4.94463 4.436 90.9332
301 2 4.23788 5.90874 93.0649
302 1 9.90023 5.59094 102.047
303 1 6.78661 5.29622 97.0189
304 1 7.17473 5.59407 101.06
305 1 8.77909 6.09569 98.9784
306 2 8.03195 5.18742 94.7433
307 1 6.89287 5.85032 92.3538
308 1 2.73574 3.84573 89.1873
309 2 6.47655 6.24376 89.7384
310 1 9.99557 5.94176 93.2843
311 2 11.6905 6.14093 91.2762
312 1 5.38354 4.64612 88.1085
313 1 3.71562 1.04178 88.1066
314 1 13.4236 0.762553 87.138
315 2 16.8184 6.34713 84.9269
316 1 14.3639 -0.0741683 82.8397
317 1 6.15164 2.12203 83.1786
318 1 2.05214 -0.0040575 83.8187
319 2 1.05223 0.623311 81.409
320 1 19.091 6.09702 77.0996
321 1 1.58121 -0.0419693 75.2141
322 1 5.71622 6.27117 78.942
323 1 14.1103 -0.0948009 74.1141
324 1 4.31675 1.25046 85.3619
325 2 8.9746 6.51829 83.3247
326 1 10.8438 6.73184 85.0754
327 1 3.37953 2.09395 82.3751
328 1 5.37811 0.884884 80.9159
329 1 2.58569 1.2102 72.8672
330 1 9.61112 0.205878 84.3095
331 2 13.8625 6.45042 81.4319
332 1 11.5078 6.372 82.4681
333 1 7.79835 0.974745 80.0473
334 2 6.01943 2.37057 78.5992
335 1 3.93675 0.528607 77.2621
336 1 4.3928 -0.0749126 74.6124
337 1 10.7683 6.44079 77.7178
338 1 11.4877 6.05722 75.2374
339 1 6.3702 2.18829 87.0497
340 1 1.75917 2.41362 79.9828
341 2 8.61988 0.585827 86.9714
342 2 10.1292 3.82032 86.5892
343 1 8.38899 2.5955 84.9985
344 1 11.975 1.56294 82.9556
345 1 11.2523 1.84163 85.5518
346 1 10.8024 3.93304 83.8561
347 1 9.0732 2.1611 82.3932
348 1 8.34135 2.40393 77.7015
349 1 8.9338 1.88876 74.9893
350 1 6.24255 1.85644 75.9344
351 2 7.09561 1.14304 73.2362
352 1 14.7762 3.32751 87.4209
353 1 13.5653 4.18138 83.1145
354 1 12.6189 4.53072 85.9458
355 2 11.8232 3.58519 81.1358
356 1 10.4934 3.89422 78.8622
357 1 17.0311 4.70058 86.9935
358 1 2.74278 4.04689 84.369
359 1 16.3369 6.65675 77.8337
360 1 10.3883 1.13296 79.441
361 1 12.7044 2.58025 78.8887
362 1 13.6801 6.48606 76.8164
363 1 11.541 0.575567 74.8104
364 2 10.8152 1.97812 76.9212
365 1 1.72088 2.00265 86.0943
366 1 15.8584 5.4363 82.9285
367 2 15.3484 4.21089 85.1033
368 1 14.0812 2.27121 81.0018
369 1 14.253 1.80694 84.8559
370 1 15.9976 2.6381 82.952
371 2 14.851 1.29765 78.731
372 1 13.5457 2.03234 76.2841
373 1 14.9544 4.0107 78.0247
374 1 12.8981 5.37899 79.2681
375 1 13.3084 6.37536 73.0904
376 1 11.3854 3.32181 75.0549
377 2 13.3401 2.13594 73.5399
378 1 14.0429 4.42357 75.0051
379 2 12.3138 4.33768 77.0743
380 1 11.8816 3.88297 72.4362
381 1 4.30769 3.52526 79.8524
382 1 1.28228 1.98883 77.1243
383 1 2.84666 3.95555 73.2707
384 1 15.7939 2.45333 74.1169
385 2 2.94354 2.07813 75.2007
386 1 12.0975 0.832953 72.0882
387 1 14.8153 6.09368 86.8235
388 1 3.95449 5.88517 85.9108
389 2 3.89699 3.21336 86.733
390 2 17.7434 4.23452 81.6316
391 1 15.4921 5.08486 80.2244
392 1 8.22202 4.83182 87.8171
393 1 5.85093 4.12636 85.2632
394 2 7.49754 4.23194 83.1327
395 1 4.7931 4.71041 82.1923
396 1 7.0252 3.36027 80.8729
397 1 18.3642 6.10927 80.1054
398 1 7.17388 6.03731 81.2692
399 2 4.42586 4.46073 75.0369
400 1 16.9835 4.5635 75.9126
401 1 4.10792 3.21739 77.1633
402 1 5.16791 5.35869 72.7835
403 1 8.44145 5.19014 85.1592
404 2 6.45475 6.35841 86.5079
405 2 17.5159 4.37999 78.5486
406 2 15.9539 5.20451 73.411
407 1 9.51751 4.70671 81.3175
408 1 6.35286 4.46279 76.8142
409 1 7.12839 4.0209 74.2112
410 2 9.70521 4.72861 73.6652
411 1 7.74507 5.72927 72.1059
412 2 8.18678 5.24676 79.0143
413 1 9.15763 4.65774 76.3443
414 1 4.962 2.451 73.3796
415 2 1.62158 0.105657 70.5161
416 1 2.26242 -0.0129007 67.7774
417 1 10.3271 6.04517 71.2848
418 1 4.88973 0.185389 67.1016
419 1 4.19803 0.635799 69.8101
420 2 7.18625 6.18588 65.1432
421 1 2.11291 0.221119 62.9293
422 1 8.63032 0.856626 70.8651
423 1 9.48705 0.216735 68.2696
424 1 8.45921 5.66548 62.9093
425 1 7.21923 1.53426 66.968
426 2 6.86864 0.173254 69.0381
427 1 6.78391 0.388802 62.0614
428 1 4.5576 1.50354 63.4858
429 1 6.96981 6.37755 58.8572
430 1 5.57529 0.946378 58.8909
431 2 3.91729 0.700422 61.0786
432 1 6.92331 5.95836 56.1842
433 1 14.9561 6.05687 63.8935
434 1 9.6792 0.358317 57.2118
435 1 11.534 5.48981 58.1992
436 1 14.7234 3.86124 71.8351
437 1 6.19309 2.19458 70.898
438 1 11.0213 2.1574 69.9308
439 1 9.00148 3.4284 71.5921
440 2 14.6273 6.13857 70.548
441 2 8.24855 2.58921 69.0252
442 1 9.89927 2.85914 67.0112
443 2 9.1567 0.559527 65.739
444 1 7.42184 1.87998 64.3034
445 1 15.0612 0.923509 71.7396
446 1 12.6331 0.17722 69.1354
447 1 17.012 4.81079 67.2359
448 2 14.2669 0.34382 67.0493
449 1 12.9164 2.80337 67.8349
450 1 11.7619 0.807115 66.234
451 1 17.7367 6.26576 64.7055
452 1 10.1727 2.21778 64.0087
453 1 13.9919 2.31064 65.2182
454 2 11.857 3.46843 65.4408
455 1 10.7833 2.28111 61.1053
456 2 11.4773 0.938475 59.1084
457 1 12.7529 3.07959 59.2827
458 1 8.79997 0.848389 59.8266
459 1 14.9673 6.19567 61.155
460 1 12.8478 3.07699 62.91
461 1 9.95352 3.00536 58.2279
462 1 11.9021 1.72712 56.6901
463 1 15.3071 1.35183 69.1403
464 2 13.4044 2.48025 70.4307
465 1 15.042 4.18193 69.1634
466 2 15.6265 2.79544 67.1505
467 1 2.31877 2.73381 69.0727
468 1 14.1426 4.92366 66.374
469 1 16.2218 3.74459 64.906
470 2 9.10865 0.65042 62.5329
471 2 7.522 1.52285 57.2735
472 1 13.5994 4.21541 56.8633
473 1 4.97681 2.89785 68.3297
474 1 0.919133 0.893424 65.294
475 1 13.3938 1.00929 61.1647
476 1 14.0548 0.701818 58.5118
477 2 1.08248 0.602763 57.3927
478 1 14.3979 1.84195 56.0819
479 2 5.61252 2.87797 65.6471
480 1 2.9908 2.35901 66.3378
481 1 3.4401 3.93099 64.0911
482 2 15.301 1.70008 62.9627
483 1 0.850521 1.08727 60.212
484 2 16.7295 5.02244 62.5512
485 1 14.8622 3.51452 61.026
486 1 15.7797 3.14336 58.4582
487 1 2.60495 2.82429 61.7506
488 1 3.30904 2.48033 59.0558
489 1 16.0056 5.72303 57.3081
490 1 17.1708 4.91818 70.9226
491 1 12.1946 5.61654 64.1763
492 2 4.17265 3.36886 71.0527
493 1 3.83266 5.29871 68.943
494 1 7.45643 4.33649 67.1206
495 1 6.80158 4.60474 69.7999
496 1 4.47328 4.99343 66.3148
497 1 4.04406 5.57397 61.8866
498 1 4.72996 5.01772 59.1696
499 1 17.2969 4.87216 59.9309
500 2 2.74684 4.36423 57.1009
501 1 8.2551 2.96236 61.8576
502 1 6.0521 4.1645 63.2743
503 1 5.39107 2.75727 60.8893
504 1 7.36984 3.5331 58.871
505 2 6.61951 4.99809 60.9696
506 1 12.4172 4.81805 69.9153
507 1 9.47184 4.842 65.1194
508 1 9.53659 4.67241 69.0794
509 1 11.5421 5.45165 67.1283
510 2 10.4663 4.33362 62.6484
511 1 9.34539 5.16237 60.3113
512 1 5.19353 3.25968 57.0663
513 2 9.03646 5.17135 57.5154
514 1 12.2734 5.06309 61.1657
515 2 14.0665 5.1901 59.0569
516 1 8.03785 3.49945 55.905
517 1 5.53133 0.321227 55.9505
518 1 4.17776 5.95618 55.2101
519 2 3.66701 5.17182 52.9663
520 1 5.17644 5.38055 50.9273
521 1 8.31377 0.953229 51.3079
522 1 8.25674 5.41572 51.6984
523 2 7.02536 5.92651 49.3063
524 1 5.95259 4.70732 44.8612
525 1 8.21429 5.20486 42.9755
526 1 7.79791 4.96199 46.8725
527 1 5.33924 5.41263 42.0304
528 1 6.29465 0.291972 52.9902
529 2 10.9013 5.54274 51.0009
530 1 12.9196 5.50159 52.746
531 1 5.53628 0.804721 50.1249
532 1 11.5655 6.37901 48.7029
533 1 8.94081 6.5949 40.7107
534 1 15.6433 5.6226 52.2559
535 2 16.2277 5.42932 49.6108
536 1 13.4991 4.95412 50.1978
537 1 14.061 6.48688 48.1362
538 2 8.22707 1.26282 46.5681
539 1 10.1387 5.79902 45.1798
540 1 10.8877 5.23768 42.492
541 1 12.9039 5.25466 45.8304
542 1 13.6276 4.61918 43.1823
543 1 8.28928 0.724053 54.9203
544 1 3.596 1.04478 47.8693
545 2 14.6732 6.13405 54.8862
546 2 12.4931 3.18545 54.5637
547 1 10.5285 1.34015 53.0685
548 1 14.0231 0.192737 51.0053
549 1 13.4543 0.691238 53.7349
550 1 12.966 2.70528 51.8941
551 1 11.2975 0.873127 50.4148
552 1 10.6067 1.06642 45.6947
553 1 11.2419 0.350328 43.1053
554 1 8.5837 0.411519 43.8059
555 2 9.48142 -0.10557 41.0277
556 1 1.61787 1.73543 55.1354
557 1 15.5584 2.76381 51.0501
558 1 14.9748 3.2653 53.6247
559 2 13.599 1.89595 49.0671
560 1 12.5853 2.49682 46.8025
561 1 3.72997 3.33111 54.8802
562 1 4.91936 2.96355 52.2237
563 1 3.51968 5.27782 45.8716
564 1 16.6517 6.35707 47.3452
565 1 14.8631 1.26598 46.8637
566 1 15.789 5.07758 45.0026
567 1 17.706 5.70526 43.0104
568 2 13.1807 0.543078 44.9896
569 1 3.80756 0.86548 53.8057
570 1 2.46906 4.14365 50.8216
571 2 2.14276 2.86486 52.971
572 1 0.891884 0.949065 49.1024
573 1 0.86986 0.735624 52.8261
574 1 2.99248 1.33253 50.7888
575 2 1.6555 -0.036913 46.5202
576 1 0.474593 0.662119 44.0586
577 1 1.83321 2.62383 45.7119
578 1 14.9836 3.98258 47.5467
579 1 15.5006 5.03152 41.0792
580 1 13.5414 1.98264 42.9739
581 2 15.3432 0.662073 41.409
582 1 16.0926 3.24991 42.9794
583 2 14.6488 2.87436 45.0957
584 1 14.2255 2.796 40.5565
585 1 6.32238 2.15297 47.7226
586 1 3.65338 0.633037 45.0892
587 1 4.791 2.7219 40.9934
588 1 2.75145 1.12294 42.121
589 2 5.29373 0.785279 43.0848
590 1 12.7525 0.785599 40.7501
591 1 16.8356 4.79466 54.8562
592 1 6.16634 4.80717 53.7585
593 2 6.14254 2.29714 54.6161
594 2 4.4319 3.1062 49.5928
595 1 2.29009 3.74951 48.1197
596 1 10.9114 4.4326 55.7992
597 1 8.10317 2.91324 53.1144
598 2 9.64982 3.10309 51.0221
599 1 6.98605 3.41658 50.1448
600 1 8.99406 2.2098 48.8089
601 1 4.97943 4.76929 48.0399
602 1 9.2803 4.99143 49.0468
603 2 6.66783 3.15041 43.0132
604 1 3.88363 3.3122 43.4691
605 1 6.23432 1.86336 45.0562
606 1 7.2441 4.12267 40.6293
607 1 10.6148 4.09017 53.1491
608 2 8.70748 5.1846 54.3173
609 2 4.31207 3.03606 46.2572
610 2 17.7163 3.66151 41.0483
611 1 11.4443 3.47026 49.2011
612 1 8.57739 3.27333 44.9993
613 1 9.42309 2.6206 42.4791
614 2 11.7862 2.9542 41.4856
615 1 9.86315 4.01007 40.3119
616 2 10.3153 3.92838 46.9942
617 1 11.4437 3.38431 44.3598
618 1 7.33357 1.28813 41.4047
ITEM: TIMESTEP
4600
ITEM: NUMBER OF ATOMS
618
ITEM: BOX BOUNDS xy xz yz pp pp ff
0.0000000000000000e+00 1.9317770367296919e+01 4.0025167278329121e+00
0.0000000000000000e+00 6.6702723500479264e+00 0.0000000000000000e+00
0.0000000000000000e+00 1.0921147561319708e+02 0.0000000000000000e+00
ITEM: ATOMS id type x y z
1 1 4.30294 6.04147 5.57002
2 1 5.9988 6.42859 8.08195
3 1 4.32657 6.07007 12.7747
4 1 5.24437 0.514225 5.39767
5 1 7.61297 6.76873 10.4784
6 1 5.91625 6.39583 15.0523
7 1 4.31402 6.03761 19.7093
8 1 12.0001 6.04373 5.44291
9 1 6.89544 0.817498 7.9891
10 1 5.23369 0.335811 12.8652
11 1 7.52989 6.79719 17.5338
12 1 5.87686 6.2939 21.9897
13 1 4.37818 6.06197 26.7683
14 1 10.0225 1.3148 5.25667
15 1 13.3785 6.27445 8.05222
16 1 8.47222 0.966369 10.3583
17 1 11.9438 5.97712 12.781
18 1 7.04103 0.585308 15.2069
19 1 5.2504 0.423473 19.7546
20 1 7.47488 6.57132 24.4803
21 1 5.79577 6.30701 29.235
22 1 4.31854 5.7886 33.8802
23 1 12.9421 0.307312 5.67389
24 1 12.181 3.03658 5.6262
25 1 11.7199 1.37213 8.06871
26 1 15.3189 6.62996 10.287
27 1 10.7665 3.03094 10.4894
28 1 10.1945 1.30423 12.7015
29 1 13.7127 6.33607 15.0626
30 1 8.65693 1.08994 17.4985
31 1 11.9868 6.29784 19.7423
32 1 6.94384 0.663015 22.221
33 1 5.27425 0.250507 27.0222
34 1 3.45059 -0.045734 31.6966
35 1 5.96652 6.12177 36.3489
36 1 14.8697 2.16867 5.761
37 1 14.6864 0.725946 8.23359
38 1 14.0801 3.6504 8.05061
39 1 13.5694 2.182 10.4323
40 1 12.7906 0.303375 12.7705
41 1 12.3801 3.16722 12.7869
42 1 11.8312 1.49549 15.1838
43 1 15.3247 6.66441 17.4592
44 1 10.6651 2.9459 17.5068
45 1 10.3055 1.29501 19.7746
46 1 13.5977 6.4494 22.1455
47 1 8.36736 1.00783 24.527
48 1 11.9715 6.03061 26.8708
49 1 6.7797 0.670427 29.2855
50 1 5.03568 0.336264 33.8172
51 1 3.23109 -0.360851 38.6923
52 1 2.54706 1.45631 5.48543
53 1 17.2708 4.25145 5.7812
54 1 1.47367 2.58054 8.15302
55 1 0.984629 1.13849 10.5072
56 1 15.6942 3.87804 10.4677
57 1 15.087 2.22896 12.8269
58 1 14.4677 0.69969 15.1756
59 1 14.0924 3.51457 15.2781
60 1 13.6218 1.98468 17.5273
61 1 13.0159 0.349781 19.7996
62 1 12.4538 3.21688 19.8162
63 1 11.9051 1.62132 22.101
64 1 15.226 6.82254 24.4267
65 1 10.9046 2.9502 24.5498
66 1 10.0679 1.26554 26.8251
67 1 13.6776 6.21686 29.1423
68 1 8.62658 0.868377 31.5204
69 1 11.8397 6.01084 33.8063
70 1 6.90145 0.659695 36.2416
71 1 4.8023 3.32435 5.4351
72 1 4.13687 1.61297 7.9689
73 1 3.75663 4.53339 8.09876
74 1 3.16778 2.89821 10.5491
75 1 2.52429 1.42787 12.9114
76 1 17.4461 4.21788 12.7877
77 1 1.26393 2.47439 15.0738
78 1 0.887305 1.07299 17.5309
79 1 15.8872 3.92954 17.4308
80 1 15.1893 2.32564 19.8331
81 1 14.6779 0.764345 22.1901
82 1 14.141 3.50694 22.0596
83 1 13.7211 1.94126 24.513
84 1 12.664 0.24621 26.7732
85 1 12.4936 3.21753 26.8308
86 1 11.7976 1.57482 29.2396
87 1 11.3533 0.0110965 31.4597
88 1 10.8138 2.77615 31.5684
89 1 10.2146 1.11232 33.8607
90 1 13.5507 6.39966 36.189
91 1 8.66188 0.877086 38.7014
92 1 7.4353 2.18489 5.41121
93 1 6.88342 5.26353 5.65063
94 1 6.33487 3.46323 8.02065
95 1 5.8474 1.91382 10.346
96 1 5.46154 4.72184 10.4812
97 1 4.93615 3.12113 12.7026
98 1 4.29847 1.67418 15.076
99 1 3.67211 4.54434 15.0388
100 1 3.2479 3.07138 17.3146
101 1 2.63654 1.32067 19.6906
102 1 17.4586 4.06672 19.8647
103 1 1.50974 2.57569 22.0467
104 1 0.942402 0.955888 24.4328
105 1 15.7464 3.66731 24.3766
106 1 15.1059 2.07275 26.9014
107 1 14.4422 0.375452 29.0996
108 1 14.0837 3.36321 29.1776
109 1 13.5544 1.78703 31.4926
110 1 12.9239 0.202056 33.8904
111 1 12.4504 3.12284 33.9701
112 1 11.88 1.51118 36.2974
113 1 15.0414 6.33591 38.879
114 1 11.2938 2.43714 39.0572
115 1 9.77782 4.27665 5.42419
116 1 9.18466 2.57096 8.13655
117 1 8.77617 5.52015 7.97485
118 1 8.03416 3.94912 10.2814
119 1 7.49075 2.15352 12.6659
120 1 7.01462 5.14279 12.8776
121 1 6.39459 3.47405 15.1209
122 1 5.73774 2.02128 17.3961
123 1 5.37696 4.85054 17.3067
124 1 4.69633 3.16999 19.8362
125 1 4.02658 1.50919 22.2497
126 1 3.76616 4.26811 22.2132
127 1 2.96449 2.96185 24.5312
128 1 2.45983 1.21477 26.8978
129 1 17.3929 3.96148 26.843
130 1 1.35943 2.52086 29.2404
131 1 0.804289 0.885606 31.5021
132 1 15.6105 3.59173 31.509
133 1 15.1958 2.06169 34.0253
134 1 14.6522 0.471538 36.1346
135 1 14.2007 3.49466 36.2557
136 1 13.7759 1.7161 38.4142
137 1 11.358 4.50343 7.94901
138 1 10.3051 5.70543 10.4484
139 1 9.62851 4.10124 12.749
140 1 9.06859 2.36084 15.0643
141 1 8.57105 5.57371 15.0917
142 1 8.00755 3.9203 17.3713
143 1 7.52081 2.33336 19.8314
144 1 6.91833 5.10921 19.6136
145 1 6.34755 3.40154 21.9625
146 1 5.68263 1.81655 24.5256
147 1 5.31104 4.7326 24.5037
148 1 4.80764 3.16181 26.7645
149 1 4.06006 1.70846 29.2405
150 1 3.64566 4.42747 29.1743
151 1 3.00883 2.74567 31.4766
152 1 2.53258 1.19408 33.978
153 1 17.3641 3.89913 33.7544
154 1 1.59748 2.34135 36.4329
155 1 0.695187 0.751059 38.8132
156 1 15.925 3.64813 38.772
157 1 14.474 5.24971 5.66469
158 1 13.0522 4.79367 10.4719
159 1 11.3228 4.35703 15.2857
160 1 10.1841 5.84828 17.5491
161 1 9.83216 3.96867 19.9247
162 1 9.25065 2.42568 22.4065
163 1 8.74729 5.31039 21.9781
164 1 7.88704 3.69934 24.58
165 1 7.42463 2.08366 27.0051
166 1 6.97154 5.1859 26.7518
167 1 6.47638 3.53758 29.1435
168 1 5.90718 1.91234 31.5185
169 1 5.34306 4.88247 31.4408
170 1 4.69608 3.05689 33.7967
171 1 4.39443 1.46259 36.4146
172 1 3.82427 4.4649 36.3829
173 1 3.22177 2.58898 38.8184
174 1 16.3755 5.34078 8.06042
175 1 14.6308 5.04294 12.7701
176 1 13.0133 4.82813 17.5152
177 1 11.4363 4.38128 22.0526
178 1 10.1758 5.67182 24.431
179 1 9.62701 4.14208 26.7126
180 1 9.11485 2.64585 29.1365
181 1 8.597 5.3855 29.3065
182 1 8.10732 3.75421 31.5823
183 1 7.49802 2.05564 33.8532
184 1 6.88995 4.99425 34.0083
185 1 6.4202 3.31372 36.2067
186 1 6.17612 2.26886 38.7285
187 1 4.91631 4.78934 39.2738
188 1 18.0475 5.87359 10.5939
189 1 16.2975 5.50181 15.214
190 1 14.6484 5.18503 19.8057
191 1 13.1103 4.94407 24.3829
192 1 11.3302 4.41217 29.238
193 1 10.2057 5.66455 31.55
194 1 9.63179 4.18562 33.8325
195 1 9.18071 2.4752 36.0311
196 1 8.66264 5.38018 36.1286
197 1 8.62574 3.55529 38.2891
198 1 17.9618 5.84461 17.3896
199 1 16.4599 5.52989 22.0922
200 1 14.662 5.08878 26.8026
201 1 13.1124 4.69916 31.5944
202 1 11.36 4.48866 36.3615
203 1 10.2171 6.15364 38.2286
204 1 17.8281 5.73161 24.5914
205 1 16.2504 5.29906 29.1308
206 1 14.7187 4.88226 33.8875
207 1 12.9782 4.79169 38.9011
208 1 17.9151 5.54557 31.518
209 1 16.3911 5.22142 36.3488
210 1 17.7976 5.48503 38.7479
211 2 14.5553 1.22388 102.483
212 1 15.0536 0.888622 99.7362
213 1 3.53542 0.349962 103.308
214 1 2.42453 0.911014 99.0029
215 1 1.59867 1.28009 101.739
216 2 0.525652 0.213552 97.0401
217 1 14.8047 1.18937 94.7846
218 1 5.98941 1.67711 102.973
219 1 7.03569 1.28283 100.302
220 1 5.8116 6.48501 94.8465
221 1 4.68861 2.42053 99.0529
222 2 4.33017 0.931385 101.102
223 1 4.20477 1.21637 93.9373
224 1 2.09597 2.50562 95.4434
225 1 0.680905 0.615054 91.0106
226 1 3.35932 1.865 91.0462
227 2 1.72112 1.58539 93.1097
228 1 0.787769 0.923783 88.3424
229 1 12.3157 6.64692 95.798
230 1 7.31512 1.32013 89.2507
231 1 9.04654 6.4313 90.0159
232 1 12.052 4.79245 103.509
233 1 3.71485 3.03916 102.553
234 1 8.15775 3.18319 102.305
235 1 5.97601 4.65427 103.496
236 2 8.13039 0.400057 102.516
237 2 5.79089 3.28999 101.051
238 1 7.25236 3.51197 98.8806
239 2 6.71977 1.28202 97.6043
240 1 4.82396 2.78192 96.2228
241 1 12.622 1.67834 103.527
242 1 10.2295 1.45988 101.412
243 1 14.2611 5.8319 99.3862
244 2 11.5595 1.38879 99.1354
245 1 10.0846 3.77917 99.8853
246 1 9.17702 1.58348 98.0663
247 1 11.0914 0.311025 96.7975
248 1 7.78758 2.97643 95.9222
249 1 11.367 2.95744 97.1443
250 2 9.25196 4.46921 97.4806
251 1 8.47636 3.12423 93.2702
252 2 9.11749 1.613 91.1797
253 1 10.2876 3.85886 91.085
254 1 6.40095 1.66431 91.828
255 1 8.61395 0.367468 93.1633
256 1 10.4806 4.09412 95.0185
257 1 7.42651 3.89479 90.3525
258 1 9.53052 2.63246 88.9603
259 1 12.8569 2.31786 101.022
260 2 10.8105 3.34035 102.568
261 1 12.3947 5.0304 100.896
262 2 13.2267 3.56385 98.9945
263 1 15.0431 3.6676 100.93
264 1 11.6196 5.54647 98.3117
265 1 13.8482 4.24517 96.8424
266 2 6.66597 1.47828 94.4791
267 2 5.23121 2.54819 89.3688
268 1 11.1607 5.21613 88.536
269 1 2.33904 3.84058 100.056
270 1 13.5502 1.49351 97.4021
271 1 10.9857 1.73851 93.1641
272 1 11.6914 1.28025 90.5205
273 2 14.1838 1.62138 89.7122
274 1 12.1631 2.73278 88.1312
275 2 3.08127 3.76566 97.6213
276 1 15.8469 2.84597 98.2489
277 1 16.3853 4.7119 96.0732
278 2 12.7497 2.56539 94.9726
279 1 13.6691 1.90677 92.4361
280 2 14.2683 5.84832 94.5793
281 1 12.5176 4.42926 92.9576
282 1 13.1285 3.93574 90.3997
283 1 15.4048 3.62973 93.7969
284 1 16.13 3.27021 91.1066
285 1 13.6349 6.41858 89.3757
286 1 14.5051 5.83323 102.861
287 1 9.5356 6.50271 95.992
288 2 16.8707 4.44836 102.854
289 1 16.524 6.44088 101.151
290 1 4.90345 5.03468 99.0771
291 1 4.14558 5.47033 101.595
292 1 16.9803 5.72037 98.4859
293 1 16.7805 6.15138 93.8698
294 1 17.6558 5.88393 91.1391
295 1 14.8786 5.67432 91.853
296 2 15.9852 5.23434 89.0945
297 1 5.79448 3.80225 93.857
298 1 3.63337 4.9881 95.3325
299 1 2.93862 3.68352 93.1294
300 1 4.86138 4.38537 91.0016
301 2 4.27578 5.87889 93.003
302 1 9.78323 5.62745 102.33
303 1 6.88515 5.49159 97.0997
304 1 7.06166 5.56471 100.941
305 1 9.04579 6.31553 98.9758
306 2 8.03036 5.131 94.6226
307 1 6.88758 5.94371 92.3511
308 1 2.67291 3.64367 89.1102
309 2 6.56576 6.21592 89.5995
310 1 9.9037 5.87031 92.9458
311 2 11.5746 6.05812 90.8808
312 1 5.25978 4.75928 88.1553
313 1 3.63005 1.20952 87.851
314 1 13.417 0.664636 87.3065
315 2 16.9196 6.52072 85.0628
316 1 14.4224 0.150987 82.958
317 1 6.18811 2.13265 83.2588
318 1 2.30568 -0.0722971 83.7804
319 2 1.01067 0.604298 81.4747
320 1 19.2329 5.76366 77.2883
321 1 1.72706 -0.0912577 75.2678
322 1 5.84151 6.405 78.9602
323 1 14.2482 -0.0914994 74.3103
324 1 4.22165 1.5308 85.1875
325 2 8.77026 6.71471 83.0735
326 1 10.6555 6.5649 85.1102
327 1 3.23234 2.07504 82.0736
328 1 5.33681 0.900156 80.6223
329 1 2.1359 1.18587 72.9147
330 1 9.40153 0.0971085 84.451
331 2 13.7226 6.11673 81.6904
332 1 11.3274 6.3536 82.4987
333 1 7.98848 1.00042 80.1072
334 2 6.13344 2.20055 78.5853
335 1 3.90627 0.280603 76.9691
336 1 4.60622 0.181729 74.3303
337 1 10.7384 6.3366 77.8545
338 1 11.5518 6.00241 75.2148
339 1 6.31359 2.27968 86.9983
340 1 1.33306 2.633 79.9621
341 2 8.73806 0.768369 87.0781
342 2 9.99858 3.87818 86.6135
343 1 8.41656 2.5032 84.9662
344 1 11.9353 1.57262 83.0584
345 1 11.2088 1.88999 85.6414
346 1 10.6435 3.88583 83.8523
347 1 9.02389 2.03813 82.4352
348 1 8.46323 2.19226 77.6134
349 1 9.1424 1.69916 75.2025
350 1 6.36672 1.812 75.808
351 2 7.29703 1.13112 73.1361
352 1 14.7894 3.19823 87.5218
353 1 13.3481 4.15918 83.2802
354 1 12.6895 4.59183 85.9866
355 2 11.5629 3.61121 81.247
356 1 10.3033 3.79305 78.7812
357 1 17.0698 4.70748 86.8417
358 1 2.83543 4.29268 84.2746
359 1 16.7137 6.6166 77.8991
360 1 10.4829 0.918065 79.5221
361 1 12.6931 2.51513 78.9767
362 1 13.738 6.30971 76.9819
363 1 11.6683 0.390819 75.0348
364 2 11.1824 1.8308 77.0781
365 1 1.6014 1.96084 85.7545
366 1 15.739 5.50998 83.0941
367 2 15.4292 4.21393 85.134
368 1 14.052 2.30494 81.2199
369 1 14.0751 1.94493 85.0153
370 1 16.047 2.79917 83.0173
371 2 14.8645 1.32192 78.6256
372 1 13.7601 1.88761 76.3013
373 1 15.016 3.95244 77.7099
374 1 12.7939 5.09295 79.4365
375 1 13.4415 6.32424 73.1593
376 1 11.3412 3.23869 74.8767
377 2 13.254 2.30034 73.7273
378 1 13.9919 4.32678 74.8863
379 2 12.3662 4.20999 76.9406
380 1 11.5826 3.57267 72.0451
381 1 4.27722 3.66806 79.7958
382 1 1.53014 1.903 77.201
383 1 2.72988 3.89297 73.145
384 1 15.7164 2.44768 74.3746
385 2 3.00629 2.12763 75.0434
386 1 12.1212 0.881905 72.272
387 1 14.8661 6.21373 86.8773
388 1 4.11677 6.1555 85.755
389 2 3.81397 3.41111 86.6093
390 2 17.589 4.50075 81.6609
391 1 15.4797 5.2042 80.2123
392 1 8.25704 4.89789 87.9098
393 1 5.8375 4.13818 85.1584
394 2 7.44339 4.22242 83.1562
395 1 4.74491 4.6697 82.2467
396 1 6.89899 3.30958 80.901
397 1 18.4603 6.18347 80.178
398 1 7.11599 6.06179 81.1978
399 2 4.4401 4.45705 75.2002
400 1 17.1944 4.49759 75.808
401 1 4.2674 2.93441 77.1781
402 1 5.07175 5.30792 72.865
403 1 8.3638 5.13057 85.1658
404 2 6.62421 6.32386 86.4284
405 2 17.5207 4.21953 78.3636
406 2 15.9487 5.15374 73.4395
407 1 9.34878 4.67978 81.4114
408 1 6.32744 4.38754 77.0407
409 1 7.21081 4.17215 74.3613
410 2 9.8655 4.7088 73.4972
411 1 7.68691 5.84103 72.1115
412 2 8.15741 5.01443 78.9664
413 1 9.15151 4.59992 76.2638
414 1 5.06177 2.55233 73.2404
415 2 1.75269 0.116636 70.6143
416 1 2.31786 -0.00405349 67.9158
417 1 10.3276 6.039 71.2419
418 1 4.98825 0.0972105 67.1884
419 1 4.35526 0.518958 69.8016
420 2 7.02464 6.06118 65.2646
421 1 2.07201 0.363723 62.8486
422 1 8.61527 0.874156 70.8734
423 1 9.65601 0.159676 68.2807
424 1 8.40917 5.63895 62.9633
425 1 7.28648 1.60066 67.064
426 2 7.05622 0.265123 69.0785
427 1 6.66702 0.198109 61.7427
428 1 4.78191 1.6025 63.1863
429 1 6.77245 6.33871 58.992
430 1 5.35482 0.773526 58.8054
431 2 4.1859 0.661508 60.8656
432 1 6.8068 6.18006 56.3597
433 1 14.8838 5.91359 63.816
434 1 9.77054 0.340043 57.2284
435 1 11.3313 5.54624 58.1738
436 1 14.6119 3.78254 71.9767
437 1 6.29416 2.16124 70.8012
438 1 10.9741 2.18822 69.8234
439 1 8.70594 3.4745 71.4127
440 2 14.7611 6.15843 70.749
441 2 8.38036 2.57577 69.1179
442 1 10.0297 2.84703 67.0467
443 2 9.18781 0.495179 65.6936
444 1 7.34783 1.80587 64.2117
445 1 14.994 0.956077 71.9656
446 1 12.6483 0.206142 69.1909
447 1 16.9538 4.90645 67.1429
448 2 14.3038 0.361995 67.1407
449 1 13.0726 2.75769 67.8147
450 1 11.7285 0.807866 66.1416
451 1 17.7005 6.14663 64.6688
452 1 10.2735 2.05628 64.0341
453 1 14.035 2.13705 65.2574
454 2 11.9884 3.48099 65.4812
455 1 11.0031 2.33204 61.103
456 2 11.3648 0.866917 59.1174
457 1 12.5102 3.12227 59.1427
458 1 8.79358 0.89384 59.9062
459 1 15.0375 6.07084 61.1984
460 1 13.0659 3.12752 62.9546
461 1 9.69911 2.94272 58.1868
462 1 11.9679 1.72942 56.7145
463 1 15.4877 1.47099 69.3197
464 2 13.3838 2.39618 70.4727
465 1 15.1986 4.17892 69.2055
466 2 15.881 2.68909 67.1087
467 1 2.36774 2.89971 69.0656
468 1 14.0165 4.76369 66.1223
469 1 16.2592 3.52153 64.8543
470 2 9.20572 0.564762 62.4234
471 2 7.56441 1.51214 57.5268
472 1 13.3845 4.38119 56.7538
473 1 5.03393 2.96663 68.335
474 1 0.972802 0.796969 65.3451
475 1 13.3883 1.00602 60.9184
476 1 13.9261 0.515017 58.3257
477 2 1.13032 0.560257 57.6314
478 1 14.6796 1.98021 55.99
479 2 5.5871 2.71578 65.6012
480 1 3.12232 2.31016 66.4722
481 1 3.5311 3.7056 64.1543
482 2 15.2314 1.65962 63.0002
483 1 0.60082 1.03129 60.3257
484 2 16.6575 4.75591 62.5754
485 1 14.9475 3.52083 60.8889
486 1 15.4626 2.95192 58.3416
487 1 2.54521 2.72862 61.7442
488 1 3.16482 2.41119 59.0158
489 1 15.9403 5.57737 57.3203
490 1 17.1577 5.17061 71.0545
491 1 11.9597 5.60963 64.1347
492 2 4.17314 3.69165 70.919
493 1 3.8485 5.49941 68.8785
494 1 7.42373 4.31398 67.1888
495 1 6.72287 4.59573 69.8035
496 1 4.42723 4.99695 66.3897
497 1 3.93347 5.34904 61.8551
498 1 4.6314 4.93367 59.2715
499 1 17.2561 4.77548 59.7588
500 2 2.97138 4.23947 57.1621
501 1 8.35957 2.81861 61.9133
502 1 6.02673 4.24739 63.4117
503 1 5.36029 2.88725 60.8668
504 1 7.15701 3.54648 59.0048
505 2 6.63193 5.07139 61.0645
506 1 12.5372 4.83277 69.7932
507 1 9.38034 4.66792 65.1912
508 1 9.75129 4.63967 68.9429
509 1 11.5734 5.60602 66.9964
510 2 10.4761 4.24482 62.7466
511 1 9.36411 4.84687 60.2668
512 1 5.22632 3.04244 57.1025
513 2 8.69545 5.29759 57.6742
514 1 12.4016 5.05035 61.2189
515 2 13.9669 5.24229 59.1292
516 1 7.93473 3.55342 55.9489
517 1 5.80459 0.181747 55.9745
518 1 4.08225 6.25486 55.311
519 2 3.59401 5.31914 52.939
520 1 5.2231 5.24393 50.9263
521 1 8.38353 0.977264 51.0441
522 1 8.45078 5.51198 51.8293
523 2 6.96458 5.96229 49.2745
524 1 5.99065 4.6138 45.0329
525 1 7.96116 5.32597 42.911
526 1 7.89764 5.14524 46.8538
527 1 5.21264 5.37805 42.2468
528 1 6.47826 0.249043 53.149
529 2 11.2071 5.42583 51.1089
530 1 13.0637 5.52763 52.8948
531 1 5.62303 0.846432 50.3729
532 1 11.486 6.43478 48.7161
533 1 8.98709 6.57433 40.6582
534 1 15.754 5.6275 52.2632
535 2 16.3024 5.41557 49.4675
536 1 13.8231 5.19054 50.3507
537 1 14.1828 6.43924 47.9936
538 2 8.00849 0.7765 46.3928
539 1 9.86834 5.66363 44.9501
540 1 10.8766 5.40834 42.5344
541 1 12.8933 5.24447 45.7148
542 1 13.8118 4.65827 43.1354
543 1 8.43315 0.817637 54.9951
544 1 3.87102 1.15249 47.9219
545 2 14.9005 6.06423 54.887
546 2 12.7273 3.34167 54.4788
547 1 10.4963 1.23046 52.973
548 1 14.0276 0.422411 50.9987
549 1 13.3696 0.770534 53.7437
550 1 12.935 2.84639 51.7273
551 1 11.2195 1.00974 50.2467
552 1 10.564 0.935944 45.526
553 1 11.2749 0.312789 43.0688
554 1 8.62871 0.409889 43.7629
555 2 9.49066 -0.175498 41.1993
556 1 1.83014 2.16156 55.2083
557 1 15.6832 2.87705 50.9864
558 1 15.1168 3.10241 53.4484
559 2 13.6671 2.1022 49.0727
560 1 12.4766 2.50755 46.8166
561 1 4.13912 3.56311 54.8005
562 1 4.76352 2.8943 52.2421
563 1 3.3697 5.23704 45.6559
564 1 16.8146 6.37147 47.2787
565 1 14.8601 1.20632 46.8109
566 1 15.8304 5.06991 44.9593
567 1 17.7624 5.62155 42.9791
568 2 13.1881 0.599322 45.0139
569 1 3.93805 0.759846 53.8815
570 1 2.57215 4.26937 50.8037
571 2 2.31335 2.89343 52.9083
572 1 1.00375 1.08854 48.9771
573 1 1.02087 0.69154 52.9979
574 1 2.8573 1.25717 50.843
575 2 1.65162 0.0808463 46.5648
576 1 0.591609 0.733395 44.1232
577 1 1.90302 2.67949 45.8806
578 1 14.9506 3.88503 47.5456
579 1 15.7712 5.16653 41.1501
580 1 13.5204 2.06585 43.0505
581 2 15.445 0.62947 41.5701
582 1 16.3025 3.1244 42.9929
583 2 14.4761 3.04108 45.1607
584 1 14.4691 2.92217 40.7237
585 1 6.54251 2.21632 47.6847
586 1 3.63845 0.604401 45.0904
587 1 4.93938 2.63972 40.9514
588 1 2.71468 1.04272 41.8733
589 2 5.19276 0.886721 42.9311
590 1 13.0328 0.719604 40.6658
591 1 16.9668 4.88414 54.6859
592 1 6.39105 4.86666 53.8277
593 2 6.11582 2.26684 54.6427
594 2 4.36578 3.0688 49.4493
595 1 2.42299 3.90142 48.1836
596 1 10.7116 4.2177 55.8215
597 1 7.98846 2.81339 53.1161
598 2 9.62512 3.07132 51.0478
599 1 7.08917 3.39204 50.306
600 1 9.11206 2.28772 48.7469
601 1 5.02029 4.88593 47.9795
602 1 9.25722 4.9865 49.1925
603 2 6.54324 3.22737 43.0111
604 1 3.80106 3.12281 43.5342
605 1 6.20226 1.70765 45.0081
606 1 7.36592 4.09174 40.5629
607 1 10.7531 4.04049 53.1959
608 2 8.87106 5.1968 54.4898
609 2 4.45214 3.04789 46.264
610 2 17.9052 3.65987 40.9323
611 1 11.7124 3.65704 49.2154
612 1 8.49054 3.19368 44.8697
613 1 9.37557 2.93767 42.1407
614 2 11.9291 2.94502 41.5796
615 1 10.3803 4.49756 40.1766
616 2 10.2053 3.77847 46.8855
617 1 11.3484 3.28267 44.3341
618 1 7.39175 1.19126 41.4301
ITEM: TIMESTEP
4700
ITEM: NUMBER OF ATOMS
618
ITEM: BOX BOUNDS xy xz yz pp pp ff
0.0000000000000000e+00 1.9317770367296919e+01 4.0025167278329121e+00
0.0000000000000000e+00 6.6702723500479264e+00 0.0000000000000000e+00
0.0000000000000000e+00 1.0921147561319708e+02 0.0000000000000000e+00
ITEM: ATOMS id type x y z
1 1 4.29525 6.15197 5.81399
2 1 5.87629 6.55475 8.09893
3 1 4.2969 6.2056 12.9422
4 1 5.22542 0.506215 5.61255
5 1 7.60159 6.78953 10.4572
6 1 5.94965 6.4406 15.2394
7 1 4.30148 6.06418 19.855
8 1 12.0492 6.0737 5.64759
9 1 6.8974 0.720307 7.93157
10 1 5.21563 0.48563 12.7589
11 1 7.7356 6.60087 17.4234
12 1 5.97124 6.41256 22.2096
13 1 4.09257 5.93825 26.8218
14 1 10.3353 1.22386 5.80962
15 1 13.7442 6.39857 8.12825
16 1 8.45866 1.01232 10.4
17 1 11.8913 6.1861 12.6552
18 1 6.71811 0.90156 14.9877
19 1 5.17566 0.344538 19.6319
20 1 7.61801 6.67502 24.4236
21 1 5.87367 6.24621 29.0267
22 1 4.22871 5.87895 34.0772
23 1 12.8377 0.31177 5.73328
24 1 12.565 3.31866 5.55394
25 1 11.8286 1.80479 8.10177
26 1 15.1214 6.66261 10.6431
27 1 10.6978 2.88116 10.3761
28 1 10.1051 1.35809 12.8711
29 1 13.4688 6.50016 15.0934
30 1 8.47768 1.02475 17.3144
31 1 11.9266 6.01075 19.8802
32 1 6.92609 0.724598 22.0598
33 1 5.17132 0.432912 26.6066
34 1 3.56605 -0.19809 31.5132
35 1 5.86462 6.27505 36.4102
36 1 15.1648 2.27639 5.69089
37 1 14.4604 0.684286 8.13537
38 1 14.1303 3.50394 8.30996
39 1 13.4153 1.82307 10.524
40 1 12.8879 0.425428 12.8088
41 1 12.34 3.24963 12.6091
42 1 11.7293 1.58487 15.1095
43 1 15.255 6.80438 17.4447
44 1 10.7801 2.90222 17.407
45 1 10.184 1.49723 19.8411
46 1 13.5555 6.64315 22.1647
47 1 8.5541 1.05844 24.4291
48 1 11.8652 6.20087 26.9234
49 1 6.87309 0.583987 29.1022
50 1 5.2675 0.0209463 33.8888
51 1 3.25729 -0.230987 38.9217
52 1 2.58941 1.22531 5.8172
53 1 17.4431 4.19967 5.66351
54 1 1.44054 2.60633 8.23515
55 1 0.769803 0.897252 10.5308
56 1 15.5919 3.76355 10.4419
57 1 15.0945 2.30567 12.7601
58 1 14.5185 0.702672 15.1715
59 1 14.0714 3.60308 14.955
60 1 13.4408 1.91116 17.3617
61 1 12.7309 0.588873 19.8135
62 1 12.4375 3.30381 19.917
63 1 11.7114 1.79822 22.2283
64 1 15.162 6.7443 24.5999
65 1 10.4903 2.90776 24.4972
66 1 10.1466 1.27753 26.9253
67 1 13.5543 6.28047 29.1426
68 1 8.56912 0.831567 31.6301
69 1 12.0219 5.86949 33.9664
70 1 7.18964 0.631948 36.0578
71 1 4.69579 3.2342 5.75604
72 1 4.28631 1.67193 8.16405
73 1 3.67307 4.38721 8.19033
74 1 3.12016 2.91264 10.5232
75 1 2.56147 1.31752 12.7029
76 1 17.2547 4.09047 12.8451
77 1 1.53085 2.69506 15.1853
78 1 0.799622 1.06277 17.4937
79 1 15.5242 3.95827 17.4252
80 1 15.0807 2.27302 19.9226
81 1 14.4367 0.701972 22.1794
82 1 13.9372 3.56464 22.3598
83 1 13.2536 1.84836 24.4213
84 1 12.9354 0.310223 26.8416
85 1 12.2345 3.14641 26.9404
86 1 11.8519 1.49104 29.1523
87 1 11.1425 -0.203921 31.5178
88 1 10.7139 2.70307 31.3758
89 1 10.3006 1.06211 33.7512
90 1 13.6783 6.16609 36.461
91 1 8.57052 0.841235 38.8566
92 1 7.44399 2.32159 5.55383
93 1 7.00301 5.31754 5.35458
94 1 6.51739 3.6911 8.10246
95 1 5.84673 2.12293 10.5416
96 1 5.35126 4.8744 10.5535
97 1 4.53542 3.2495 12.9357
98 1 4.08416 1.61902 15.1511
99 1 3.79446 4.62133 15.2918
100 1 2.95403 2.75941 17.6224
101 1 2.38064 1.22371 19.8524
102 1 17.3501 4.2452 19.8152
103 1 1.39464 2.52434 22.1836
104 1 0.709602 0.989261 24.4647
105 1 15.5995 3.87738 24.5111
106 1 15.1249 2.27525 26.6036
107 1 14.6554 0.622398 29.1919
108 1 14.0723 3.45459 29.2397
109 1 13.405 1.69057 31.4502
110 1 12.9686 0.160468 33.8719
111 1 12.3818 3.11258 33.747
112 1 11.9107 1.41552 36.2382
113 1 15.2106 6.21245 38.7425
114 1 11.1141 2.37026 38.7913
115 1 9.84776 4.14997 5.50597
116 1 9.04153 2.72532 7.96741
117 1 8.60762 5.55446 8.06252
118 1 8.09914 3.90469 10.5276
119 1 7.40178 2.40735 12.8746
120 1 6.99571 5.19657 12.7811
121 1 6.42669 3.64964 15.1675
122 1 5.79559 1.89576 17.4095
123 1 5.34534 4.69403 17.6158
124 1 4.84924 3.17474 19.7647
125 1 4.27964 1.73448 21.9463
126 1 3.51585 4.47067 22.009
127 1 3.02527 2.80611 24.3138
128 1 2.4111 1.16586 26.6226
129 1 17.2534 4.20576 26.72
130 1 1.49189 2.34837 29.0612
131 1 0.853474 0.708722 31.5911
132 1 15.8105 3.6442 31.4801
133 1 15.0339 2.0761 33.832
134 1 14.5733 0.501405 36.3476
135 1 13.9534 3.35742 36.0311
136 1 13.7703 1.99336 38.3281
137 1 11.3364 4.61662 8.04448
138 1 10.3075 5.82771 10.2918
139 1 9.71474 4.20915 12.6162
140 1 9.18556 2.64821 15.1049
141 1 8.52472 5.45703 15.0232
142 1 8.06293 3.78302 17.5247
143 1 7.55997 2.13347 19.7024
144 1 7.06895 5.16146 19.8167
145 1 6.35859 3.47071 22.1378
146 1 5.99794 1.99824 24.3788
147 1 5.31256 4.73492 24.4472
148 1 4.6296 3.22897 26.708
149 1 4.19537 1.439 29.1643
150 1 3.64164 4.41226 29.145
151 1 2.95615 2.59746 31.6881
152 1 2.44365 0.972981 33.9469
153 1 17.3496 3.89879 34.0044
154 1 1.31892 2.44131 36.2822
155 1 0.889863 0.921155 38.859
156 1 15.9785 3.76362 38.7596
157 1 14.6838 5.03397 5.71362
158 1 12.897 4.7591 10.303
159 1 11.372 4.62796 14.9179
160 1 10.4536 5.69044 17.4045
161 1 9.71556 4.2535 19.6947
162 1 9.1405 2.68874 21.9015
163 1 8.65912 5.50987 22.2401
164 1 8.19728 4.01876 24.4422
165 1 7.43997 2.28553 26.6982
166 1 6.94947 5.05494 26.8624
167 1 6.27974 3.374 29.1517
168 1 5.70967 1.56802 31.6116
169 1 5.21216 4.48266 31.681
170 1 4.64388 2.96488 34.2254
171 1 4.22605 1.25184 36.3668
172 1 3.66522 4.21888 36.5759
173 1 3.21925 2.68473 38.9203
174 1 16.0877 5.46137 8.31923
175 1 14.5176 5.18095 12.7372
176 1 13.1298 4.92531 17.383
177 1 11.2951 4.64642 22.2456
178 1 10.4087 5.81953 24.5853
179 1 9.63925 4.1631 26.9916
180 1 9.10039 2.47939 29.2312
181 1 8.64257 5.22876 29.2047
182 1 7.99005 3.72213 31.48
183 1 7.52115 2.04618 33.6832
184 1 6.98815 4.96902 33.7671
185 1 6.62035 3.32813 36.2586
186 1 6.26024 2.25879 38.701
187 1 5.21755 4.75814 38.8284
188 1 17.8845 5.61397 10.5399
189 1 16.258 5.5835 15.0835
190 1 14.6816 5.2481 19.7753
191 1 12.8322 4.7913 24.6825
192 1 11.2894 4.40151 29.257
193 1 10.3054 5.64345 31.5482
194 1 9.88494 3.93666 33.7148
195 1 9.33072 2.352 35.981
196 1 8.64626 5.28053 35.9603
197 1 8.83239 3.62434 37.9673
198 1 17.907 5.82125 17.5179
199 1 16.1122 5.50111 22.1903
200 1 14.545 5.16031 26.9921
201 1 12.9466 4.64011 31.488
202 1 11.3476 4.27575 36.4407
203 1 10.0717 6.15423 38.1725
204 1 17.9923 5.74048 24.3632
205 1 16.2703 5.28771 29.1927
206 1 14.6585 4.89562 33.8752
207 1 12.8434 4.79003 38.7963
208 1 17.9859 5.50721 31.4539
209 1 16.3202 5.19305 36.347
210 1 18.0166 5.66775 38.8099
211 2 14.3802 1.1949 102.471
212 1 14.9544 0.965923 99.7646
213 1 3.4992 0.342026 103.441
214 1 2.29349 0.838704 99.0583
215 1 1.48744 1.43096 101.755
216 2 0.600049 0.362545 97.1718
217 1 14.9387 1.32045 94.8716
218 1 5.93748 1.54823 103.042
219 1 6.67078 1.14006 100.347
220 1 5.86818 6.43534 94.9076
221 1 4.65668 2.41678 99.0737
222 2 4.34498 1.2101 101.09
223 1 4.2038 1.27555 93.9018
224 1 2.15746 2.49237 95.3581
225 1 0.511141 0.629914 90.9077
226 1 3.16506 1.73272 91.0211
227 2 1.60961 1.61328 93.1158
228 1 0.90946 1.01674 88.2651
229 1 12.3165 6.95302 95.8313
230 1 7.36403 1.26155 89.1987
231 1 9.00733 6.48476 90.2451
232 1 11.8982 4.69006 103.643
233 1 3.64146 3.12959 102.742
234 1 8.30046 2.92904 102.267
235 1 6.30232 4.31064 103.485
236 2 8.10769 0.337806 102.721
237 2 5.73684 3.46688 101.051
238 1 7.39907 3.61081 99.0917
239 2 6.5627 1.38346 97.6779
240 1 4.99941 2.83474 96.2041
241 1 12.5713 1.4721 103.682
242 1 10.4286 1.42949 101.586
243 1 14.0848 6.00047 99.1878
244 2 11.587 1.34797 99.1076
245 1 10.2654 3.59832 100.026
246 1 9.09851 1.61309 98.2185
247 1 11.1532 0.463051 96.6745
248 1 7.77325 2.86923 95.7626
249 1 11.3907 3.04221 97.207
250 2 9.2973 4.1999 97.3908
251 1 8.3672 3.29134 93.05
252 2 9.07285 1.67769 91.0021
253 1 10.2626 3.96795 91.1301
254 1 6.32129 1.84766 91.8325
255 1 8.66672 0.410823 93.11
256 1 10.3869 3.98377 95.012
257 1 7.38265 3.87395 90.1194
258 1 9.54105 2.67096 88.6819
259 1 12.8761 2.3618 100.994
260 2 10.8639 3.28374 102.497
261 1 12.5207 5.05416 101
262 2 13.3487 3.62128 98.8701
263 1 15.0977 3.75792 100.715
264 1 11.4596 5.69626 98.3082
265 1 13.6925 4.50452 96.651
266 2 6.6718 1.3867 94.3522
267 2 5.31838 2.56091 89.4498
268 1 10.8702 5.17139 88.8323
269 1 2.50863 3.81728 100.044
270 1 13.6176 1.72243 97.32
271 1 10.9639 1.81482 92.9984
272 1 11.5958 1.36536 90.3633
273 2 14.076 1.60313 89.5051
274 1 12.2007 2.96763 88.0991
275 2 3.16007 3.69378 97.5014
276 1 15.9538 3.17064 98.1013
277 1 16.3649 4.90122 96.0158
278 2 12.7485 2.50204 94.8846
279 1 13.7054 1.82853 92.1745
280 2 14.1863 5.70278 94.4562
281 1 12.4194 4.31693 92.8506
282 1 13.1872 4.06185 90.261
283 1 15.362 3.67836 93.6132
284 1 16.0517 3.38612 91.0648
285 1 13.4678 6.51838 89.2396
286 1 14.485 5.64176 103.145
287 1 9.4566 6.577 96.0995
288 2 16.6721 4.32116 102.699
289 1 16.4199 6.32537 101
290 1 4.80536 5.1602 99.1672
291 1 4.3837 5.66925 101.847
292 1 17.1013 5.85373 98.3626
293 1 16.8606 6.33819 93.723
294 1 17.5045 5.85496 90.9874
295 1 14.7407 5.73983 91.896
296 2 15.7784 5.44391 89.1869
297 1 5.7298 3.78952 93.8482
298 1 3.56922 4.99054 95.298
299 1 2.95035 3.72175 92.87
300 1 4.89862 4.60048 90.8877
301 2 4.21165 5.91101 92.9925
302 1 9.799 5.62707 102.312
303 1 6.85909 5.45521 97.1424
304 1 7.24082 5.60821 101.149
305 1 8.84735 6.29397 98.9371
306 2 7.95505 5.10039 94.6404
307 1 6.90721 5.77351 92.3344
308 1 2.68813 3.60154 89.1086
309 2 6.57487 6.30061 89.6063
310 1 9.96888 5.94316 93.1668
311 2 11.5089 6.0575 91.1363
312 1 5.36235 4.78846 88.0717
313 1 3.9045 1.06581 87.9399
314 1 13.4438 0.750033 87.2623
315 2 16.6709 6.44532 84.9389
316 1 14.4149 -0.190494 82.9363
317 1 6.05215 2.25379 83.0624
318 1 2.02374 0.145234 83.9545
319 2 0.863291 0.580276 81.4272
320 1 19.163 6.01344 77.0914
321 1 1.74521 0.0137145 75.1323
322 1 5.70054 6.30405 78.9963
323 1 14.2523 -0.0823391 74.2956
324 1 4.1172 1.45823 85.186
325 2 8.79827 6.5577 83.0697
326 1 10.722 6.88701 84.9873
327 1 3.19462 1.90242 82.3488
328 1 5.26738 0.833762 80.5853
329 1 2.70176 1.28378 72.7329
330 1 9.41517 0.314329 84.3281
331 2 13.8042 6.21272 81.6591
332 1 11.4455 6.2452 82.4906
333 1 7.8533 0.892643 80.0545
334 2 5.93478 2.29214 78.4853
335 1 3.92528 0.289479 77.2712
336 1 4.47287 -0.0918458 74.6214
337 1 10.8467 6.49379 77.8063
338 1 11.6778 5.93525 75.2004
339 1 6.25887 2.31344 86.9262
340 1 1.69083 2.33172 79.9935
341 2 8.54083 0.810801 86.8994
342 2 10.1198 4.00152 86.5159
343 1 8.28295 2.69428 84.7819
344 1 12.0711 1.46714 83.1005
345 1 11.2924 1.79102 85.7265
346 1 10.6795 3.88055 83.7453
347 1 9.07987 2.11774 82.2257
348 1 8.43799 2.15309 77.6965
349 1 9.14602 1.84562 75.1359
350 1 6.46806 1.70182 75.7847
351 2 7.29057 1.32415 73.1265
352 1 14.8597 3.35475 87.5984
353 1 13.3543 3.99909 83.1563
354 1 12.8004 4.46871 85.7595
355 2 11.638 3.31821 81.1955
356 1 10.4591 3.94531 78.8207
357 1 17.1359 4.80643 86.9094
358 1 2.53789 4.17627 84.3496
359 1 16.6637 6.52269 77.9502
360 1 10.4819 0.977592 79.4452
361 1 12.5591 2.41625 78.9853
362 1 13.7151 6.35267 77.0183
363 1 11.6755 0.429931 75.06
364 2 10.9538 1.9363 77.1211
365 1 1.62771 2.20156 86.035
366 1 15.7531 5.50352 83.0294
367 2 15.2509 4.06521 85.1458
368 1 14.2538 2.34918 81.1963
369 1 14.195 1.87405 84.9601
370 1 15.9644 2.62078 83.1676
371 2 14.828 1.31906 78.7663
372 1 13.7064 1.88748 76.3162
373 1 15.015 3.65455 78.0574
374 1 13.0758 5.02335 79.4847
375 1 13.5894 6.40788 73.2188
376 1 11.4767 3.21677 75.1147
377 2 13.4639 2.29275 73.7093
378 1 14.2702 4.32793 75.1004
379 2 12.5178 4.26839 77.1745
380 1 11.8397 3.85409 72.5725
381 1 4.40198 3.40555 79.9469
382 1 1.49387 1.87241 77.1925
383 1 2.91969 3.95315 73.2362
384 1 15.9004 2.44261 74.1519
385 2 3.15011 2.08201 75.172
386 1 12.0578 0.842812 72.2481
387 1 14.7979 6.09557 86.8543
388 1 4.062 6.07653 85.8714
389 2 3.97355 3.41765 86.7662
390 2 17.6648 4.15117 81.7425
391 1 15.7075 5.05127 80.4213
392 1 8.2228 4.91732 87.7743
393 1 5.71842 4.20657 85.0053
394 2 7.34158 4.41217 83.0239
395 1 4.82351 4.66677 82.1686
396 1 7.04691 3.34114 80.7188
397 1 18.3619 6.09304 80.1784
398 1 7.06461 6.09696 81.2509
399 2 4.59103 4.48338 75.0751
400 1 17.0726 4.3874 76.0508
401 1 4.14901 3.11311 77.2142
402 1 5.21259 5.45995 72.8228
403 1 8.50936 5.36595 85.1014
404 2 6.45928 6.35514 86.4229
405 2 17.5747 4.26404 78.6237
406 2 16.1167 5.23229 73.533
407 1 9.42647 4.78712 81.2101
408 1 6.53884 4.48221 76.94
409 1 7.30024 4.00866 74.2678
410 2 9.75371 4.60332 73.7072
411 1 7.73766 5.54994 71.9343
412 2 8.2306 5.07545 78.9782
413 1 9.15343 4.51797 76.35
414 1 5.13647 2.5136 73.397
415 2 1.61181 0.0251002 70.5655
416 1 2.23577 0.116488 67.6778
417 1 10.2961 6.09373 71.2884
418 1 4.96566 0.191576 67.0412
419 1 4.18385 0.634444 69.7705
420 2 7.25813 6.08657 65.0656
421 1 2.11191 0.26208 62.8824
422 1 8.64224 0.692343 70.9209
423 1 9.48123 0.150894 68.3687
424 1 8.24735 5.56156 62.9128
425 1 7.34325 1.55677 66.9241
426 2 6.89562 0.204451 68.8807
427 1 6.76662 0.258686 61.9996
428 1 4.66672 1.52692 63.2722
429 1 7.10369 6.33464 58.8978
430 1 5.74192 0.908553 59.069
431 2 3.98367 0.664254 61.0547
432 1 6.99458 6.18063 56.2673
433 1 14.9421 5.77725 63.8201
434 1 9.67686 0.297265 57.1328
435 1 11.4083 5.46686 58.2072
436 1 14.6825 3.74182 72.0453
437 1 6.53811 2.21461 70.7619
438 1 10.9455 2.14407 70.0178
439 1 9.0741 3.45683 71.4275
440 2 14.7114 6.07074 70.6728
441 2 8.44921 2.442 68.9819
442 1 9.93797 2.7084 66.9621
443 2 9.30195 0.39855 65.6582
444 1 7.46443 1.89707 64.2735
445 1 15.0402 0.919042 71.9073
446 1 12.6311 0.265498 69.3472
447 1 17.0033 4.82899 67.2634
448 2 14.2214 0.312474 67.0245
449 1 12.9506 2.67813 67.8214
450 1 11.6867 0.598238 66.2604
451 1 17.715 6.13864 64.6575
452 1 10.4344 1.95813 63.8859
453 1 13.9893 2.10655 65.2559
454 2 11.8668 3.41799 65.4504
455 1 10.8257 2.16798 61.0551
456 2 11.423 0.749941 59.0399
457 1 12.7504 3.00552 59.2497
458 1 8.70559 0.82067 59.7944
459 1 15.0251 6.07338 61.1352
460 1 12.8754 2.95543 62.9823
461 1 9.92419 2.85553 58.3059
462 1 11.9036 1.808 56.7637
463 1 15.317 1.41916 69.2374
464 2 13.3059 2.36183 70.5553
465 1 15.1366 4.13025 69.2642
466 2 15.6342 2.73629 67.1018
467 1 2.40277 2.80785 69.038
468 1 14.1648 4.70909 66.3114
469 1 16.2314 3.46802 64.7081
470 2 9.12651 0.565832 62.4031
471 2 7.61198 1.42222 57.3487
472 1 13.511 4.27684 56.674
473 1 5.18158 2.87261 68.2904
474 1 0.919062 0.734646 65.2598
475 1 13.3366 0.917157 61.0518
476 1 14.0085 0.438797 58.4319
477 2 1.20145 0.695302 57.549
478 1 14.5304 1.83989 55.9715
479 2 5.38392 2.58261 65.4993
480 1 2.90817 2.45969 66.4846
481 1 3.38893 3.83819 63.9971
482 2 15.1947 1.43729 63.0011
483 1 0.84408 1.00482 60.333
484 2 16.7277 4.80332 62.4662
485 1 14.8418 3.36282 60.9473
486 1 15.6202 3.01762 58.4088
487 1 2.58368 2.77657 61.6473
488 1 3.28747 2.52373 58.9307
489 1 16.0815 5.64811 57.2635
490 1 17.2081 4.89304 71.1218
491 1 12.027 5.54117 64.0864
492 2 4.30829 3.35672 71.0231
493 1 3.86586 5.38712 68.8569
494 1 7.54289 4.2896 67.02
495 1 6.91431 4.68071 69.5683
496 1 4.46001 4.85459 66.4489
497 1 4.06916 5.24091 61.6834
498 1 4.76895 5.0669 59.0044
499 1 17.3631 4.89289 59.8394
500 2 2.92188 4.42044 57.0882
501 1 8.29665 2.878 61.8903
502 1 5.98877 4.07213 63.3602
503 1 5.36181 2.85408 60.8739
504 1 7.3463 3.5322 59.0486
505 2 6.54936 4.91877 61.096
506 1 12.3912 4.68947 69.9879
507 1 9.40371 4.53807 65.1036
508 1 9.76886 4.64352 68.9154
509 1 11.4855 5.4231 66.9008
510 2 10.4539 4.41467 62.6209
511 1 9.29979 5.1876 60.3127
512 1 5.32218 3.02477 57.1591
513 2 9.08815 5.11236 57.6753
514 1 12.3902 4.95268 61.1464
515 2 13.9655 5.07397 59.0209
516 1 8.00345 3.48881 56.0203
517 1 5.82162 0.269071 56.149
518 1 4.17857 6.18802 55.1889
519 2 3.64469 5.30949 52.9764
520 1 5.28005 5.41697 50.7867
521 1 8.38996 0.994888 51.2882
522 1 8.53968 5.46461 51.7244
523 2 7.15065 6.01357 49.2794
524 1 5.94511 4.54186 44.9701
525 1 8.00896 5.27751 43.0914
526 1 7.86432 4.90376 46.9059
527 1 5.18157 5.24628 41.8366
528 1 6.43238 0.283218 53.0779
529 2 10.9582 5.53353 51.0485
530 1 13.0869 5.45222 52.869
531 1 5.69464 0.939782 50.2469
532 1 11.6207 6.44442 48.7472
533 1 9.02707 6.52419 40.8147
534 1 15.7334 5.63181 52.3819
535 2 16.2764 5.51308 49.492
536 1 13.6309 4.89666 50.3648
537 1 14.2215 6.37368 48.0486
538 2 8.24431 1.04079 46.5756
539 1 10.119 5.7758 45.0408
540 1 11.0028 5.44223 42.4161
541 1 13.0568 5.20417 45.8403
542 1 13.7727 4.78198 43.1182
543 1 8.39366 0.7624 54.9084
544 1 3.74391 1.19522 47.8286
545 2 14.7866 6.04681 54.9764
546 2 12.5447 3.2564 54.5104
547 1 10.5765 1.37575 53.0412
548 1 14.0431 0.134098 51.0897
549 1 13.3526 0.757775 53.8011
550 1 13.0408 2.74535 51.9602
551 1 11.2258 1.03472 50.3895
552 1 10.6839 0.93545 45.6394
553 1 11.2945 0.633482 43.0989
554 1 8.56708 0.398771 43.6952
555 2 9.55804 -0.116069 40.9868
556 1 1.80225 1.89158 55.2042
557 1 15.7078 2.90103 51.1521
558 1 15.137 3.23328 53.689
559 2 13.6921 2.12817 49.2318
560 1 12.685 2.55311 46.6809
561 1 4.05456 3.45523 54.8439
562 1 5.27864 3.06885 52.24
563 1 3.35642 5.1826 45.7796
564 1 16.713 6.30306 47.299
565 1 14.8394 1.04904 46.9375
566 1 15.8364 5.11705 44.9349
567 1 17.7631 5.77735 42.9523
568 2 13.2506 0.545035 45.0215
569 1 4.04186 0.925369 53.8453
570 1 2.69909 4.21259 50.8701
571 2 2.45095 2.92896 53.0285
572 1 1.0395 1.09175 49.0232
573 1 1.12309 0.68278 52.8246
574 1 3.09513 1.40124 50.8583
575 2 1.78452 0.0795062 46.5744
576 1 0.607123 0.638712 44.033
577 1 1.9163 2.68603 45.866
578 1 15.1776 3.66914 47.6819
579 1 15.7223 5.28242 41.2911
580 1 13.5436 1.98607 42.9094
581 2 15.2981 0.731183 41.2723
582 1 16.2458 3.16366 43.0646
583 2 14.5933 2.90302 45.1581
584 1 14.3196 3.12105 40.7394
585 1 6.49267 2.19151 47.8029
586 1 3.67355 0.630403 45.0608
587 1 4.77043 2.60732 41.075
588 1 2.53016 1.00997 41.8072
589 2 5.22862 0.907298 43.0603
590 1 12.8679 0.799273 40.654
591 1 17.1658 4.8631 54.7662
592 1 6.4646 4.9787 53.9243
593 2 6.2592 2.30762 54.7037
594 2 4.63245 3.11224 49.7129
595 1 2.47664 3.82945 48.353
596 1 10.8057 4.30904 55.8515
597 1 8.21441 3.01645 53.3389
598 2 9.57012 3.09361 51.0123
599 1 7.1969 3.64368 50.0821
600 1 9.12619 2.13085 48.8547
601 1 5.11822 4.91864 48.0068
602 1 9.33331 4.91682 49.0985
603 2 6.63947 3.12021 42.9722
604 1 3.80801 3.29812 43.5248
605 1 6.2869 1.75595 45.2124
606 1 7.42618 4.03081 40.4936
607 1 10.6718 4.16021 53.1865
608 2 8.82038 5.31906 54.412
609 2 4.36949 2.89491 46.4757
610 2 17.5929 3.72804 41.0175
611 1 11.6754 3.51982 49.0777
612 1 8.61912 3.15961 44.881
613 1 9.30961 2.74667 42.1861
614 2 11.8388 3.10491 41.3533
615 1 9.9928 4.24436 40.1825
616 2 10.3527 3.91784 46.8595
617 1 11.3051 3.32744 44.1865
618 1 7.27959 1.23289 41.4019
ITEM: TIMESTEP
4800
ITEM: NUMBER OF ATOMS
618
ITEM: BOX BOUNDS xy xz yz pp pp ff
0.0000000000000000e+00 1.9317770367296919e+01 4.0025167278329121e+00
0.0000000000000000e+00 6.6702723500479264e+00 0.0000000000000000e+00
0.0000000000000000e+00 1.0921147561319708e+02 0.0000000000000000e+00
ITEM: ATOMS id type x y z
1 1 4.53535 6.04219 5.49182
2 1 5.98985 6.43735 8.13803
3 1 4.10874 6.07503 12.8237
4 1 5.15952 0.227669 5.8852
5 1 7.42641 6.78271 10.5535
6 1 5.8604 6.38326 15.0601
7 1 4.13846 6.13588 19.8151
8 1 11.9729 6.17962 5.66093
9 1 6.80324 0.773766 8.27112
10 1 5.07608 0.537145 12.8716
11 1 7.42783 6.91918 17.5552
12 1 5.73444 6.60341 21.9598
13 1 4.33392 6.06557 26.8113
14 1 10.2051 1.50059 5.48228
15 1 13.5307 6.47193 8.01874
16 1 8.59055 1.16019 10.6289
17 1 11.978 6.23929 12.9482
18 1 6.97795 0.778632 15.0801
19 1 5.30142 0.480029 19.931
20 1 7.49856 6.84937 24.5437
21 1 5.84875 6.29049 29.1896
22 1 4.32443 5.86331 33.8838
23 1 13.0546 0.503162 5.59921
24 1 12.4265 3.1448 5.79619
25 1 11.7553 1.50992 8.05099
26 1 15.2132 6.78353 10.3263
27 1 10.7846 3.20227 10.6349
28 1 10.164 1.42736 12.7671
29 1 13.7269 6.55812 15.1444
30 1 8.52429 1.11536 17.4203
31 1 11.8201 6.16873 19.6957
32 1 6.76193 0.819166 22.2566
33 1 5.17079 0.142634 26.8693
34 1 3.60429 -0.141877 31.6934
35 1 5.98725 6.21829 36.2393
36 1 15.2744 2.17656 5.73483
37 1 14.4958 0.835887 8.27794
38 1 14.0786 3.72668 8.06579
39 1 13.4813 2.1254 10.5436
40 1 12.7448 0.46038 12.9232
41 1 12.4334 3.37375 12.9173
42 1 11.7411 1.77761 15.1504
43 1 15.1787 6.67981 17.3398
44 1 10.6351 2.84108 17.4508
45 1 10.0964 1.25 19.8634
46 1 13.4746 6.44579 22.1021
47 1 8.46438 1.00987 24.5898
48 1 11.882 5.89986 26.7499
49 1 6.7419 0.315365 29.2717
50 1 5.23195 0.189981 33.6722
51 1 3.34381 -0.121172 38.4239
52 1 2.60613 1.37062 5.64705
53 1 17.4816 4.09966 5.6398
54 1 1.37786 2.58279 8.25475
55 1 0.851292 1.21339 10.5222
56 1 15.6894 4.0192 10.4981
57 1 15.0028 2.25505 12.8615
58 1 14.3857 0.605214 15.1946
59 1 14.0188 3.64381 15.3358
60 1 13.3416 1.90089 17.5483
61 1 12.7569 0.220711 19.7042
62 1 12.1054 3.19498 19.775
63 1 11.6958 1.56017 22.0242
64 1 15.2103 6.76721 24.43
65 1 10.895 2.93901 24.4514
66 1 10.1272 1.23082 26.7077
67 1 13.5811 6.19093 29.1398
68 1 8.43194 0.802221 31.4049
69 1 11.8774 5.78103 33.7005
70 1 6.71944 0.469246 36.0873
71 1 4.88933 3.2083 5.58331
72 1 4.01282 1.67488 8.05457
73 1 3.68386 4.5636 8.17088
74 1 2.94407 2.92757 10.6221
75 1 2.40786 1.35382 12.9439
76 1 17.3624 4.22405 12.8531
77 1 1.28795 2.5595 15.2535
78 1 0.76998 0.993481 17.5866
79 1 15.7318 3.82346 17.575
80 1 15.0189 2.23444 19.6839
81 1 14.3904 0.750105 22.2305
82 1 13.976 3.35645 21.9263
83 1 13.5881 1.96094 24.5174
84 1 12.8076 0.229572 26.8775
85 1 12.4185 3.12319 26.8508
86 1 11.707 1.49906 29.2072
87 1 11.2748 -0.168873 31.5501
88 1 10.8102 2.67478 31.6
89 1 10.1113 1.04351 33.7156
90 1 13.6241 6.01962 36.268
91 1 8.58402 0.863453 38.6605
92 1 7.55257 2.28556 5.66702
93 1 7.13449 4.99797 6.03097
94 1 6.21529 3.43711 8.14796
95 1 5.59804 1.9271 10.4809
96 1 5.1782 4.87847 10.5907
97 1 4.80987 3.28231 12.7304
98 1 4.15655 1.6741 15.0975
99 1 3.55057 4.49335 15.0767
100 1 3.17889 3.03692 17.4114
101 1 2.50931 1.48038 19.7976
102 1 17.2008 4.14799 19.8741
103 1 1.35877 2.73658 22.1609
104 1 0.762751 1.06443 24.4237
105 1 15.7184 3.78004 24.4872
106 1 15.0908 2.00916 27.0099
107 1 14.4045 0.318811 29.2321
108 1 13.9611 3.46969 29.2271
109 1 13.5558 1.78095 31.555
110 1 12.9134 0.0212611 33.8753
111 1 12.4529 2.8519 33.9412
112 1 11.7598 1.42333 36.3945
113 1 14.928 6.29983 38.8581
114 1 11.2177 2.55546 38.9254
115 1 9.63792 4.13334 5.96404
116 1 9.20224 2.65167 8.34437
117 1 8.7051 5.49785 8.26915
118 1 7.9468 4.03212 10.4769
119 1 7.41805 2.30992 12.7614
120 1 6.97617 5.23102 12.9093
121 1 6.31092 3.57168 15.1242
122 1 5.81556 2.08886 17.5874
123 1 5.28143 4.97752 17.4249
124 1 4.51886 3.40774 19.8934
125 1 3.93489 1.74489 22.1877
126 1 3.728 4.62599 22.2108
127 1 3.0212 3.01715 24.5872
128 1 2.47248 1.33189 26.9974
129 1 17.3892 4.1581 26.9697
130 1 1.32245 2.46668 29.3583
131 1 0.927211 0.830727 31.472
132 1 15.7527 3.64894 31.5851
133 1 15.4038 1.97339 33.9092
134 1 14.6254 0.388139 36.1672
135 1 14.1982 3.18541 35.9284
136 1 13.8045 1.96011 38.2305
137 1 11.385 4.5957 8.28713
138 1 10.2116 5.82921 10.5305
139 1 9.62067 4.35047 12.8639
140 1 8.94523 2.6547 15.1091
141 1 8.63584 5.66861 15.1737
142 1 7.9971 3.90833 17.4346
143 1 7.376 2.54215 19.893
144 1 6.88509 5.26393 19.6913
145 1 6.40959 3.69473 22.2423
146 1 5.63666 2.03916 24.5601
147 1 5.16796 4.98328 24.5272
148 1 4.82576 3.23578 26.8894
149 1 4.06592 1.50128 29.1462
150 1 3.65491 4.40144 29.1565
151 1 3.18439 2.75505 31.3941
152 1 2.56921 1.17436 33.9351
153 1 17.4595 3.89149 33.9005
154 1 1.71685 2.38438 36.4001
155 1 0.77806 0.865131 38.8517
156 1 15.9726 3.74091 38.9076
157 1 14.8599 5.23243 5.68436
158 1 13.0732 4.92593 10.5692
159 1 11.3342 4.55276 15.1166
160 1 10.0334 6.04137 17.5478
161 1 9.57131 4.17019 19.8013
162 1 9.07906 2.54572 22.3034
163 1 8.60727 5.59326 22.1055
164 1 7.81659 3.84523 24.5144
165 1 7.35874 2.20671 26.8131
166 1 6.91201 5.12032 26.7691
167 1 6.42775 3.4462 29.1376
168 1 5.74501 1.81177 31.3579
169 1 5.44412 4.73305 31.475
170 1 4.77879 3.03658 33.646
171 1 4.17864 1.51883 36.2335
172 1 3.78641 4.43813 36.1868
173 1 3.28479 2.91356 38.6316
174 1 16.3193 5.37654 8.13857
175 1 14.7377 5.24252 12.8965
176 1 12.8952 4.96802 17.422
177 1 11.2547 4.4455 22.0821
178 1 10.0243 5.83474 24.339
179 1 9.68607 4.07055 26.7421
180 1 9.08043 2.39632 29.1371
181 1 8.53776 5.30627 29.0397
182 1 8.05688 3.61854 31.4276
183 1 7.41972 1.86386 33.8903
184 1 6.96395 4.92775 33.8977
185 1 6.32994 3.36734 36.3837
186 1 5.88749 1.73076 38.6394
187 1 5.22115 4.83363 38.9401
188 1 17.8345 5.9438 10.4363
189 1 16.2104 5.38967 15.2914
190 1 14.5376 5.14007 19.6817
191 1 12.9824 4.82484 24.3298
192 1 11.2852 4.25883 29.0424
193 1 10.1171 5.43372 31.3738
194 1 9.661 3.98146 33.7282
195 1 9.00277 2.35877 36.2041
196 1 8.66551 5.20879 36.1289
197 1 8.21866 3.54251 38.2885
198 1 17.8373 5.89674 17.4787
199 1 16.3164 5.42162 22.1682
200 1 14.7235 5.02631 26.8117
201 1 13.0075 4.54762 31.4987
202 1 11.4474 4.23362 36.1282
203 1 10.372 5.71487 38.3247
204 1 17.8173 5.85242 24.6229
205 1 16.2873 5.32179 29.1668
206 1 14.5859 4.78365 33.9215
207 1 12.7917 4.73167 38.9446
208 1 17.903 5.53838 31.5736
209 1 16.318 5.07234 36.2376
210 1 17.7355 5.69566 38.8304
211 2 14.3724 1.14834 102.416
212 1 15.0595 0.895487 99.6751
213 1 3.66378 0.261167 103.608
214 1 2.37459 1.09428 98.9227
215 1 1.64414 1.37031 101.821
216 2 0.67485 0.477015 96.9859
217 1 15.0768 1.32135 94.6312
218 1 5.98414 1.59238 103
219 1 6.87439 1.10727 100.343
220 1 5.91975 6.5789 94.7192
221 1 4.66449 2.48623 99.0445
222 2 4.23706 1.13973 101.127
223 1 4.28541 1.29968 93.8736
224 1 2.25647 2.61941 95.3488
225 1 0.413283 0.698204 90.8473
226 1 3.20444 1.87435 90.8613
227 2 1.68493 1.64886 92.8661
228 1 0.673136 0.859966 88.2658
229 1 12.2147 6.78962 95.913
230 1 7.24138 1.2173 89.2428
231 1 8.91792 6.51776 90.1342
232 1 12.0628 4.61403 103.609
233 1 3.6759 3.0439 102.873
234 1 8.26589 2.9503 102.057
235 1 6.03328 4.57411 103.52
236 2 8.0682 0.256113 102.46
237 2 5.82889 3.40689 101.28
238 1 7.24661 3.57534 98.9633
239 2 6.69602 1.36911 97.7344
240 1 4.91409 2.66266 96.2382
241 1 12.3603 1.52555 103.449
242 1 10.2539 1.23946 101.14
243 1 14.3317 5.8833 99.0846
244 2 11.5932 1.33354 98.9897
245 1 10.0634 3.56403 99.9228
246 1 9.0564 1.67101 98.2342
247 1 10.999 0.41983 96.7528
248 1 7.77363 2.97525 96.0617
249 1 11.3707 3.22791 97.3323
250 2 9.19034 4.40347 97.4601
251 1 8.2755 3.17973 93.2826
252 2 8.77707 1.91774 91.1191
253 1 10.1914 4.07961 91.1201
254 1 6.33479 1.76741 91.7467
255 1 8.61648 0.494847 93.2453
256 1 10.3685 3.96546 95.0134
257 1 7.33964 3.82124 90.1894
258 1 9.42337 2.62001 88.6975
259 1 12.8252 2.24482 100.875
260 2 10.7236 3.09462 102.43
261 1 12.4369 5.01651 100.949
262 2 13.27 3.64886 98.968
263 1 15.0787 3.69878 100.766
264 1 11.4861 5.74502 98.4002
265 1 13.7743 4.39097 96.7124
266 2 6.56564 1.45535 94.5804
267 2 5.01366 2.5294 89.2822
268 1 10.983 5.24673 88.6381
269 1 2.57549 3.86655 100.15
270 1 13.5907 1.58725 97.1017
271 1 10.8627 1.82904 92.9546
272 1 11.4877 1.4599 90.3499
273 2 13.9908 1.57649 89.481
274 1 11.9452 2.72498 88.0104
275 2 3.12601 3.97957 97.4724
276 1 15.7995 3.03807 98.106
277 1 16.36 4.95042 96.0231
278 2 12.5947 2.51199 95.0556
279 1 13.4434 2.08189 92.2962
280 2 14.2224 5.91459 94.5175
281 1 12.4283 4.51813 92.9483
282 1 13.0563 3.95546 90.3088
283 1 15.4358 3.83103 93.5583
284 1 15.9801 3.40824 90.9795
285 1 13.536 6.49355 89.3331
286 1 14.7468 5.58197 102.821
287 1 9.33926 6.65804 96.2586
288 2 16.8489 4.17719 102.642
289 1 16.5286 6.21525 100.725
290 1 4.86318 5.14623 99.2709
291 1 4.29063 5.67728 101.739
292 1 17.2748 5.94834 98.3455
293 1 16.8429 6.3775 93.7025
294 1 17.5144 6.01852 91.0186
295 1 14.8459 5.74816 91.8208
296 2 15.8148 5.34658 89.0948
297 1 5.79076 3.95003 93.898
298 1 3.71407 5.08522 95.3376
299 1 2.95089 3.91974 92.8923
300 1 4.82437 4.54675 91.0823
301 2 4.11154 6.03014 92.9858
302 1 9.77378 5.61474 102.02
303 1 6.60553 5.51861 96.9768
304 1 7.03742 5.64811 101.024
305 1 8.84525 6.46771 99.0802
306 2 7.935 5.27716 94.695
307 1 6.80092 6.01067 92.2547
308 1 2.73131 3.83085 89.1893
309 2 6.47163 6.23868 89.7219
310 1 9.91004 5.99765 93.1238
311 2 11.5765 6.09231 90.9884
312 1 5.27052 4.78488 88.1339
313 1 3.52461 1.19791 88.0234
314 1 13.3034 0.579948 87.1938
315 2 16.7575 6.48157 84.8885
316 1 14.3845 -0.0646112 82.9941
317 1 6.23489 2.11894 83.3142
318 1 2.36767 -0.160513 83.8316
319 2 1.01968 0.496481 81.4789
320 1 19.2059 5.86123 77.1999
321 1 1.88183 -0.0823105 75.2129
322 1 5.79966 6.25466 79.063
323 1 14.3703 -0.105353 74.1993
324 1 4.37118 1.46757 85.219
325 2 8.80445 6.75402 83.1294
326 1 10.7532 6.76335 85.0491
327 1 3.27751 2.02313 82.2105
328 1 5.38312 1.00012 80.7752
329 1 2.45244 1.12032 72.7565
330 1 9.4307 0.0711828 84.2588
331 2 13.7408 6.19915 81.5289
332 1 11.4589 6.45641 82.5114
333 1 7.9355 1.0578 80.0011
334 2 6.16246 2.39026 78.5915
335 1 4.0087 0.376913 77.0749
336 1 4.68746 0.0886348 74.3707
337 1 10.8556 6.4907 77.8418
338 1 11.5948 6.0659 75.2869
339 1 6.39315 2.27025 87.1378
340 1 1.38503 2.53094 80.0738
341 2 8.59416 0.685434 86.8847
342 2 10.0726 4.03422 86.4959
343 1 8.3665 2.4733 84.9441
344 1 11.7337 1.54127 82.9783
345 1 11.1963 1.94474 85.5558
346 1 10.7482 4.14212 83.723
347 1 9.20691 2.0709 82.251
348 1 8.53533 2.15538 77.6503
349 1 9.19915 1.86611 75.0764
350 1 6.4838 1.81961 75.8909
351 2 7.35199 1.15154 73.2521
352 1 14.6074 3.214 87.457
353 1 13.4449 4.09553 83.1301
354 1 12.732 4.61249 85.9789
355 2 11.7421 3.4489 81.1105
356 1 10.4477 3.91679 78.7712
357 1 16.9227 4.59976 86.9652
358 1 2.88371 4.02216 84.3026
359 1 16.6669 6.56736 77.8995
360 1 10.5645 0.999169 79.5057
361 1 12.9063 2.54387 78.8761
362 1 13.7349 6.49469 76.9297
363 1 11.7294 0.467993 74.9022
364 2 11.1422 1.91848 77.0259
365 1 1.60857 2.00737 85.8588
366 1 15.8326 5.46084 82.8958
367 2 15.3809 4.08073 85.1
368 1 14.1078 1.9391 81.1907
369 1 14.0638 2.0573 84.8182
370 1 16.1268 2.54211 83.13
371 2 14.9467 1.19993 78.7777
372 1 13.7647 1.96969 76.3852
373 1 14.9946 3.8717 77.767
374 1 12.8495 5.24449 79.3319
375 1 13.569 6.40712 73.0894
376 1 11.4136 3.37317 74.919
377 2 13.4208 2.25873 73.7389
378 1 14.0528 4.47254 74.953
379 2 12.4848 4.29827 77.0739
380 1 11.7675 3.41192 72.2079
381 1 4.26387 3.3791 79.903
382 1 1.58007 1.91095 77.2095
383 1 2.77944 3.77238 73.1775
384 1 15.733 2.55299 74.3078
385 2 3.11415 2.11669 75.1363
386 1 12.3511 0.699392 72.0862
387 1 14.8175 6.12631 86.7918
388 1 4.1177 6.06007 85.8567
389 2 3.6877 3.4526 86.6575
390 2 17.5499 4.29807 81.6613
391 1 15.4473 5.07717 80.3729
392 1 8.21024 4.95363 87.8253
393 1 5.88438 4.11147 85.1792
394 2 7.65385 4.14769 83.054
395 1 4.80657 4.61307 82.1932
396 1 6.96219 3.37733 80.8823
397 1 18.3121 6.05979 80.1914
398 1 7.20845 6.00922 81.2986
399 2 4.55056 4.42939 75.0169
400 1 17.277 4.33499 75.8196
401 1 4.17617 3.04076 77.2049
402 1 5.22339 5.25874 72.782
403 1 8.49499 5.23213 85.0746
404 2 6.54149 6.30887 86.4711
405 2 17.4773 4.21643 78.4457
406 2 16.0884 5.26529 73.3946
407 1 9.51033 4.78437 81.2005
408 1 6.60539 4.42148 76.9847
409 1 7.23605 3.9633 74.328
410 2 9.949 4.72344 73.651
411 1 7.7665 5.64004 72.1809
412 2 8.22515 5.08805 78.9968
413 1 9.17814 4.7055 76.2562
414 1 5.0741 2.45481 73.3106
415 2 1.63379 -0.199231 70.564
416 1 2.26369 -0.21069 67.8382
417 1 10.4223 5.92384 71.4879
418 1 4.91403 0.0905412 67.1405
419 1 4.10669 0.54504 69.8323
420 2 7.12329 6.26573 65.1696
421 1 2.14994 0.257792 62.7442
422 1 8.62713 0.756642 70.9204
423 1 9.53629 0.114694 68.2065
424 1 8.39551 5.4268 62.8272
425 1 7.20913 1.47156 67.0116
426 2 6.75501 0.232837 69.1448
427 1 6.72914 0.125493 61.755
428 1 4.56822 1.3343 63.2905
429 1 6.96533 6.37638 58.8449
430 1 5.69978 0.91146 58.8549
431 2 4.20438 0.641379 60.9247
432 1 6.92813 6.03247 56.1403
433 1 14.9073 6.02836 63.882
434 1 9.85235 0.188044 57.3153
435 1 11.4756 5.63209 58.167
436 1 14.5292 3.76694 72.0551
437 1 6.31315 2.09924 70.9277
438 1 10.8808 2.11509 69.9753
439 1 8.95665 3.30005 71.4879
440 2 14.756 5.99987 70.7182
441 2 8.35566 2.47504 69.0983
442 1 9.88778 2.65894 66.9201
443 2 9.04832 0.472232 65.6253
444 1 7.30308 1.48445 64.2251
445 1 15.2559 0.968911 71.8004
446 1 12.6339 0.213111 69.2258
447 1 16.9307 4.83226 67.1729
448 2 14.2793 0.282128 67.1017
449 1 13.0647 2.57379 67.8159
450 1 11.6758 0.648728 66.2024
451 1 17.7953 5.99795 64.7678
452 1 10.1667 2.14061 64.0145
453 1 14.0026 2.01667 65.2243
454 2 11.8137 3.33102 65.3855
455 1 10.7856 2.15936 61.1789
456 2 11.505 0.945612 59.0741
457 1 12.8335 3.08505 59.1634
458 1 8.85658 0.895838 59.7781
459 1 15.1587 6.16037 61.1933
460 1 13.0407 2.95569 62.9405
461 1 10.0318 3.02955 58.0919
462 1 12.0375 1.64756 56.6606
463 1 15.2877 1.13743 69.2068
464 2 13.4565 2.31506 70.4985
465 1 15.1648 4.15649 69.2197
466 2 15.5724 2.60475 67.1811
467 1 2.2125 2.77879 68.9819
468 1 13.9821 4.71787 66.2171
469 1 16.0962 3.56409 64.7712
470 2 9.14543 0.43989 62.4931
471 2 7.65915 1.55183 57.4143
472 1 13.7422 4.21436 56.8523
473 1 5.00503 2.70785 68.3524
474 1 1.0398 0.807921 65.3419
475 1 13.3093 0.895155 61.0154
476 1 14.1366 0.453467 58.3526
477 2 1.14014 0.413631 57.5731
478 1 14.6142 1.83095 56.0414
479 2 5.494 2.33741 65.5494
480 1 2.89605 2.37022 66.4823
481 1 3.46228 3.69381 64.0865
482 2 15.4237 1.80862 62.8961
483 1 0.867347 0.957947 60.2512
484 2 16.727 4.87239 62.5801
485 1 14.996 3.39122 60.9215
486 1 15.8417 2.94449 58.231
487 1 2.60378 2.69057 61.6498
488 1 3.27802 2.41129 58.9748
489 1 16.2789 5.66637 57.2302
490 1 17.2093 4.85027 70.9384
491 1 11.9975 5.53796 64.056
492 2 3.95269 3.31039 70.9478
493 1 3.90666 5.14894 68.7232
494 1 7.47005 4.18085 67.0657
495 1 6.95268 4.47537 69.7304
496 1 4.6003 4.80755 66.1803
497 1 4.05222 5.33887 61.9467
498 1 4.69634 4.96844 59.1701
499 1 17.4221 4.83592 59.7986
500 2 3.12071 4.37194 57.1268
501 1 8.11964 2.76687 61.8867
502 1 6.06989 3.98558 63.3943
503 1 5.46433 2.84262 60.9037
504 1 7.45629 3.58433 58.9288
505 2 6.69764 5.00749 61.004
506 1 12.551 4.82664 69.8673
507 1 9.5066 4.80467 65.1337
508 1 9.6534 4.67156 68.9947
509 1 11.4643 5.29794 67.0595
510 2 10.521 4.15943 62.6968
511 1 9.57264 4.95283 60.1914
512 1 5.43955 3.20178 57.0796
513 2 8.94863 5.29789 57.5708
514 1 12.4695 4.89848 61.0124
515 2 14.2117 5.08149 59.1383
516 1 8.31194 3.39288 55.9294
517 1 5.80564 0.51664 56.0845
518 1 4.29873 6.08057 55.2849
519 2 3.83011 5.18577 53.0363
520 1 5.26811 5.49318 50.9091
521 1 8.45493 0.964717 50.9638
522 1 8.508 5.46147 51.7819
523 2 7.0553 5.95177 49.3739
524 1 6.1327 4.83409 45.0397
525 1 7.89134 5.49161 42.9476
526 1 8.01322 5.11471 47.0984
527 1 5.11777 5.43624 42.1504
528 1 6.44651 0.275607 53.0238
529 2 11.2074 5.43831 51.079
530 1 13.0457 5.44004 52.9962
531 1 5.72872 0.878702 50.2454
532 1 11.6925 6.44383 48.5858
533 1 8.99202 6.63785 40.722
534 1 15.8143 5.64841 52.2917
535 2 16.2827 5.26701 49.6109
536 1 13.7192 5.10077 50.3755
537 1 14.4511 6.69523 48.0837
538 2 8.45371 1.21629 46.5463
539 1 10.1773 5.72832 45.0613
540 1 10.9544 5.38831 42.5078
541 1 12.9765 5.1006 45.9747
542 1 13.7658 4.73768 43.1997
543 1 8.39149 0.723811 54.987
544 1 3.88195 1.17804 47.8635
545 2 14.7873 6.06625 54.9245
546 2 12.784 3.12818 54.5804
547 1 10.4182 1.24422 53.0013
548 1 14.3112 0.242488 51.0867
549 1 13.5128 0.60294 53.7228
550 1 13.0532 2.77598 51.8319
551 1 11.3952 0.913516 50.5324
552 1 10.7075 0.979675 45.521
553 1 11.2818 0.350146 43.1016
554 1 8.58391 0.441018 43.8499
555 2 9.25835 -0.0711687 41.1854
556 1 1.80719 2.06366 55.4539
557 1 15.7465 2.85124 50.9645
558 1 15.0556 3.25397 53.6046
559 2 13.8452 1.93345 49.1501
560 1 12.6312 2.41243 46.9484
561 1 4.07772 3.43594 54.8135
562 1 4.87569 2.91884 52.1957
563 1 3.52362 5.15234 45.772
564 1 16.9501 6.35868 47.3569
565 1 14.9589 1.20209 46.8672
566 1 15.9149 5.11744 45.0638
567 1 17.866 5.51435 42.8695
568 2 13.2865 0.567696 45.0316
569 1 3.77405 0.740165 53.9244
570 1 2.66971 4.20576 50.9084
571 2 2.29449 2.8555 53.065
572 1 1.02484 1.0518 48.9585
573 1 1.02883 0.70709 53.0299
574 1 2.96258 1.34619 50.878
575 2 1.84233 0.0531695 46.5118
576 1 0.58923 0.682715 44.0482
577 1 1.8461 2.58967 45.8131
578 1 14.9864 3.98656 47.4759
579 1 15.6058 5.10678 41.1987
580 1 13.5411 1.89465 43.0761
581 2 15.3924 0.729282 41.4124
582 1 16.1489 3.28628 42.9412
583 2 14.6117 2.95212 45.2155
584 1 14.3501 2.83703 40.7643
585 1 6.66641 2.41432 47.6505
586 1 3.80328 0.765702 45.057
587 1 4.91041 2.82314 40.9375
588 1 2.71971 1.12583 41.9258
589 2 5.22508 0.789509 43.0186
590 1 12.8491 0.752796 40.6973
591 1 17.1523 4.78615 54.7191
592 1 6.44652 4.83153 53.7806
593 2 6.23769 2.38207 54.6466
594 2 4.53482 3.09265 49.5565
595 1 2.38399 3.79828 48.1756
596 1 11.0396 4.55232 55.82
597 1 8.07097 2.88021 53.1046
598 2 9.62953 3.19309 50.9939
599 1 7.00015 3.44749 50.2586
600 1 9.26253 2.34931 48.7298
601 1 5.1375 4.87329 47.9683
602 1 9.41009 5.00084 49.2573
603 2 6.57505 3.30003 42.943
604 1 3.78025 3.23398 43.5254
605 1 6.36485 1.89346 45.0361
606 1 7.31891 4.13925 40.6114
607 1 10.6598 3.92064 53.1962
608 2 8.99827 5.18491 54.416
609 2 4.529 3.00039 46.2945
610 2 17.9237 3.70751 40.9443
611 1 11.6587 3.54413 49.3205
612 1 8.67664 3.33081 44.9152
613 1 9.28587 2.94668 42.341
614 2 11.7549 2.85986 41.579
615 1 10.0041 4.26393 40.3277
616 2 10.5296 3.95671 46.9794
617 1 11.3193 3.24601 44.2662
618 1 7.24456 1.25776 41.6651
ITEM: TIMESTEP
4900
ITEM: NUMBER OF ATOMS
618
ITEM: BOX BOUNDS xy xz yz pp pp ff
0.0000000000000000e+00 1.9317770367296919e+01 4.0025167278329121e+00
0.0000000000000000e+00 6.6702723500479264e+00 0.0000000000000000e+00
0.0000000000000000e+00 1.0921147561319708e+02 0.0000000000000000e+00
ITEM: ATOMS id type x y z
1 1 4.1846 6.04084 5.78206
2 1 5.87484 6.53408 8.23513
3 1 4.31416 6.15601 12.8877
4 1 5.41055 0.365711 5.71078
5 1 7.61407 6.80844 10.6546
6 1 5.8573 6.55281 15.2405
7 1 4.19435 6.18078 19.8398
8 1 12.0355 6.11287 5.83852
9 1 6.81061 0.643272 8.21374
10 1 5.24334 0.435029 13.0067
11 1 7.54035 6.76184 17.5026
12 1 5.84652 6.44337 22.3982
13 1 4.15093 6.02803 26.9637
14 1 10.2308 1.23053 6.02106
15 1 13.8016 6.4851 8.46428
16 1 8.45908 1.04699 10.6517
17 1 11.8183 6.25364 13.0465
18 1 6.73423 0.830686 15.3795
19 1 4.86878 0.486726 19.8146
20 1 7.70564 6.53406 24.5683
21 1 5.92294 6.23176 29.2073
22 1 4.30561 5.91982 33.9666
23 1 12.833 0.447341 5.72336
24 1 12.5705 3.21066 5.60128
25 1 11.8859 1.88199 8.17818
26 1 15.3466 6.85315 10.6867
27 1 10.6498 2.97579 10.5744
28 1 10.0742 1.4111 13.0006
29 1 13.3353 6.39711 15.3624
30 1 8.35996 1.0996 17.5863
31 1 11.6591 6.10909 19.9568
32 1 6.6241 0.55653 22.1291
33 1 5.17274 0.303014 26.7851
34 1 3.68906 -0.0923745 31.251
35 1 5.93347 6.22665 36.1965
36 1 15.2054 2.51774 5.53596
37 1 14.5478 0.822655 7.98822
38 1 14.1716 3.60914 8.28021
39 1 13.5335 2.14279 10.5206
40 1 12.8986 0.516471 12.7809
41 1 12.2268 3.24293 12.8823
42 1 11.6564 1.574 15.3302
43 1 15.0087 6.80586 17.618
44 1 10.464 3.06574 17.6743
45 1 10.0004 1.47165 19.8221
46 1 13.4739 6.4852 22.1654
47 1 8.36436 0.958817 24.3109
48 1 11.8331 5.87455 26.7816
49 1 6.89055 0.594626 29.0444
50 1 5.1888 0.100323 33.754
51 1 3.45528 -0.176499 38.4728
52 1 2.54739 1.17132 5.62939
53 1 17.2922 4.26618 5.57144
54 1 1.50777 2.79757 8.12727
55 1 0.759229 1.08842 10.4547
56 1 15.6638 4.02309 10.5095
57 1 15.0482 2.47047 12.7933
58 1 14.4242 0.798587 15.1435
59 1 13.896 3.6902 15.131
60 1 13.3562 1.97778 17.515
61 1 12.7358 0.52606 19.9043
62 1 12.3664 3.27465 19.925
63 1 11.6535 1.78588 22.1825
64 1 15.123 6.6596 24.5011
65 1 10.5349 2.66351 24.4171
66 1 10.1948 1.20338 26.8118
67 1 13.4751 6.16539 29.2139
68 1 8.5801 0.705905 31.5316
69 1 11.9089 5.91424 33.918
70 1 6.96818 0.399859 36.2997
71 1 4.76787 3.06596 5.86001
72 1 4.20235 1.55204 8.38278
73 1 3.62423 4.53781 8.14313
74 1 3.14378 3.05735 10.4068
75 1 2.55831 1.40825 12.7751
76 1 17.2919 4.3941 12.8034
77 1 1.42215 2.81516 15.0537
78 1 0.669987 1.16706 17.4642
79 1 15.4887 4.13042 17.4304
80 1 15.0038 2.39716 19.8901
81 1 14.6209 0.660136 22.1375
82 1 13.8941 3.62649 22.341
83 1 13.3466 1.80014 24.4044
84 1 12.8207 0.201158 26.7655
85 1 12.1734 3.18439 26.7401
86 1 11.8712 1.38062 29.146
87 1 11.1931 -0.143762 31.5008
88 1 10.592 2.60997 31.4633
89 1 10.1091 0.90144 34.052
90 1 13.5551 6.06819 36.4485
91 1 8.49353 0.565117 38.8902
92 1 7.42248 2.24355 5.92754
93 1 7.01844 4.98593 5.60428
94 1 6.44642 3.82072 8.17147
95 1 5.86791 2.08313 10.795
96 1 5.38221 4.87843 10.5065
97 1 4.57298 3.30359 12.9009
98 1 4.01083 1.81927 15.2193
99 1 3.64148 4.71628 15.1571
100 1 2.83441 2.96489 17.6131
101 1 2.28771 1.43865 19.8522
102 1 17.2875 4.29261 19.8024
103 1 1.38083 2.55686 22.1788
104 1 0.671043 0.973465 24.5839
105 1 15.6311 3.86838 24.4037
106 1 14.9628 2.3655 26.6582
107 1 14.5695 0.667592 29.0937
108 1 13.9156 3.3597 29.1674
109 1 13.2814 1.75248 31.5983
110 1 12.8939 0.21567 33.841
111 1 12.372 3.08578 33.8316
112 1 11.8186 1.37078 36.3511
113 1 15.2409 6.40172 38.7587
114 1 10.8741 2.40441 39.0389
115 1 9.57347 4.15885 5.70983
116 1 9.21391 2.76711 8.12986
117 1 8.58102 5.50657 8.21961
118 1 8.15532 3.93882 10.7074
119 1 7.40965 2.30994 13.0958
120 1 6.81564 5.27385 12.8408
121 1 6.4125 3.7135 15.1968
122 1 5.5791 2.03552 17.4585
123 1 5.26065 5.00399 17.5783
124 1 4.742 3.34883 19.7948
125 1 4.13767 1.59994 22.3087
126 1 3.46614 4.50903 22.1463
127 1 3.09115 2.96553 24.4965
128 1 2.4662 1.16053 26.8242
129 1 17.2183 4.18941 26.8697
130 1 1.64386 2.54239 29.151
131 1 0.863865 0.976161 31.4921
132 1 15.5049 3.64651 31.4546
133 1 14.9409 2.22498 33.9043
134 1 14.5688 0.616622 36.2006
135 1 13.9063 3.5207 36.3884
136 1 13.6033 1.55611 38.5028
137 1 11.214 4.51192 8.32412
138 1 10.2469 5.80565 10.5697
139 1 9.75374 4.21952 12.9474
140 1 9.06879 2.67071 15.4129
141 1 8.45448 5.56701 15.058
142 1 7.85913 4.00908 17.7304
143 1 7.29664 2.28177 19.8612
144 1 6.85969 5.2576 19.9862
145 1 6.23486 3.53234 22.1585
146 1 5.84963 1.82752 24.5141
147 1 5.42314 4.63907 24.6597
148 1 4.63607 3.1704 26.8109
149 1 4.26057 1.51178 29.1511
150 1 3.64371 4.43505 29.2553
151 1 3.13207 2.73697 31.6383
152 1 2.48466 1.21493 33.8713
153 1 17.3797 4.064 33.9268
154 1 1.40261 2.53063 36.0368
155 1 0.944768 0.925356 38.687
156 1 15.9764 3.68766 38.7315
157 1 14.5514 5.14039 5.64759
158 1 12.9329 4.92141 10.4817
159 1 11.1804 4.62428 15.2789
160 1 10.2081 5.94212 17.6593
161 1 9.51493 4.38678 20.0132
162 1 8.91023 2.66499 22.0777
163 1 8.48253 5.46414 22.2402
164 1 7.99306 3.73645 24.5625
165 1 7.49381 2.21119 26.6802
166 1 6.98236 4.97188 26.8835
167 1 6.3568 3.43026 29.1315
168 1 5.92788 1.78151 31.6324
169 1 5.3721 4.50402 31.4612
170 1 4.69669 3.14154 33.8911
171 1 4.12285 1.4137 36.1802
172 1 3.79753 4.34559 36.3453
173 1 3.18723 2.60447 38.6846
174 1 16.358 5.77991 8.16959
175 1 14.4499 5.31956 12.8889
176 1 12.9183 4.85414 17.6645
177 1 11.0737 4.45467 22.2224
178 1 10.3249 5.61907 24.5724
179 1 9.67904 4.07601 26.9047
180 1 9.17488 2.44442 29.1167
181 1 8.8134 5.25769 29.2293
182 1 8.11696 3.70282 31.4914
183 1 7.486 2.01277 33.7771
184 1 7.00105 5.05931 33.7535
185 1 6.56398 3.16028 36.1779
186 1 5.90412 1.70475 38.4211
187 1 5.22913 4.66873 38.9182
188 1 17.8708 5.75171 10.4936
189 1 16.2031 5.60228 15.1613
190 1 14.5317 5.12754 19.9075
191 1 12.8819 4.72144 24.5726
192 1 11.3189 4.35416 29.141
193 1 10.4058 5.63784 31.5909
194 1 9.87249 3.87439 33.8385
195 1 9.20942 2.27459 36.1776
196 1 8.56007 5.21435 36.1065
197 1 8.22902 3.29129 38.4673
198 1 17.7459 5.84795 17.4615
199 1 16.167 5.50568 22.081
200 1 14.509 5.08284 26.8848
201 1 12.9257 4.55696 31.5028
202 1 11.3231 4.08565 36.1206
203 1 10.3545 5.38383 38.2601
204 1 17.9181 5.81155 24.478
205 1 16.2776 5.30622 29.2176
206 1 14.6952 4.90359 34.0586
207 1 13.1648 4.57143 38.9355
208 1 17.8839 5.66647 31.5364
209 1 16.2487 5.29293 36.244
210 1 17.9788 5.35993 38.7505
211 2 14.4683 1.34235 102.476
212 1 14.8775 0.907299 99.7216
213 1 3.55493 0.319815 103.415
214 1 2.33038 0.950084 99.1157
215 1 1.57218 1.29374 101.678
216 2 0.529223 0.398026 97.1424
217 1 14.8916 1.33361 94.674
218 1 6.06465 1.43084 102.898
219 1 6.98681 1.09032 100.37
220 1 5.83854 6.70142 94.8621
221 1 4.5994 2.5194 98.9319
222 2 4.31028 0.934902 101.116
223 1 4.18863 1.27965 93.9609
224 1 2.25262 2.74168 95.3951
225 1 0.454564 0.807279 90.8976
226 1 3.12422 1.95284 90.9433
227 2 1.54587 1.73973 93.0908
228 1 0.49096 0.654266 88.3689
229 1 12.2986 6.83442 95.7032
230 1 7.24132 1.12086 89.2456
231 1 8.77406 6.60277 90.1624
232 1 12.1529 4.38046 103.373
233 1 3.78178 2.92491 102.522
234 1 8.3166 3.02781 102.095
235 1 6.19203 4.22811 103.263
236 2 8.00708 0.227074 102.608
237 2 5.65449 3.46533 100.981
238 1 7.30237 3.5697 98.9674
239 2 6.56158 1.50908 97.6342
240 1 4.99805 2.97936 96.1843
241 1 12.2806 1.45759 103.433
242 1 10.0705 1.22066 101.107
243 1 14.3214 5.78986 99.0297
244 2 11.4976 1.32991 98.9576
245 1 10.1989 3.61931 99.674
246 1 8.91308 1.60668 98.0594
247 1 11.0979 0.430306 96.6043
248 1 7.96532 3.01563 95.9008
249 1 11.4296 2.98042 97.1762
250 2 9.30887 4.38809 97.3725
251 1 8.27348 3.2861 93.1078
252 2 8.96386 1.77472 91.1459
253 1 10.1469 4.09249 91.1372
254 1 6.26693 1.83479 91.6753
255 1 8.59048 0.472416 93.1601
256 1 10.6033 4.2833 94.889
257 1 7.2725 3.94046 90.3055
258 1 9.36745 2.71206 88.9073
259 1 12.7064 2.28105 100.896
260 2 10.7514 3.15844 102.295
261 1 12.416 5.09391 100.707
262 2 13.3986 3.44762 98.84
263 1 15.0475 3.66385 100.796
264 1 11.4996 5.71238 98.0871
265 1 13.7048 4.36499 96.582
266 2 6.61592 1.63733 94.3885
267 2 5.16178 2.53868 89.5258
268 1 10.9151 5.1376 88.6032
269 1 2.44018 3.83439 100.072
270 1 13.6807 1.58899 97.1983
271 1 10.784 2.08733 93.1655
272 1 11.649 1.57827 90.5839
273 2 13.9888 1.63274 89.591
274 1 12.0667 2.77515 88.1185
275 2 2.99713 3.83176 97.4205
276 1 15.8628 3.06259 98.0367
277 1 16.2453 4.9914 95.9352
278 2 12.7598 2.72832 94.798
279 1 13.6595 2.08929 92.1933
280 2 14.1098 5.84334 94.4238
281 1 12.4222 4.55685 92.8079
282 1 13.1172 4.11914 90.3261
283 1 15.3145 3.8721 93.6087
284 1 16.0716 3.50951 91.0434
285 1 13.5915 6.56883 89.3445
286 1 14.3977 5.73338 102.912
287 1 9.37405 6.68525 96.0862
288 2 16.8725 4.50685 102.666
289 1 16.2371 6.38248 100.974
290 1 4.8182 5.06529 99.0937
291 1 4.00139 5.55115 101.634
292 1 17.1116 5.85347 98.4655
293 1 16.6775 6.47115 93.7854
294 1 17.4443 6.03214 91.2233
295 1 14.8157 5.91086 91.8129
296 2 15.6873 5.25101 89.1029
297 1 5.74524 4.06192 93.7697
298 1 3.49529 5.24021 95.3896
299 1 2.96237 3.94824 92.9262
300 1 4.72115 4.63024 90.872
301 2 4.17779 6.09367 93.0784
302 1 9.8647 5.53048 102.371
303 1 6.89529 5.60454 97.161
304 1 7.06005 5.50997 101.049
305 1 9.01875 6.3834 99.1228
306 2 7.90412 5.3126 94.6942
307 1 6.78691 6.0657 92.2337
308 1 2.83668 3.92867 89.0972
309 2 6.38954 6.32766 89.5736
310 1 9.73737 6.08639 93.0299
311 2 11.5263 6.20883 91.0443
312 1 5.56624 4.57207 87.967
313 1 3.51813 1.28982 87.9635
314 1 13.3279 0.658139 87.2913
315 2 16.8589 6.37016 85.0332
316 1 14.3043 0.0382794 82.7321
317 1 6.12655 2.09408 83.1022
318 1 2.11005 -0.063591 83.6219
319 2 0.998738 0.630708 81.2826
320 1 19.2668 5.88696 77.2219
321 1 1.7582 -0.067614 75.1615
322 1 5.86322 6.48109 78.9581
323 1 14.1581 -0.168845 74.2531
324 1 4.28064 1.42005 84.9856
325 2 8.97377 6.55547 83.1091
326 1 10.8343 6.76019 85.0298
327 1 3.20938 2.03301 82.0686
328 1 5.40882 0.873891 80.6549
329 1 2.40381 1.27831 72.7607
330 1 9.55132 0.060808 84.4204
331 2 13.9863 6.27333 81.5634
332 1 11.5037 6.28144 82.5495
333 1 7.92298 0.964646 80.0734
334 2 6.17045 2.29173 78.4506
335 1 3.89118 0.358995 77.0881
336 1 4.65583 -0.0425609 74.4784
337 1 10.8867 6.4779 77.8032
338 1 11.6885 5.97647 75.1545
339 1 6.246 2.05792 86.9654
340 1 1.59117 2.57875 79.9503
341 2 8.58517 0.738972 87.0241
342 2 9.93868 3.75411 86.6443
343 1 8.2702 2.58703 85.0438
344 1 12.014 1.48029 82.9643
345 1 11.2924 1.73611 85.6443
346 1 10.5899 3.7552 83.8877
347 1 9.11484 2.03828 82.3746
348 1 8.512 2.23939 77.6854
349 1 9.09509 1.84037 75.1092
350 1 6.46488 1.8243 75.7137
351 2 7.27921 1.18868 73.0761
352 1 14.7525 3.39452 87.3975
353 1 13.3504 4.19749 83.1692
354 1 12.6126 4.39554 85.8591
355 2 11.7723 3.61321 81.1277
356 1 10.4591 3.91908 78.7962
357 1 17.149 4.63032 86.7509
358 1 2.53804 4.10921 84.2481
359 1 16.7421 6.58028 77.9448
360 1 10.6352 1.02671 79.4238
361 1 12.8189 2.69607 78.7236
362 1 13.9274 6.45969 76.9272
363 1 11.6604 0.428071 74.9244
364 2 11.1753 1.96151 77.0252
365 1 1.55244 2.00038 85.7965
366 1 15.6758 5.33758 82.8727
367 2 15.2331 4.19792 85.0669
368 1 14.2075 2.25552 80.827
369 1 14.1762 1.91031 84.8844
370 1 15.9235 2.60633 82.7889
371 2 14.8862 1.37829 78.5178
372 1 13.8599 1.9841 76.2652
373 1 15.1503 3.92362 77.8859
374 1 13.0172 5.19015 79.2267
375 1 13.6106 6.42546 73.194
376 1 11.4624 3.34224 74.8642
377 2 13.3662 2.21764 73.5497
378 1 14.1476 4.3526 74.9491
379 2 12.4673 4.33728 76.9427
380 1 11.536 3.5604 72.2178
381 1 4.38751 3.44853 79.8308
382 1 1.55848 2.0167 77.1356
383 1 2.80597 3.75919 73.3102
384 1 15.7683 2.3681 74.1464
385 2 3.046 2.06909 75.1272
386 1 12.101 0.742228 71.9897
387 1 14.7605 6.02107 86.8684
388 1 4.08505 6.01324 85.8066
389 2 3.85639 3.29158 86.6193
390 2 17.689 4.3369 81.5768
391 1 15.7865 5.2709 80.2767
392 1 8.23368 5.17638 87.9456
393 1 5.7931 4.02865 85.0395
394 2 7.51535 4.29799 83.1199
395 1 4.68259 4.67019 82.1688
396 1 6.91212 3.32521 80.7955
397 1 18.5053 6.0819 80.051
398 1 7.26333 6.02445 81.1771
399 2 4.50501 4.38701 75.1494
400 1 17.1212 4.44782 75.7876
401 1 4.1864 3.03875 77.1433
402 1 5.04754 5.31778 72.8814
403 1 8.45861 5.18266 85.2053
404 2 6.46703 6.39587 86.3797
405 2 17.7232 4.20585 78.3851
406 2 16.041 5.036 73.4119
407 1 9.47178 4.68752 81.3182
408 1 6.51709 4.45888 77.0088
409 1 7.12912 4.10935 74.2846
410 2 9.80964 4.58312 73.5332
411 1 7.6589 5.55135 72.0292
412 2 8.30739 5.22492 79.003
413 1 9.27129 4.66384 76.2363
414 1 5.04925 2.38396 73.3342
415 2 1.51927 -0.00629996 70.5935
416 1 2.36756 -0.0847574 67.8313
417 1 10.2419 5.73932 71.3648
418 1 5.06368 0.0901539 67.2662
419 1 4.28823 0.590914 69.8865
420 2 7.36695 6.36518 65.1251
421 1 2.16255 0.159167 62.7961
422 1 8.58331 0.593429 70.8904
423 1 9.53124 0.0718293 68.275
424 1 8.42709 5.39013 62.9095
425 1 7.24117 1.56308 67.0628
426 2 6.98718 0.0122704 68.9735
427 1 6.67174 0.212523 61.8947
428 1 4.59646 1.37593 63.2987
429 1 7.0922 6.31747 58.9202
430 1 5.80214 0.770643 58.8388
431 2 4.16183 0.609411 60.9383
432 1 6.93496 5.83964 56.2533
433 1 15.0356 5.8535 63.8189
434 1 9.93913 0.320348 57.3667
435 1 11.5543 5.42789 58.1868
436 1 14.3413 3.89674 72.0036
437 1 6.37863 1.99379 70.7346
438 1 10.8263 2.05053 69.8618
439 1 8.71878 3.24943 71.4217
440 2 14.7008 6.04179 70.6024
441 2 8.24511 2.45269 69.1004
442 1 9.86393 2.62772 66.9706
443 2 9.28626 0.324963 65.7739
444 1 7.42076 1.39994 64.3182
445 1 14.9297 0.971902 71.7815
446 1 12.5453 0.0730307 68.9993
447 1 17.0694 4.86503 67.0716
448 2 14.3078 0.317261 66.8973
449 1 13.0068 2.48841 67.7773
450 1 11.7327 0.654234 66.1147
451 1 17.7741 6.03386 64.4949
452 1 10.2281 2.16994 64.1115
453 1 13.9543 2.00963 65.2558
454 2 11.8432 3.31019 65.4935
455 1 10.9008 2.41518 61.2347
456 2 11.6381 0.890966 59.2202
457 1 12.8227 3.18817 59.2192
458 1 8.97683 0.777113 59.8111
459 1 15.2045 6.13019 61.2238
460 1 13.1027 2.99874 62.9363
461 1 9.90668 2.926 58.25
462 1 12.0239 1.89975 56.799
463 1 15.2465 1.30746 69.1774
464 2 13.2803 2.30237 70.4054
465 1 15.0338 4.13607 69.0904
466 2 15.7411 2.64753 67.0847
467 1 2.33348 2.79911 69.1152
468 1 14.2137 4.72043 66.2827
469 1 16.1789 3.47551 64.6873
470 2 9.31579 0.582563 62.4513
471 2 7.62774 1.36524 57.2674
472 1 13.6525 4.3582 56.7262
473 1 4.90777 2.8255 68.3285
474 1 1.06126 0.785572 65.3405
475 1 13.5164 0.944727 60.9901
476 1 14.1051 0.479483 58.422
477 2 1.20779 0.379413 57.5611
478 1 14.6205 1.87982 56.1308
479 2 5.30561 2.28255 65.6598
480 1 2.93868 2.24445 66.4652
481 1 3.53004 3.64875 64.0357
482 2 15.35 1.75792 62.972
483 1 0.877711 0.903718 60.2655
484 2 16.7889 4.74672 62.4059
485 1 15.0665 3.49647 60.9558
486 1 15.7836 2.95612 58.1537
487 1 2.52957 2.64017 61.5808
488 1 3.42107 2.4477 58.9528
489 1 16.2577 5.70263 57.3489
490 1 17.1195 4.62864 71.0008
491 1 12.2347 5.51447 64.1192
492 2 4.17792 3.21548 71.0265
493 1 3.75679 5.2953 68.9772
494 1 7.505 4.23548 67.086
495 1 6.76325 4.59697 69.7215
496 1 4.47316 4.92962 66.3093
497 1 4.1097 5.24105 61.8692
498 1 4.72129 4.97275 59.2201
499 1 17.3839 4.81824 59.804
500 2 3.03699 4.36823 57.1673
501 1 8.35093 2.74349 62.0861
502 1 6.03927 3.94137 63.5528
503 1 5.54565 2.66367 60.9585
504 1 7.31018 3.38517 59.0568
505 2 6.72541 4.88118 61.1595
506 1 12.4007 4.70764 69.7813
507 1 9.75558 4.89515 65.1176
508 1 9.58293 4.61763 69.0467
509 1 11.6148 5.34294 66.8873
510 2 10.5458 4.30152 62.7257
511 1 9.44428 4.97684 60.3017
512 1 5.51976 3.1633 57.0718
513 2 9.01887 5.08796 57.6782
514 1 12.5575 5.15092 61.1588
515 2 14.2133 5.22154 59.0055
516 1 8.23712 3.33806 55.8852
517 1 5.72975 0.392382 56.0669
518 1 4.25508 6.13732 55.3007
519 2 3.73476 5.21465 52.9717
520 1 5.41057 5.30889 50.9326
521 1 8.57696 0.966227 51.1891
522 1 8.5131 5.33771 51.7456
523 2 7.23637 5.82731 49.2163
524 1 6.05603 4.80507 45.035
525 1 8.23976 5.26622 43.0483
526 1 7.88686 4.97985 46.9963
527 1 5.30608 5.44537 42.1846
528 1 6.57779 0.0527831 53.0844
529 2 11.1388 5.41874 50.8982
530 1 13.1357 5.47458 52.8474
531 1 5.7746 0.867577 50.3811
532 1 11.6586 6.34686 48.6675
533 1 9.01103 6.67479 40.7751
534 1 15.924 5.55884 52.3164
535 2 16.1402 5.00444 49.5609
536 1 13.7498 5.13226 50.3095
537 1 14.236 6.35572 48.0093
538 2 8.21248 1.05016 46.5483
539 1 10.124 5.73089 45.0662
540 1 11.0279 5.46052 42.4514
541 1 12.8475 5.27405 45.8436
542 1 13.7234 4.70202 43.1005
543 1 8.56032 0.514871 54.9299
544 1 3.82305 1.08348 47.8652
545 2 14.9494 6.04667 54.8245
546 2 12.7733 3.28705 54.5029
547 1 10.8552 1.31622 52.9313
548 1 14.1984 0.386557 51.1311
549 1 13.5386 0.655387 53.7252
550 1 13.0577 2.8534 51.7073
551 1 11.4032 0.87956 50.1011
552 1 10.5913 1.04409 45.678
553 1 11.3067 0.522827 43.108
554 1 8.57601 0.466696 43.6164
555 2 9.62067 -0.254572 41.0704
556 1 1.92932 1.70638 55.4521
557 1 15.8151 2.8128 51.1454
558 1 15.1639 3.08053 53.6969
559 2 13.9152 2.17729 49.1149
560 1 12.558 2.53272 46.9121
561 1 4.05576 3.44331 54.8557
562 1 5.17821 2.86561 52.1888
563 1 3.58646 5.42009 45.9502
564 1 16.8716 6.29545 47.4138
565 1 14.9427 1.26712 46.9714
566 1 15.7538 5.17883 45.0716
567 1 17.8209 5.66629 43.1455
568 2 13.2643 0.571716 45.1238
569 1 3.96625 0.734914 53.9292
570 1 2.7043 4.25808 50.8837
571 2 2.51973 2.77095 53.013
572 1 1.0407 0.868061 49.2037
573 1 1.17936 0.617258 52.8243
574 1 3.10317 1.22709 50.9217
575 2 1.78373 0.155125 46.6285
576 1 0.418974 0.834215 44.0859
577 1 1.91567 2.69067 45.8811
578 1 14.8806 3.98642 47.3893
579 1 15.7187 5.19395 41.2776
580 1 13.4822 2.02074 43.0458
581 2 15.5546 0.90767 41.4928
582 1 16.3057 3.35206 43.2092
583 2 14.4078 2.99814 45.1161
584 1 14.2998 3.02908 40.78
585 1 6.49421 2.15072 47.7917
586 1 3.72481 0.698602 45.1617
587 1 4.83817 2.70681 41.0186
588 1 2.67534 1.06271 42.2982
589 2 5.29182 1.03785 43.1318
590 1 12.9947 0.801997 40.7716
591 1 16.998 4.74269 54.6991
592 1 6.30188 4.80392 53.833
593 2 6.32391 2.18524 54.5879
594 2 4.56306 3.05447 49.5932
595 1 2.50235 3.82093 48.1272
596 1 10.7562 4.39459 55.7183
597 1 8.26108 2.93571 53.1605
598 2 9.9643 2.99265 51.0088
599 1 7.18628 3.32005 50.1971
600 1 9.24228 2.24153 48.7058
601 1 5.14408 4.86344 48.0674
602 1 9.45434 4.89892 49.1303
603 2 6.67265 3.24713 43.0462
604 1 3.91131 3.31437 43.4739
605 1 6.26271 1.90075 45.1997
606 1 7.21011 4.34797 40.7052
607 1 10.8524 3.97843 53.0642
608 2 8.90317 5.20098 54.3249
609 2 4.48121 3.051 46.3638
610 2 17.7287 3.72673 41.0174
611 1 11.7318 3.67776 49.2567
612 1 8.69101 3.1621 44.8931
613 1 9.41226 2.74515 42.3081
614 2 11.8639 3.0524 41.4332
615 1 9.83025 4.30064 40.4009
616 2 10.4525 3.96203 46.9859
617 1 11.3285 3.34859 44.3141
618 1 7.47926 1.25308 41.2989
ITEM: TIMESTEP
5000
ITEM: NUMBER OF ATOMS
618
ITEM: BOX BOUNDS xy xz yz pp pp ff
0.0000000000000000e+00 1.9317770367296919e+01 4.0025167278329121e+00
0.0000000000000000e+00 6.6702723500479264e+00 0.0000000000000000e+00
0.0000000000000000e+00 1.0921147561319708e+02 0.0000000000000000e+00
ITEM: ATOMS id type x y z
1 1 4.26302 6.18978 5.62237
2 1 6.04352 6.40171 8.20827
3 1 4.22491 6.23947 12.9342
4 1 5.10112 0.449056 5.81243
5 1 7.6532 6.82009 10.4469
6 1 5.72495 6.55774 15.1497
7 1 4.07168 6.16244 19.9061
8 1 11.878 6.20153 5.63629
9 1 6.81842 0.756252 8.22699
10 1 5.05185 0.603386 12.8727
11 1 7.32243 6.84056 17.6757
12 1 5.73811 6.38585 22.0052
13 1 4.15787 5.8069 26.7918
14 1 10.1109 1.50335 5.60769
15 1 13.571 6.55179 8.0531
16 1 8.53845 1.11206 10.7825
17 1 11.7917 6.12176 12.9127
18 1 6.64883 0.787626 15.1963
19 1 5.20889 0.14397 19.9278
20 1 7.32765 6.59583 24.5151
21 1 5.93785 6.35856 29.1445
22 1 4.14429 5.79927 33.9802
23 1 12.9126 0.348484 5.84951
24 1 12.3798 3.2577 5.90248
25 1 11.6929 1.57048 8.34636
26 1 15.0626 6.6621 10.5011
27 1 10.7309 3.092 10.6045
28 1 10.0455 1.40557 13.0053
29 1 13.4669 6.64156 15.194
30 1 8.26953 1.04166 17.5617
31 1 11.8185 6.14863 19.8948
32 1 6.78582 0.696137 22.3763
33 1 5.16763 0.302923 26.9256
34 1 3.47866 -0.012294 31.7139
35 1 5.86627 6.2279 36.3273
36 1 14.889 2.12513 5.98376
37 1 14.4369 0.690745 8.32465
38 1 13.9363 3.60809 8.21257
39 1 13.3597 1.94976 10.6778
40 1 12.6864 0.42964 12.9662
41 1 12.3827 3.34875 12.937
42 1 11.6979 1.85014 15.1548
43 1 15.1897 6.81745 17.5493
44 1 10.6736 2.93475 17.5403
45 1 10.0151 1.35117 19.9429
46 1 13.4438 6.19468 22.3434
47 1 8.37836 1.00814 24.7174
48 1 11.9055 5.84647 27.0471
49 1 6.81983 0.44192 29.404
50 1 5.27544 0.227942 33.9526
51 1 3.40523 -0.333215 38.5097
52 1 2.5044 1.46604 5.74865
53 1 17.4184 4.29271 5.95417
54 1 1.46785 2.62866 8.40678
55 1 0.98296 1.13455 10.6743
56 1 15.7195 3.9563 10.6232
57 1 15.0231 2.4532 12.8904
58 1 14.4276 0.84463 15.3191
59 1 13.96 3.73929 15.3947
60 1 13.3818 2.21503 17.6425
61 1 12.7844 0.519544 19.8304
62 1 12.2742 3.36045 20.0038
63 1 11.6465 1.59924 22.4172
64 1 15.2525 6.63242 24.6599
65 1 10.6978 2.94149 24.64
66 1 10.158 1.25121 26.8993
67 1 13.6754 6.27179 29.2161
68 1 8.50508 0.944455 31.7567
69 1 11.9482 5.88019 33.8245
70 1 6.84208 0.565962 36.1851
71 1 4.77915 3.42855 5.62374
72 1 4.13096 1.89158 8.03755
73 1 3.77284 4.64475 8.25879
74 1 3.21463 3.13871 10.6845
75 1 2.39487 1.49767 12.999
76 1 17.3861 4.36856 12.964
77 1 1.21809 2.69637 15.4022
78 1 0.788467 1.11957 17.6555
79 1 15.5706 4.05461 17.6269
80 1 14.9574 2.28261 19.9652
81 1 14.3456 0.666927 22.3022
82 1 14.0126 3.59569 22.105
83 1 13.4008 1.91324 24.6741
84 1 12.8935 0.157294 26.922
85 1 12.4859 3.19033 27.0142
86 1 11.7469 1.59172 29.2527
87 1 11.2667 -0.0272824 31.5579
88 1 11.0067 2.86563 31.566
89 1 10.2076 1.40354 33.8063
90 1 13.907 6.24297 36.1783
91 1 8.74904 1.05342 38.7413
92 1 7.32404 2.37527 5.57451
93 1 6.90014 5.27778 5.81878
94 1 6.46599 3.59648 8.17309
95 1 5.66921 2.08414 10.5596
96 1 5.36744 5.00756 10.6452
97 1 4.74675 3.53653 12.9536
98 1 4.06361 1.7719 15.2478
99 1 3.51495 4.81146 15.1777
100 1 2.91805 3.11138 17.5503
101 1 2.30806 1.29695 19.8931
102 1 17.122 4.24305 20.0052
103 1 1.23001 2.636 22.2057
104 1 0.711509 0.983054 24.3698
105 1 15.4721 3.66207 24.6712
106 1 15.1923 1.95239 26.8447
107 1 14.4151 0.388329 29.1893
108 1 14.1392 3.54685 29.2699
109 1 13.6197 1.8704 31.4637
110 1 12.8206 0.164456 33.8997
111 1 12.463 3.08698 33.9719
112 1 11.7617 1.45115 36.1865
113 1 15.1922 6.51763 38.8866
114 1 11.3552 2.64928 38.8298
115 1 9.7003 4.3478 5.82942
116 1 9.19955 2.66622 8.40184
117 1 8.76069 5.43094 8.22499
118 1 7.94682 3.99554 10.5475
119 1 7.2549 2.34624 12.814
120 1 6.98999 5.37004 13.0625
121 1 6.08545 3.64714 15.3342
122 1 5.63084 1.98426 17.6864
123 1 5.0291 4.9082 17.5986
124 1 4.45152 3.24362 19.9369
125 1 4.00496 1.50532 22.0651
126 1 3.53786 4.49463 22.2376
127 1 2.99971 2.73214 24.5198
128 1 2.54742 1.22134 26.9983
129 1 17.3996 4.04526 26.913
130 1 1.25097 2.38522 29.1727
131 1 0.798604 0.866314 31.5369
132 1 15.9541 3.75489 31.5084
133 1 15.2437 2.14589 33.8057
134 1 14.5579 0.329258 36.2066
135 1 14.3567 3.25728 36.0442
136 1 13.8021 1.69143 38.3591
137 1 11.3468 4.60983 8.29705
138 1 10.302 5.76594 10.6462
139 1 9.62031 4.33321 12.8554
140 1 8.80212 2.69666 15.2526
141 1 8.41021 5.59238 15.4747
142 1 7.85812 3.82408 17.5674
143 1 7.24631 2.31582 19.9694
144 1 6.82338 5.02161 19.8064
145 1 6.23659 3.34827 22.2648
146 1 5.69965 1.92115 24.5751
147 1 5.16261 4.70521 24.4349
148 1 4.81617 3.10688 26.8784
149 1 4.00981 1.5382 29.2837
150 1 3.7746 4.32874 29.0493
151 1 3.07622 2.76342 31.4645
152 1 2.48925 1.17147 33.9742
153 1 17.4176 3.99429 33.9867
154 1 1.59046 2.25921 36.6654
155 1 0.823329 0.657431 38.9531
156 1 16.2196 3.67318 38.9067
157 1 14.8295 5.18125 5.9123
158 1 12.9435 4.7984 10.6587
159 1 11.263 4.76399 15.2211
160 1 10.0533 5.82923 17.6448
161 1 9.44553 4.12755 19.8931
162 1 9.14341 2.57347 22.3109
163 1 8.5407 5.32696 22.1351
164 1 7.8767 3.84822 24.6565
165 1 7.28573 2.23728 26.9835
166 1 6.9349 5.04906 26.778
167 1 6.31724 3.47828 29.3831
168 1 5.54921 1.90979 31.5726
169 1 5.27876 4.74212 31.6048
170 1 4.68559 3.01318 33.9042
171 1 4.10021 1.36758 36.3291
172 1 3.54467 4.26571 36.3095
173 1 3.3605 2.52822 38.9382
174 1 16.3224 5.41143 8.39214
175 1 14.7432 5.1606 12.9562
176 1 12.9347 5.12066 17.4684
177 1 11.2253 4.51482 22.1942
178 1 10.0832 5.85204 24.5957
179 1 9.6735 4.03635 26.9366
180 1 9.04598 2.58671 29.3538
181 1 8.4522 5.40936 29.2963
182 1 7.79162 3.7212 31.5769
183 1 7.36527 2.07789 33.8654
184 1 6.81718 4.84327 34.0445
185 1 6.28172 3.2023 36.2945
186 1 5.91765 1.61376 38.8006
187 1 5.33429 4.38883 38.5581
188 1 17.9924 5.9809 10.6185
189 1 16.211 5.64078 15.345
190 1 14.5244 5.21885 19.878
191 1 12.9255 4.75158 24.647
192 1 11.3282 4.39429 29.2154
193 1 10.0779 5.70552 31.5712
194 1 9.60568 4.10064 33.8435
195 1 9.13442 2.33929 36.0393
196 1 8.53369 5.20576 36.1044
197 1 8.32463 3.60628 38.2477
198 1 17.8377 6.02332 17.5951
199 1 16.1698 5.34378 22.3489
200 1 14.654 4.89904 26.7618
201 1 13.0326 4.80687 31.5057
202 1 11.686 4.41963 36.2521
203 1 10.5465 5.77879 38.3846
204 1 17.8438 5.70783 24.4928
205 1 16.3072 5.31359 29.1291
206 1 14.5769 4.9809 33.9005
207 1 13.3093 4.824 38.6953
208 1 17.8724 5.6362 31.4131
209 1 16.3956 5.07798 36.3798
210 1 18.0686 5.50339 39.0127
211 2 14.4243 1.23626 102.227
212 1 14.9913 0.905706 99.5477
213 1 3.4164 0.146662 103.204
214 1 2.35884 0.807874 99.0516
215 1 1.47883 1.41193 101.664
216 2 0.519642 0.28408 97.0308
217 1 14.9304 1.27824 94.709
218 1 5.86476 1.59962 102.908
219 1 6.7141 0.875476 100.288
220 1 5.78407 6.60145 94.7568
221 1 4.72156 2.44141 98.9103
222 2 4.25224 1.00761 101.008
223 1 4.15397 1.39314 93.8306
224 1 2.20705 2.51195 95.4964
225 1 0.633778 0.81047 90.781
226 1 3.25118 1.89029 90.9578
227 2 1.67625 1.6866 93.0495
228 1 0.707836 0.816373 88.2708
229 1 12.1992 6.69782 95.7326
230 1 7.3723 1.27651 89.1016
231 1 9.03885 6.62064 90.1154
232 1 11.9415 4.60695 103.713
233 1 3.55541 2.95866 102.686
234 1 8.16901 2.87626 101.982
235 1 6.00717 4.47547 103.404
236 2 7.97514 0.304746 102.496
237 2 5.70083 3.25867 101.008
238 1 7.2055 3.6125 98.8638
239 2 6.62539 1.31159 97.5419
240 1 4.87875 2.93826 96.2474
241 1 12.3394 1.79095 103.353
242 1 10.1752 1.17122 101.088
243 1 14.2286 6.01199 99.1487
244 2 11.5426 1.43379 98.891
245 1 10.0838 3.76832 99.9539
246 1 9.02622 1.73944 97.9917
247 1 11.0276 0.562548 96.3545
248 1 7.80146 3.00132 95.8267
249 1 11.3661 3.1679 97.1907
250 2 9.22715 4.39129 97.2259
251 1 8.32501 3.41684 92.9698
252 2 8.98396 2.01219 90.9893
253 1 10.3111 4.05 91.1791
254 1 6.28582 2.0833 91.6869
255 1 8.56491 0.486272 93.1286
256 1 10.4059 4.06604 94.8939
257 1 7.44311 4.09742 90.1828
258 1 9.56978 2.86709 88.6227
259 1 12.8504 2.36195 100.855
260 2 10.6973 3.14464 102.377
261 1 12.4884 5.08339 100.982
262 2 13.1129 3.71439 98.8491
263 1 15.0385 3.85182 100.681
264 1 11.4514 5.60398 98.2675
265 1 13.723 4.65493 96.6548
266 2 6.63666 1.60987 94.3691
267 2 5.23204 2.65858 89.3051
268 1 11.0151 5.31464 88.571
269 1 2.49091 3.75852 100.038
270 1 13.6086 1.82192 97.1938
271 1 10.85 1.94495 93.0019
272 1 11.623 1.53218 90.3606
273 2 14.0895 1.61509 89.4827
274 1 12.1735 2.96525 87.958
275 2 3.065 3.78477 97.5301
276 1 15.8951 3.03929 98.148
277 1 16.353 4.85435 95.9612
278 2 12.6355 2.72212 94.891
279 1 13.8042 1.95884 92.22
280 2 14.2091 5.80606 94.4041
281 1 12.4867 4.49426 92.9397
282 1 13.1386 4.00068 90.3193
283 1 15.3745 3.83477 93.5489
284 1 16.2103 3.44123 91.0856
285 1 13.6088 6.6115 89.2713
286 1 14.6156 5.72537 102.887
287 1 9.20383 6.70477 95.981
288 2 16.9129 4.62296 102.679
289 1 16.5661 6.35278 100.785
290 1 4.74934 4.97993 99.2351
291 1 4.0819 5.57598 101.734
292 1 17.0518 5.91476 98.2408
293 1 16.7664 6.49265 93.8072
294 1 17.5454 6.04166 91.1647
295 1 14.8231 5.88234 91.7605
296 2 15.7891 5.34244 89.0262
297 1 5.72258 3.98499 93.9073
298 1 3.53687 5.15873 95.2644
299 1 2.85883 3.87074 92.9319
300 1 4.87545 4.48979 90.9492
301 2 4.1435 6.18806 92.9301
302 1 9.75279 5.5721 102.072
303 1 6.72152 5.42094 96.8494
304 1 6.9027 5.49405 100.966
305 1 8.7737 6.30674 98.7221
306 2 8.00772 5.37264 94.5282
307 1 6.83208 6.00919 92.2057
308 1 2.83394 4.02152 89.1479
309 2 6.58787 6.32293 89.7112
310 1 9.94995 6.25237 93.0667
311 2 11.5509 6.28789 91.0595
312 1 5.47388 4.69855 88.1155
313 1 3.50056 1.31404 88.0259
314 1 13.1733 0.605264 87.1924
315 2 16.7116 6.39963 84.9027
316 1 14.3797 -0.0796296 82.8281
317 1 6.02671 2.10287 83.2469
318 1 2.13564 -0.00649263 83.8121
319 2 1.08973 0.570507 81.4124
320 1 19.2192 6.03719 77.0098
321 1 1.78506 0.0420391 75.1327
322 1 5.79678 6.45634 78.8459
323 1 14.2661 -0.0473735 74.282
324 1 4.08628 1.35279 85.1632
325 2 8.72231 6.6161 83.0713
326 1 10.6162 6.63427 84.8037
327 1 3.32749 2.05427 82.2017
328 1 5.40745 0.882263 80.7157
329 1 2.6112 1.22955 72.6923
330 1 9.34756 0.0671797 84.1958
331 2 13.8802 6.33394 81.6077
332 1 11.3517 6.3069 82.291
333 1 7.99136 0.834325 79.9747
334 2 5.99038 2.25708 78.4646
335 1 4.06704 0.336501 77.0333
336 1 4.60653 -0.0662674 74.3415
337 1 10.8674 6.43978 77.7577
338 1 11.5444 5.93424 75.2137
339 1 6.10285 1.99956 86.8342
340 1 1.66626 2.49312 80.0089
341 2 8.46093 0.636232 86.9432
342 2 10.1444 4.23551 86.3243
343 1 8.27465 2.44838 84.8511
344 1 11.873 1.61968 83.0322
345 1 11.1291 1.9115 85.5656
346 1 10.7874 3.97756 83.7856
347 1 9.04952 2.1253 82.2602
348 1 8.40241 2.35607 77.6242
349 1 8.99881 1.73134 74.9268
350 1 6.34228 1.75303 75.7076
351 2 7.19299 1.13234 73.0808
352 1 14.6855 3.09324 87.283
353 1 13.4993 4.18461 83.1772
354 1 12.7825 4.44742 85.657
355 2 11.6829 3.45585 81.0843
356 1 10.4785 3.85836 78.7695
357 1 16.9886 4.65377 86.8744
358 1 2.75628 4.19007 84.3172
359 1 16.5098 6.54241 77.7991
360 1 10.4835 1.06414 79.2829
361 1 12.8232 2.54438 78.9613
362 1 13.7655 6.41648 76.8756
363 1 11.5991 0.421121 74.9409
364 2 10.8882 1.94055 76.9654
365 1 1.64366 2.03251 85.9243
366 1 15.7043 5.41337 82.953
367 2 15.523 4.0219 85.1298
368 1 14.2798 2.24947 81.2054
369 1 14.1585 1.84656 84.8436
370 1 16.1645 2.56445 83.0079
371 2 14.9605 1.39222 78.6887
372 1 13.6111 2.0698 76.2854
373 1 15.0413 3.83059 77.7447
374 1 13.0067 5.13933 79.2674
375 1 13.5332 6.3654 73.1066
376 1 11.2999 3.24718 74.9492
377 2 13.3781 2.21822 73.6692
378 1 14.039 4.41402 74.8859
379 2 12.5052 4.27779 77.0606
380 1 11.5405 3.64763 72.321
381 1 4.35239 3.39378 79.8163
382 1 1.61807 1.9961 77.1264
383 1 2.67019 3.92626 73.2285
384 1 15.7809 2.60289 74.1787
385 2 3.19596 2.14622 75.0164
386 1 12.1419 0.67718 72.1697
387 1 14.6358 5.94861 86.7303
388 1 3.93755 6.09029 85.8598
389 2 3.73653 3.53083 86.7044
390 2 17.7229 4.30995 81.6432
391 1 15.6683 5.28982 80.1325
392 1 8.36392 5.19168 87.7498
393 1 5.71923 4.01279 85.0815
394 2 7.31663 4.25384 82.9694
395 1 4.89292 4.63717 82.1377
396 1 7.07717 3.32102 80.7494
397 1 18.4018 6.03206 79.9951
398 1 7.19307 6.1049 81.135
399 2 4.58439 4.54234 74.8862
400 1 17.2093 4.43843 75.7655
401 1 4.11241 3.20557 77.0248
402 1 5.21535 5.30432 72.6732
403 1 8.41678 5.01868 85.0531
404 2 6.46915 6.23204 86.427
405 2 17.5359 4.35163 78.3704
406 2 15.9657 5.18761 73.3425
407 1 9.44916 4.63789 81.3507
408 1 6.40743 4.44365 76.9055
409 1 7.15941 4.09734 74.2439
410 2 9.67257 4.5421 73.5049
411 1 7.76069 5.66493 71.9994
412 2 8.24121 5.06615 78.9759
413 1 9.25673 4.56614 76.2291
414 1 5.0671 2.48821 73.2041
415 2 1.69518 0.0306931 70.4848
416 1 2.17905 -0.0582867 67.6724
417 1 10.2185 6.00503 71.2727
418 1 4.9766 0.184441 67.0299
419 1 4.14486 0.360823 69.5496
420 2 7.31546 6.33254 65.0319
421 1 2.14881 0.1766 62.8065
422 1 8.5516 0.767783 70.9206
423 1 9.56758 0.0948368 68.2391
424 1 8.54896 5.53647 62.8147
425 1 7.33199 1.50358 66.8444
426 2 6.83629 0.202205 69.0343
427 1 6.73436 0.258552 61.8782
428 1 4.84316 1.4354 63.2999
429 1 7.14617 6.25898 58.876
430 1 5.74908 0.835956 59.1001
431 2 4.07381 0.571299 61.062
432 1 6.96847 6.1792 56.2888
433 1 15.1116 5.92716 63.8298
434 1 9.818 0.191091 57.241
435 1 11.5821 5.55898 58.3273
436 1 14.5851 3.77892 71.908
437 1 6.30942 2.09235 70.675
438 1 10.9889 1.98671 69.9194
439 1 8.95153 3.38092 71.1357
440 2 14.5792 6.03593 70.6393
441 2 8.36169 2.4089 68.8722
442 1 10.0315 2.60382 66.9076
443 2 9.34593 0.482297 65.5933
444 1 7.62543 1.79271 64.1834
445 1 15.1912 0.960806 71.8754
446 1 12.6487 0.211296 69.0065
447 1 16.9824 4.83397 67.3349
448 2 14.3107 0.250035 66.9996
449 1 12.9536 2.70892 67.8046
450 1 11.8272 0.648856 66.2097
451 1 17.8489 5.92514 64.7079
452 1 10.5175 2.10643 63.9557
453 1 14.0326 2.01711 65.1953
454 2 12.0015 3.41243 65.3492
455 1 10.8789 2.17208 61.1347
456 2 11.5167 0.735769 59.0411
457 1 12.8338 2.92996 59.2164
458 1 8.80381 0.743006 59.8833
459 1 15.0962 6.00431 61.2169
460 1 13.0829 2.88833 62.8979
461 1 9.97422 2.89 58.3022
462 1 12.1966 1.67546 56.7296
463 1 15.2956 1.22143 69.1276
464 2 13.3349 2.20258 70.4412
465 1 15.0335 3.97126 69.2502
466 2 15.6233 2.6476 67.0742
467 1 2.33694 2.71784 69.0384
468 1 14.3049 4.9103 66.183
469 1 16.3432 3.66223 64.9345
470 2 9.23719 0.514907 62.4422
471 2 7.70872 1.35653 57.5776
472 1 13.7168 4.10208 56.8377
473 1 5.10084 2.69792 68.3447
474 1 1.00096 0.827672 65.354
475 1 13.4371 0.840623 60.8773
476 1 14.2348 0.481279 58.4238
477 2 1.25039 0.496257 57.573
478 1 14.6917 1.81882 55.9628
479 2 5.46148 2.37482 65.517
480 1 3.07744 2.26827 66.2826
481 1 3.55096 3.6941 64.0336
482 2 15.3169 1.34291 62.9764
483 1 0.876452 0.849741 60.2724
484 2 16.8558 4.79827 62.5575
485 1 15.1211 3.29447 61.0422
486 1 15.7878 2.94488 58.3172
487 1 2.58685 2.73736 61.7079
488 1 3.33849 2.37907 59.0813
489 1 16.2462 5.61634 57.3976
490 1 17.2298 4.92257 70.9566
491 1 12.0488 5.57544 64.1086
492 2 4.05133 3.52908 70.8635
493 1 3.84516 5.10315 68.9142
494 1 7.50724 4.14091 66.9184
495 1 6.81458 4.52031 69.4956
496 1 4.54941 4.88565 66.2336
497 1 4.1928 5.26849 61.7616
498 1 4.86614 4.86082 59.1409
499 1 17.4635 4.80144 59.7066
500 2 3.18536 4.24659 57.0221
501 1 8.39745 2.7999 61.914
502 1 6.16172 4.23223 63.5115
503 1 5.44671 2.7779 60.9922
504 1 7.37449 3.39002 59.0105
505 2 6.74986 4.89726 61.0827
506 1 12.3506 4.75224 70.0161
507 1 9.58807 4.59624 65.1002
508 1 9.64107 4.63446 68.817
509 1 11.6372 5.37006 66.8564
510 2 10.6094 4.28754 62.6206
511 1 9.42845 5.05655 60.3099
512 1 5.46177 2.8458 57.1855
513 2 9.07617 5.04362 57.5861
514 1 12.4796 4.93884 61.1109
515 2 14.1826 5.11791 59.0283
516 1 8.09289 3.33952 56.0568
517 1 5.88609 0.108291 56.0713
518 1 4.43876 6.10242 55.2869
519 2 3.8713 5.18836 52.9192
520 1 5.26108 5.34652 50.8147
521 1 8.50053 0.887431 51.0242
522 1 8.70482 5.34726 51.8469
523 2 7.21471 5.99911 49.3819
524 1 5.94289 4.64496 45.0763
525 1 7.93385 5.33169 42.9694
526 1 7.96005 5.18823 47.0277
527 1 5.09308 5.47778 42.135
528 1 6.53886 0.277305 52.9755
529 2 11.1525 5.29331 51.1095
530 1 13.0822 5.32651 53.0295
531 1 5.68404 0.758125 50.0595
532 1 11.5425 6.15138 48.6248
533 1 8.90751 6.48087 40.6553
534 1 15.77 5.44607 52.3975
535 2 15.9514 4.87819 49.5698
536 1 13.5859 4.87687 50.4418
537 1 14.0384 6.20646 48.0185
538 2 8.26767 1.11149 46.4524
539 1 10.193 5.73496 45.0824
540 1 10.9809 5.40004 42.5502
541 1 13.0537 5.21333 45.7726
542 1 13.8209 4.76631 43.1604
543 1 8.46224 0.628632 54.8896
544 1 3.84372 1.0816 48.004
545 2 14.9401 5.99699 54.969
546 2 12.6442 3.01054 54.5753
547 1 10.6102 1.11807 53.0827
548 1 14.2971 0.213003 50.9526
549 1 13.617 0.595108 53.5414
550 1 13.0893 2.59555 51.9023
551 1 11.3914 0.767377 50.3439
552 1 10.6758 0.983991 45.7614
553 1 11.3454 0.436523 43.1508
554 1 8.76576 0.464327 43.7981
555 2 9.32519 -0.0822929 41.0614
556 1 1.94442 1.83846 55.3334
557 1 15.7637 2.69999 51.1394
558 1 15.2484 3.19286 53.7358
559 2 14.0593 2.33138 49.142
560 1 12.7572 2.69465 46.7311
561 1 4.19688 3.39786 54.8404
562 1 5.14666 2.84469 52.2267
563 1 3.43462 5.32231 45.8755
564 1 16.6955 6.39004 47.6728
565 1 14.9701 1.1753 46.8323
566 1 16.002 5.15988 45.1545
567 1 17.6774 5.70426 43.0765
568 2 13.2308 0.678402 45.1274
569 1 4.00369 0.666159 53.9333
570 1 2.69348 4.22012 50.9111
571 2 2.45879 2.82783 52.8923
572 1 1.11884 1.007 48.9802
573 1 1.14111 0.697857 52.9033
574 1 2.9787 1.2223 50.9751
575 2 1.8217 -0.0837674 46.6151
576 1 0.563031 0.720373 44.0513
577 1 1.99148 2.48354 45.7878
578 1 15.3137 3.80335 47.3528
579 1 15.6745 5.13186 41.1648
580 1 13.5729 2.10439 43.108
581 2 15.5208 0.904121 41.5185
582 1 16.2769 3.28105 43.1337
583 2 14.8222 2.97041 45.0364
584 1 14.2933 3.02492 40.7211
585 1 6.54468 2.29968 47.6785
586 1 3.69735 0.602625 45.0603
587 1 4.85195 2.8997 41.103
588 1 2.72534 1.07304 42.0749
589 2 5.28606 0.924343 43.001
590 1 13.0076 0.661143 40.7444
591 1 17.273 4.81783 54.6959
592 1 6.45396 4.78523 53.735
593 2 6.28352 2.12696 54.801
594 2 4.6364 2.96652 49.6525
595 1 2.55949 3.74647 48.1927
596 1 10.9766 4.29527 55.9154
597 1 8.23157 2.86036 53.1802
598 2 9.79732 3.01094 51.1308
599 1 7.12495 3.53508 50.235
600 1 9.26182 2.051 48.6742
601 1 5.13393 4.78366 48.0203
602 1 9.35281 4.71228 49.2023
603 2 6.56959 3.34412 43.0209
604 1 3.81926 3.24679 43.5458
605 1 6.31072 1.87028 45.0145
606 1 7.20327 4.1879 40.6251
607 1 10.9471 3.88582 53.2439
608 2 9.08409 5.03091 54.5605
609 2 4.3733 2.95033 46.4001
610 2 17.9125 3.74181 41.2136
611 1 11.6784 3.45015 49.2975
612 1 8.60512 3.48446 44.9963
613 1 9.38499 2.75123 42.4833
614 2 11.8636 3.02151 41.4116
615 1 9.86888 3.99917 40.3771
616 2 10.3621 3.79748 46.8984
617 1 11.3349 3.39165 44.2957
618 1 7.35942 1.2117 41.4506
