ITEM: TIMESTEP
20000
ITEM: NUMBER OF ATOMS
618
ITEM: BOX BOUNDS xy xz yz pp pp ff
0.0000000000000000e+00 1.9317770367296919e+01 4.0025167278329121e+00
0.0000000000000000e+00 6.6702723500479264e+00 0.0000000000000000e+00
0.0000000000000000e+00 1.0921147561319708e+02 0.0000000000000000e+00
ITEM: ATOMS id type x y z
1 1 4.25581 5.98442 5.8149
2 1 5.9286 6.2332 8.4599
3 1 4.25168 5.98521 13.1193
4 1 5.25009 0.232976 5.90325
5 1 3.50267 -0.113699 10.8539
6 1 5.95655 6.25317 15.5016
7 1 4.48204 5.96664 20.0457
8 1 11.9493 6.02887 5.98056
9 1 6.82808 0.633759 8.39398
10 1 5.09285 0.318825 12.9402
11 1 7.87871 6.60437 17.7691
12 1 6.09945 6.33093 22.3145
13 1 4.44746 6.21077 27.1443
14 1 10.0718 1.21106 5.90333
15 1 13.5353 6.3556 8.3362
16 1 8.42754 1.00515 10.6552
17 1 11.9376 6.03895 12.9714
18 1 6.96377 0.607608 15.2295
19 1 5.58516 0.424206 20.1101
20 1 7.76118 6.80342 24.7381
21 1 6.04815 6.38614 29.6327
22 1 4.41286 6.18832 33.9637
23 1 12.99 0.198532 5.86702
24 1 12.4507 3.111 5.80008
25 1 11.752 1.64408 8.46214
26 1 11.1099 0.0746067 10.7694
27 1 10.81 2.89727 10.7358
28 1 10.1264 1.34447 13.1603
29 1 13.5792 6.38179 15.3218
30 1 8.61293 1.02924 17.6582
31 1 12.1998 6.11584 20.0828
32 1 7.20952 0.574569 22.3981
33 1 5.57938 0.471727 27.055
34 1 3.82569 -0.0487693 31.6658
35 1 6.35496 6.44074 36.9684
36 1 15.1203 2.23175 6.09572
37 1 14.315 0.573548 8.42093
38 1 13.9675 3.42431 8.24876
39 1 13.3384 1.83507 10.7259
40 1 12.7516 0.254026 13.0699
41 1 12.4474 3.15957 13.156
42 1 11.7983 1.6104 15.3812
43 1 15.319 6.68778 17.6285
44 1 10.9648 2.80019 17.7616
45 1 10.26 1.12521 20.0397
46 1 14.0033 6.34097 22.3566
47 1 8.71325 1.05782 24.7155
48 1 12.383 6.14286 26.9328
49 1 7.26452 0.843696 29.3652
50 1 5.4641 0.455829 33.91
51 1 6.38251 6.00453 40.0422
52 1 2.55171 1.19254 5.82873
53 1 17.3334 3.93802 6.06267
54 1 1.27612 2.47423 8.55165
55 1 0.739327 0.775096 10.7763
56 1 15.5569 3.70334 10.7981
57 1 15.1844 2.18321 13.1357
58 1 14.5321 0.427089 15.3122
59 1 13.9858 3.39018 15.4782
60 1 13.6223 1.88327 17.6492
61 1 13.0204 0.196676 20.0252
62 1 12.5076 3.22517 20.0047
63 1 12.1051 1.50205 22.1515
64 1 15.539 6.6488 24.6326
65 1 11.0399 2.90321 24.659
66 1 10.4469 1.3291 27.0854
67 1 13.811 6.33837 29.4382
68 1 8.78811 1.19061 31.6722
69 1 12.2295 6.13508 34.2136
70 1 7.25857 0.711379 36.299
71 1 4.77621 3.14821 5.85582
72 1 4.07912 1.51248 8.25658
73 1 3.62863 4.27725 8.38492
74 1 2.92074 2.63748 10.6634
75 1 2.50794 1.31481 13.1568
76 1 17.341 4.05027 13.1231
77 1 1.48611 2.33383 15.5049
78 1 0.942144 0.906397 17.7932
79 1 15.7373 3.59129 17.6858
80 1 15.3011 2.22065 20.0259
81 1 14.6729 0.585758 22.2499
82 1 14.3092 3.37082 22.5548
83 1 13.6228 1.92886 24.7459
84 1 13.0543 0.347578 27.138
85 1 12.637 3.10623 27.1221
86 1 12.1493 1.65384 29.4771
87 1 11.5122 -0.0730629 31.6893
88 1 11.0903 2.98629 31.6703
89 1 10.3792 1.31644 34.0153
90 1 13.7764 6.54821 36.5675
91 1 8.83258 1.47109 39.2809
92 1 7.43473 2.32881 6.05579
93 1 6.88924 5.14468 5.85083
94 1 6.50496 3.58358 8.58385
95 1 5.62402 1.81297 10.6441
96 1 5.17337 4.70893 10.7213
97 1 4.63564 3.10057 12.9336
98 1 4.21364 1.58721 15.4337
99 1 3.69548 4.27851 15.5488
100 1 3.2825 2.9022 17.8474
101 1 2.88637 1.29905 19.9413
102 1 17.4186 4.16525 20.0702
103 1 1.85736 2.57077 22.0852
104 1 1.09388 1.02491 24.6632
105 1 15.9207 3.69269 24.6839
106 1 15.4197 2.38435 27.2704
107 1 14.7643 0.70835 29.3236
108 1 14.4225 3.61783 29.5033
109 1 13.7404 2.01869 31.7827
110 1 12.9607 0.362122 34.0812
111 1 12.5156 3.29643 33.8343
112 1 12.1667 1.56337 36.2225
113 1 11.1549 0.0611141 38.7492
114 1 11.2504 2.99414 38.7723
115 1 9.85352 4.15227 5.70992
116 1 9.11531 2.46782 8.34791
117 1 8.63117 5.41614 8.43373
118 1 7.99258 3.83359 10.7823
119 1 7.48654 2.4831 12.8985
120 1 6.88593 5.08595 13.08
121 1 6.43673 3.45728 15.292
122 1 6.07403 2.02352 17.7343
123 1 5.64422 4.8411 17.8629
124 1 4.92849 3.38475 20.0811
125 1 4.51417 1.50741 22.4426
126 1 3.94272 4.37199 22.5828
127 1 3.288 2.8065 24.6865
128 1 2.73823 1.44978 27.0193
129 1 17.5389 4.19371 27.0355
130 1 1.83512 2.53373 29.4016
131 1 1.03089 1.00904 31.7424
132 1 15.9816 3.78343 31.7091
133 1 15.3706 2.24481 34.1294
134 1 14.8074 0.697587 36.235
135 1 14.4329 3.5779 36.2423
136 1 13.5194 1.86605 38.4214
137 1 11.3107 4.40087 8.3761
138 1 10.3024 5.49024 10.8364
139 1 9.70096 4.22034 13.1515
140 1 9.15615 2.48744 15.4708
141 1 8.63186 5.37999 15.254
142 1 8.22707 3.84811 17.6187
143 1 7.69845 2.33487 20.0944
144 1 7.34102 5.13461 20.1159
145 1 6.70363 3.53591 22.4622
146 1 6.05063 2.0574 24.7366
147 1 5.57539 4.9018 24.8645
148 1 5.16852 3.33494 27.1335
149 1 4.53655 1.64295 29.3023
150 1 4.00487 4.44904 29.3572
151 1 3.24289 2.82042 31.7885
152 1 2.71577 1.26835 34.0764
153 1 17.6436 4.04986 33.9945
154 1 1.84433 2.62134 36.5467
155 1 15.6756 0.655814 38.8906
156 1 15.9283 3.50009 38.7669
157 1 14.6689 5.10513 5.79812
158 1 13.0792 4.82423 10.7377
159 1 11.2909 4.41769 15.3841
160 1 10.3672 5.94333 17.6594
161 1 10.0112 4.31768 19.9365
162 1 9.4895 2.64564 22.449
163 1 8.97923 5.48757 22.4668
164 1 8.32216 3.87335 24.7955
165 1 7.85737 2.2822 27.0865
166 1 7.25515 5.30602 27.1665
167 1 6.62537 3.61459 29.5507
168 1 5.97504 2.00427 31.636
169 1 5.53357 4.73997 31.8749
170 1 5.0037 3.2685 34.0013
171 1 4.52117 1.70013 36.2181
172 1 3.85817 4.52885 36.4884
173 1 3.22802 1.99941 39.0128
174 1 16.1928 5.35847 8.47642
175 1 14.6035 5.04187 13.1348
176 1 13.061 4.76247 17.7624
177 1 11.6442 4.49205 22.292
178 1 10.4687 5.79838 24.6569
179 1 10.0534 4.30124 27.0859
180 1 9.51684 2.75369 29.4598
181 1 8.87625 5.50569 29.4436
182 1 8.35108 3.898 31.8465
183 1 7.7968 2.29618 34.0749
184 1 7.06124 5.1678 34.2314
185 1 6.70138 3.51927 36.4649
186 1 6.10566 1.77828 38.5775
187 1 4.6831 4.19799 39.0495
188 1 17.8423 5.63747 10.8563
189 1 16.2655 5.34124 15.4987
190 1 14.7132 4.96063 19.837
191 1 13.4033 4.77906 24.7104
192 1 11.7383 4.42785 29.4164
193 1 10.5832 5.8409 31.7387
194 1 9.98211 4.35633 34.0141
195 1 9.45407 2.84625 36.4399
196 1 8.83234 5.7567 35.9582
197 1 8.37843 4.63139 38.2224
198 1 18.0782 5.65514 17.7934
199 1 16.4613 5.33104 22.2877
200 1 14.6919 5.12618 27.1177
201 1 13.2575 5.10769 31.8927
202 1 11.6178 4.69173 36.3891
203 1 11.1171 5.99719 38.9146
204 1 18.2064 5.81335 24.8113
205 1 16.5854 5.34654 29.569
206 1 14.8785 5.09175 34.0021
207 1 13.3311 4.77125 38.8276
208 1 18.1264 5.77223 31.616
209 1 16.4364 5.37153 36.2849
210 1 17.7625 5.58929 38.4973
211 2 14.4672 1.45017 102.197
212 1 15.013 1.27428 99.3771
213 1 3.65528 0.550135 103.143
214 1 2.60466 1.29907 98.7292
215 1 1.73279 1.78265 101.398
216 2 0.661559 0.728849 96.8146
217 1 14.8581 1.65615 94.5081
218 1 6.03457 1.91189 102.761
219 1 6.91399 1.53786 99.9553
220 1 1.85797 0.295423 94.6247
221 1 4.76393 3.01542 98.6408
222 2 4.29817 1.48711 100.806
223 1 4.10598 1.67453 93.5833
224 1 2.09326 2.9855 95.1808
225 1 0.524098 1.02832 90.8479
226 1 3.23527 2.15614 90.8485
227 2 1.5125 2.04642 92.8907
228 1 0.699372 1.23811 88.116
229 1 8.24636 0.543268 95.497
230 1 7.14749 1.50843 88.9761
231 1 4.91366 0.114761 89.9914
232 1 11.7519 5.23943 103.441
233 1 3.78758 3.41293 102.538
234 1 8.32428 3.34255 101.918
235 1 6.20053 4.73325 103.255
236 2 8.15847 0.679338 102.057
237 2 5.71544 3.89275 100.79
238 1 7.40915 4.03602 98.7465
239 2 6.47583 1.71172 97.4826
240 1 4.8483 3.05766 95.8897
241 1 13.2395 2.82231 103.391
242 1 10.4303 1.80675 101.589
243 1 14.2808 6.19434 98.794
244 2 11.2673 1.73835 99.0172
245 1 10.2142 3.90091 99.8234
246 1 8.97595 1.95459 97.9821
247 1 11.0408 0.813997 96.6492
248 1 7.73026 3.4324 95.6665
249 1 11.3047 3.33834 96.9889
250 2 9.2668 4.69486 97.1005
251 1 8.35559 3.54584 92.9791
252 2 9.07749 2.10402 90.9379
253 1 10.2061 4.27325 90.7374
254 1 6.29496 2.11736 91.3967
255 1 8.55233 0.661443 92.8979
256 1 10.4341 4.34234 94.8018
257 1 7.28994 4.25393 89.9074
258 1 9.40831 2.96624 88.5878
259 1 12.7915 2.7821 100.621
260 2 10.854 3.77156 102.37
261 1 12.3855 5.32692 100.586
262 2 13.4482 3.82644 98.563
263 1 15.0569 4.05022 100.487
264 1 11.4681 5.9415 97.9208
265 1 13.6562 4.83108 96.3331
266 2 6.58205 1.80682 94.0576
267 2 5.15539 2.9202 89.1016
268 1 10.9121 5.5626 88.3771
269 1 2.39349 4.17406 99.8895
270 1 13.6249 2.05364 96.8112
271 1 10.8434 2.25223 92.823
272 1 11.714 1.86802 90.0891
273 2 14.1473 2.13466 89.3127
274 1 12.0526 3.21936 87.8477
275 2 3.24181 4.31228 97.2489
276 1 16.0438 3.33904 97.8385
277 1 16.3209 5.37212 95.8889
278 2 12.5328 2.63932 94.6653
279 1 13.5327 2.40555 91.9477
280 2 14.3869 6.5702 94.2518
281 1 12.2329 4.65624 92.6808
282 1 13.103 4.43211 90.1588
283 1 15.2477 4.22283 93.5594
284 1 15.9014 3.66376 91.0023
285 1 9.51688 0.141369 88.9202
286 1 14.3321 5.82413 102.56
287 1 5.39277 0.321898 95.6599
288 2 16.7882 4.46669 102.441
289 1 16.4944 6.65485 100.74
290 1 4.82034 5.53232 98.7716
291 1 4.09248 5.9682 101.444
292 1 17.1834 6.36264 98.1895
293 1 16.7993 6.72194 93.4175
294 1 17.5166 6.08991 90.7505
295 1 14.9137 6.26089 91.4516
296 2 15.8044 5.56599 88.8121
297 1 5.69775 4.06385 93.4788
298 1 3.60781 5.47761 95.0637
299 1 2.80888 4.15282 92.6641
300 1 4.66131 4.9972 90.503
301 2 4.19278 6.28401 92.8018
302 1 9.75664 5.99889 101.676
303 1 6.90962 5.83783 96.7927
304 1 6.98077 5.97447 100.801
305 1 8.98571 6.54806 98.6633
306 2 7.89983 5.64648 94.398
307 1 6.89229 6.20001 91.9041
308 1 2.63902 3.96347 88.9403
309 2 6.41405 6.60712 89.3428
310 1 9.77472 6.16572 92.7127
311 2 11.4627 6.48183 90.6921
312 1 5.30769 5.02449 87.8061
313 1 3.68816 1.52258 87.7365
314 1 13.3761 1.11325 87.0242
315 2 16.8417 6.7752 84.771
316 1 14.3509 0.0651322 82.6512
317 1 6.09186 2.35293 83.1283
318 1 2.1937 0.138459 83.5051
319 2 0.928573 0.701263 81.25
320 1 3.95088 6.08606 76.9666
321 1 1.87418 0.252603 74.9591
322 1 5.79162 6.61149 78.9727
323 1 18.3094 6.83784 74.0347
324 1 4.20683 1.6338 84.9413
325 2 4.80861 0.116624 82.9253
326 1 6.8088 0.174574 84.8876
327 1 3.1713 2.19238 81.9893
328 1 5.43522 1.23517 80.7218
329 1 2.71302 1.55133 72.7194
330 1 9.41514 0.401706 84.1086
331 2 13.8401 6.50313 81.3806
332 1 11.5005 6.61851 82.2357
333 1 8.00449 1.18325 79.8312
334 2 6.05068 2.45336 78.4075
335 1 4.02771 0.631488 76.827
336 1 4.79893 0.322058 74.1775
337 1 11.0394 6.81416 77.5686
338 1 11.7139 6.3356 75.1041
339 1 6.30397 2.28694 86.7144
340 1 16.632 2.73885 79.8979
341 2 8.71198 1.11396 86.7677
342 2 10.098 4.30477 86.279
343 1 8.36934 2.93568 84.6155
344 1 11.8556 1.82479 82.7612
345 1 11.2396 2.17887 85.4012
346 1 10.6785 4.1983 83.4865
347 1 9.04423 2.37111 82.0296
348 1 8.54725 2.57178 77.5842
349 1 9.24422 2.27943 74.9817
350 1 6.55443 2.08776 75.6926
351 2 7.32278 1.3442 72.9436
352 1 14.6359 3.7004 87.1025
353 1 13.4237 4.43748 82.9385
354 1 12.7524 4.83054 85.5953
355 2 11.7362 3.8174 80.9318
356 1 10.6382 4.21677 78.4935
357 1 17.1222 5.04416 86.6421
358 1 2.60199 4.32554 84.1508
359 1 12.6678 0.115447 77.8517
360 1 10.5766 1.36977 79.276
361 1 12.8048 2.73808 78.7566
362 1 13.9155 6.71913 76.753
363 1 11.7489 0.640496 74.9298
364 2 11.0873 2.1287 76.8629
365 1 1.48949 2.31115 85.6112
366 1 15.7198 5.74546 82.7153
367 2 15.3733 4.43356 84.7737
368 1 14.1299 2.23496 81.0016
369 1 14.0664 2.27154 84.5566
370 1 16.0249 2.71986 82.7641
371 2 14.8738 1.53098 78.3692
372 1 13.8728 2.16384 76.124
373 1 15.0909 4.17047 77.7564
374 1 13.0717 5.54488 79.1025
375 1 9.72613 0.190447 72.8897
376 1 11.4539 3.574 74.8316
377 2 13.3137 2.42896 73.6468
378 1 14.0634 4.79113 74.8954
379 2 12.597 4.57963 76.9085
380 1 11.3524 3.17833 72.1029
381 1 4.15761 3.56715 79.7173
382 1 1.63121 2.12989 77.0752
383 1 2.90104 4.22348 73.2043
384 1 15.9828 2.72286 74.1018
385 2 3.22515 2.37795 75.0639
386 1 12.4019 0.489141 71.9118
387 1 14.8505 6.42024 86.4219
388 1 4.02001 6.39883 85.5565
389 2 3.78904 3.69882 86.3928
390 2 17.572 4.41966 81.5973
391 1 15.5889 5.26919 80.1311
392 1 8.15862 5.33395 87.6531
393 1 5.79004 4.33248 84.9217
394 2 7.48423 4.51004 82.7841
395 1 4.80061 4.78637 82.0762
396 1 7.0838 3.52175 80.5286
397 1 18.4094 6.35146 79.8942
398 1 7.28574 6.21981 81.0222
399 2 4.54881 4.83625 75.0697
400 1 17.1735 4.63696 75.7418
401 1 4.31731 3.27134 77.1591
402 1 5.10045 5.77049 72.5698
403 1 8.36103 5.50505 85.0196
404 2 6.47534 6.58492 86.1717
405 2 17.5675 4.35801 78.3576
406 2 16.0392 5.27956 73.2814
407 1 9.56353 5.01616 81.145
408 1 6.5596 4.75306 76.8379
409 1 7.19886 4.38101 74.3333
410 2 9.48178 4.25115 73.4141
411 1 7.65848 5.76855 72.0118
412 2 8.31524 5.46933 78.8336
413 1 9.22464 4.90687 76.1101
414 1 5.15348 2.94665 73.2777
415 2 1.81936 0.415303 70.4804
416 1 5.9381 6.48933 67.9106
417 1 10.2122 5.65308 71.2989
418 1 8.69442 6.55477 66.853
419 1 4.06107 0.203969 69.4905
420 2 6.82015 5.72568 65.197
421 1 2.01237 0.0427552 62.673
422 1 8.37395 0.550265 70.7403
423 1 9.32418 -0.182793 68.2173
424 1 8.27267 5.31382 63.0058
425 1 7.13639 1.24783 66.9502
426 2 6.62939 -0.129755 68.9154
427 1 6.50018 0.0506388 61.9266
428 1 4.47223 1.31778 63.6465
429 1 6.85483 6.07381 59.0071
430 1 5.55806 0.645081 58.8909
431 2 3.93174 0.448074 61.1389
432 1 6.6377 5.50732 56.3789
433 1 14.5654 5.47529 63.7775
434 1 9.57315 -0.0947722 57.4135
435 1 11.3408 5.35585 58.1518
436 1 14.0016 4.0947 72.0804
437 1 6.07591 1.80601 70.6952
438 1 10.7722 1.8689 69.7252
439 1 8.59189 3.28319 71.3196
440 2 14.565 5.97397 70.6444
441 2 8.08197 2.32153 68.9439
442 1 9.78615 2.3494 66.9458
443 2 9.02468 0.192656 65.6694
444 1 7.45504 1.61936 64.2794
445 1 15.2774 1.51161 71.8393
446 1 12.5312 -0.114844 69.1669
447 1 16.7878 4.76525 67.2596
448 2 14.1385 0.172868 66.9867
449 1 12.8924 2.52215 67.6968
450 1 11.4955 0.361164 66.1734
451 1 17.5142 5.93241 64.5505
452 1 10.2291 1.67473 63.9725
453 1 13.8901 1.88229 65.1715
454 2 11.6939 3.11562 65.4244
455 1 10.5877 2.021 61.2106
456 2 11.205 0.591721 59.1919
457 1 12.5751 2.76271 59.2863
458 1 8.60457 0.450985 59.8963
459 1 14.9594 5.75814 61.1739
460 1 12.763 2.85016 62.9999
461 1 9.64461 2.58325 58.2757
462 1 11.742 1.34333 56.7188
463 1 15.1542 1.1609 69.0821
464 2 13.3664 2.18785 70.398
465 1 14.8091 3.86267 69.1157
466 2 15.4678 2.50668 67.0289
467 1 2.16036 2.50677 68.8423
468 1 13.9989 4.56155 66.2343
469 1 16.1514 3.34998 64.7613
470 2 9.06883 0.264349 62.4464
471 2 7.32837 1.23071 57.415
472 1 13.4554 3.80525 56.9894
473 1 4.98552 2.69909 68.1417
474 1 0.831219 0.551409 65.2193
475 1 13.2354 0.707636 61.1503
476 1 13.9099 0.408501 58.4813
477 2 1.00937 0.178569 57.6748
478 1 14.4503 1.36755 56.1332
479 2 5.52972 2.62118 65.6164
480 1 2.92227 2.01013 66.2687
481 1 3.36618 3.59089 64.1039
482 2 15.2599 1.58782 62.9382
483 1 0.710149 0.780218 60.3763
484 2 16.6738 4.56369 62.5454
485 1 14.894 3.15842 60.9483
486 1 15.7278 2.76479 58.35
487 1 2.50865 2.5648 61.7394
488 1 3.0698 2.1774 59.1395
489 1 15.848 5.33065 57.4346
490 1 16.8565 4.31198 70.9586
491 1 11.7743 5.39475 64.0813
492 2 3.96895 3.20612 70.8298
493 1 3.60167 5.19497 69.0725
494 1 7.25915 3.95481 67.0679
495 1 6.40648 4.39204 69.8441
496 1 4.25191 4.73242 66.4238
497 1 3.99848 5.17775 61.9326
498 1 4.58082 4.70326 59.2795
499 1 17.2392 4.70739 59.9819
500 2 2.69579 3.98811 57.1531
501 1 8.08414 2.70942 61.7506
502 1 5.94009 3.87022 63.3006
503 1 5.3175 2.49941 61.0301
504 1 7.13873 3.36011 58.8475
505 2 6.54845 4.70943 61.0532
506 1 12.3369 4.49894 69.7958
507 1 9.18485 4.24354 65.1357
508 1 9.39309 4.32379 68.9939
509 1 11.183 5.22085 66.8247
510 2 10.3374 3.99481 62.7533
511 1 9.27079 4.86905 60.2308
512 1 5.11844 2.80883 57.1153
513 2 8.8358 4.97457 57.6986
514 1 12.1881 4.61828 61.287
515 2 13.908 4.84783 59.2341
516 1 8.04507 2.9324 55.9325
517 1 5.37152 -0.0653707 56.2198
518 1 3.96953 5.65679 55.3035
519 2 3.52617 4.80186 53.054
520 1 5.07052 4.92267 50.8476
521 1 8.25311 0.443622 51.3665
522 1 8.2413 4.84456 51.9745
523 2 7.16673 5.50387 49.5723
524 1 5.91384 4.25738 45.1516
525 1 7.93262 4.93023 42.631
526 1 7.87849 4.84878 47.1119
527 1 5.1905 4.99157 42.3433
528 1 10.2701 6.49866 53.1937
529 2 10.8701 4.9695 51.1099
530 1 12.8008 4.86682 53.0218
531 1 5.3845 0.326292 50.3719
532 1 11.4443 5.96881 48.7267
533 1 4.93719 0.00502846 40.5001
534 1 15.4964 5.15446 52.3245
535 2 15.9993 4.63363 49.6377
536 1 13.5002 4.63394 50.4677
537 1 14.0995 5.89571 48.117
538 2 8.2267 0.616508 46.6315
539 1 10.1024 5.32725 45.1144
540 1 10.9114 5.04495 42.5064
541 1 13.1552 4.77025 45.7192
542 1 13.7734 4.33627 43.1611
543 1 8.15572 0.119393 55.0836
544 1 3.66567 0.869966 48.1172
545 2 14.6509 5.68392 55.0633
546 2 12.5558 2.68174 54.5734
547 1 10.3811 0.937566 53.1108
548 1 13.9952 -0.123077 50.9514
549 1 13.3721 0.309776 53.604
550 1 12.8489 2.24231 51.7518
551 1 11.0168 0.385492 50.2898
552 1 10.6933 0.590012 45.7724
553 1 11.3891 0.0746229 43.1473
554 1 8.62249 0.175294 44.0024
555 2 13.6268 6.53865 41.2652
556 1 1.58102 1.42917 55.5711
557 1 15.5922 2.46192 51.2305
558 1 14.9497 2.7086 53.8066
559 2 13.8506 1.8533 49.0811
560 1 12.5943 2.18724 46.7423
561 1 3.77389 3.041 54.9299
562 1 4.93543 2.35833 52.3962
563 1 3.43771 4.8043 45.8833
564 1 16.7164 6.02549 47.5261
565 1 14.9766 0.775084 46.837
566 1 15.9535 4.79409 44.9787
567 1 17.833 5.1715 43.094
568 2 13.2745 0.252125 45.1553
569 1 3.56202 0.364132 53.9994
570 1 2.54166 3.77609 51.0497
571 2 2.23226 2.45465 53.1588
572 1 0.991555 0.538482 49.1072
573 1 0.82187 0.194348 52.8391
574 1 2.95672 0.926592 51.0973
575 2 5.70068 6.21331 46.7525
576 1 0.416412 0.283732 44.2042
577 1 1.93475 2.07384 45.8873
578 1 15.0492 3.53713 47.2844
579 1 15.5831 4.96986 41.1515
580 1 13.6711 1.6165 43.0212
581 2 15.6119 0.449969 41.4741
582 1 16.3331 2.84794 43.0547
583 2 14.6787 2.59043 44.9706
584 1 14.361 2.724 40.7834
585 1 6.4436 1.75409 47.919
586 1 3.75011 0.0744577 45.2031
587 1 4.57441 2.54323 41.3542
588 1 2.60472 0.824907 42.358
589 2 5.20782 0.540507 43.1202
590 1 13.0148 0.51375 40.7373
591 1 16.7602 4.38865 54.7426
592 1 6.11221 4.36728 53.8507
593 2 5.97363 1.88303 54.7951
594 2 4.41588 2.66567 49.7251
595 1 2.40514 3.44234 48.2393
596 1 10.7612 3.90078 55.8226
597 1 7.95178 2.36831 53.3086
598 2 9.72977 2.62316 51.1054
599 1 6.99195 3.01991 50.3218
600 1 9.08368 1.65122 48.8482
601 1 5.2646 4.36992 48.1725
602 1 9.25741 4.2974 49.3505
603 2 6.52816 2.85884 43.1879
604 1 3.8036 2.84912 43.9083
605 1 6.34944 1.43953 45.1862
606 1 7.0061 3.36799 40.5684
607 1 10.595 3.58758 53.2027
608 2 8.69033 4.82914 54.4979
609 2 4.3266 2.53191 46.5144
610 2 17.8184 3.83827 40.7844
611 1 11.5473 3.07308 49.2795
612 1 8.6523 2.90764 45.0561
613 1 9.31805 2.38834 42.5808
614 2 11.7626 2.88711 41.4165
615 1 9.67453 4.017 40.5763
616 2 10.2625 3.41207 47.0194
617 1 11.3715 2.97129 44.3476
618 1 7.35836 0.807511 41.4408
