ITEM: TIMESTEP
0
ITEM: NUMBER OF ATOMS
618
ITEM: BOX BOUNDS xy xz yz pp pp ff
0.0000000000000000e+00 1.9317770367296919e+01 4.0025167278329121e+00
0.0000000000000000e+00 6.6702723500479264e+00 0.0000000000000000e+00
0.0000000000000000e+00 1.0921147561319708e+02 0.0000000000000000e+00
ITEM: ATOMS id type x y z
1 1 4.26302 6.18978 5.62237
2 1 6.04352 6.40171 8.20827
3 1 4.22491 6.23947 12.9342
4 1 5.10112 0.449056 5.81243
5 1 3.65069 0.14982 10.4469
6 1 5.72495 6.55774 15.1497
7 1 4.07168 6.16244 19.9061
8 1 11.878 6.20153 5.63629
9 1 6.81842 0.756252 8.22699
10 1 5.05185 0.603386 12.8727
11 1 3.31991 0.170289 17.6757
12 1 5.73811 6.38585 22.0052
13 1 4.15787 5.8069 26.7918
14 1 10.1109 1.50335 5.60769
15 1 13.571 6.55179 8.0531
16 1 8.53845 1.11206 10.7825
17 1 11.7917 6.12176 12.9127
18 1 6.64883 0.787626 15.1963
19 1 5.20889 0.14397 19.9278
20 1 7.32765 6.59583 24.5151
21 1 5.93785 6.35856 29.1445
22 1 4.14429 5.79927 33.9802
23 1 12.9126 0.348484 5.84951
24 1 12.3798 3.2577 5.90248
25 1 11.6929 1.57048 8.34636
26 1 15.0626 6.6621 10.5011
27 1 10.7309 3.092 10.6045
28 1 10.0455 1.40557 13.0053
29 1 13.4669 6.64156 15.194
30 1 8.26953 1.04166 17.5617
31 1 11.8185 6.14863 19.8948
32 1 6.78582 0.696137 22.3763
33 1 5.16763 0.302923 26.9256
34 1 7.48118 6.65798 31.7139
35 1 5.86627 6.2279 36.3273
36 1 14.889 2.12513 5.98376
37 1 14.4369 0.690745 8.32465
38 1 13.9363 3.60809 8.21257
39 1 13.3597 1.94976 10.6778
40 1 12.6864 0.42964 12.9662
41 1 12.3827 3.34875 12.937
42 1 11.6979 1.85014 15.1548
43 1 11.1872 0.147179 17.5493
44 1 10.6736 2.93475 17.5403
45 1 10.0151 1.35117 19.9429
46 1 13.4438 6.19468 22.3434
47 1 8.37836 1.00814 24.7174
48 1 11.9055 5.84647 27.0471
49 1 6.81983 0.44192 29.404
50 1 5.27544 0.227942 33.9526
51 1 7.40775 6.33706 38.5097
52 1 2.5044 1.46604 5.74865
53 1 17.4184 4.29271 5.95417
54 1 16.7831 2.62866 8.40678
55 1 0.98296 1.13455 10.6743
56 1 15.7195 3.9563 10.6232
57 1 15.0231 2.4532 12.8904
58 1 14.4276 0.84463 15.3191
59 1 13.96 3.73929 15.3947
60 1 13.3818 2.21503 17.6425
61 1 12.7844 0.519544 19.8304
62 1 12.2742 3.36045 20.0038
63 1 11.6465 1.59924 22.4172
64 1 15.2525 6.63242 24.6599
65 1 10.6978 2.94149 24.64
66 1 10.158 1.25121 26.8993
67 1 13.6754 6.27179 29.2161
68 1 8.50508 0.944455 31.7567
69 1 11.9482 5.88019 33.8245
70 1 6.84208 0.565962 36.1851
71 1 4.77915 3.42855 5.62374
72 1 4.13096 1.89158 8.03755
73 1 3.77284 4.64475 8.25879
74 1 3.21463 3.13871 10.6845
75 1 2.39487 1.49767 12.999
76 1 17.3861 4.36856 12.964
77 1 16.5333 2.69637 15.4022
78 1 0.788467 1.11957 17.6555
79 1 15.5706 4.05461 17.6269
80 1 14.9574 2.28261 19.9652
81 1 14.3456 0.666927 22.3022
82 1 14.0126 3.59569 22.105
83 1 13.4008 1.91324 24.6741
84 1 12.8935 0.157294 26.922
85 1 12.4859 3.19033 27.0142
86 1 11.7469 1.59172 29.2527
87 1 15.2692 6.64299 31.5579
88 1 11.0067 2.86563 31.566
89 1 10.2076 1.40354 33.8063
90 1 13.907 6.24297 36.1783
91 1 8.74904 1.05342 38.7413
92 1 7.32404 2.37527 5.57451
93 1 6.90014 5.27778 5.81878
94 1 6.46599 3.59648 8.17309
95 1 5.66921 2.08414 10.5596
96 1 5.36744 5.00756 10.6452
97 1 4.74675 3.53653 12.9536
98 1 4.06361 1.7719 15.2478
99 1 3.51495 4.81146 15.1777
100 1 2.91805 3.11138 17.5503
101 1 2.30806 1.29695 19.8931
102 1 17.122 4.24305 20.0052
103 1 16.5453 2.636 22.2057
104 1 0.711509 0.983054 24.3698
105 1 15.4721 3.66207 24.6712
106 1 15.1923 1.95239 26.8447
107 1 14.4151 0.388329 29.1893
108 1 14.1392 3.54685 29.2699
109 1 13.6197 1.8704 31.4637
110 1 12.8206 0.164456 33.8997
111 1 12.463 3.08698 33.9719
112 1 11.7617 1.45115 36.1865
113 1 15.1922 6.51763 38.8866
114 1 11.3552 2.64928 38.8298
115 1 9.7003 4.3478 5.82942
116 1 9.19955 2.66622 8.40184
117 1 8.76069 5.43094 8.22499
118 1 7.94682 3.99554 10.5475
119 1 7.2549 2.34624 12.814
120 1 6.98999 5.37004 13.0625
121 1 6.08545 3.64714 15.3342
122 1 5.63084 1.98426 17.6864
123 1 5.0291 4.9082 17.5986
124 1 4.45152 3.24362 19.9369
125 1 4.00496 1.50532 22.0651
126 1 3.53786 4.49463 22.2376
127 1 2.99971 2.73214 24.5198
128 1 2.54742 1.22134 26.9983
129 1 17.3996 4.04526 26.913
130 1 16.5662 2.38522 29.1727
131 1 0.798604 0.866314 31.5369
132 1 15.9541 3.75489 31.5084
133 1 15.2437 2.14589 33.8057
134 1 14.5579 0.329258 36.2066
135 1 14.3567 3.25728 36.0442
136 1 13.8021 1.69143 38.3591
137 1 11.3468 4.60983 8.29705
138 1 10.302 5.76594 10.6462
139 1 9.62031 4.33321 12.8554
140 1 8.80212 2.69666 15.2526
141 1 8.41021 5.59238 15.4747
142 1 7.85812 3.82408 17.5674
143 1 7.24631 2.31582 19.9694
144 1 6.82338 5.02161 19.8064
145 1 6.23659 3.34827 22.2648
146 1 5.69965 1.92115 24.5751
147 1 5.16261 4.70521 24.4349
148 1 4.81617 3.10688 26.8784
149 1 4.00981 1.5382 29.2837
150 1 3.7746 4.32874 29.0493
151 1 3.07622 2.76342 31.4645
152 1 2.48925 1.17147 33.9742
153 1 17.4176 3.99429 33.9867
154 1 1.59046 2.25921 36.6654
155 1 0.823329 0.657431 38.9531
156 1 16.2196 3.67318 38.9067
157 1 14.8295 5.18125 5.9123
158 1 12.9435 4.7984 10.6587
159 1 11.263 4.76399 15.2211
160 1 10.0533 5.82923 17.6448
161 1 9.44553 4.12755 19.8931
162 1 9.14341 2.57347 22.3109
163 1 8.5407 5.32696 22.1351
164 1 7.8767 3.84822 24.6565
165 1 7.28573 2.23728 26.9835
166 1 6.9349 5.04906 26.778
167 1 6.31724 3.47828 29.3831
168 1 5.54921 1.90979 31.5726
169 1 5.27876 4.74212 31.6048
170 1 4.68559 3.01318 33.9042
171 1 4.10021 1.36758 36.3291
172 1 3.54467 4.26571 36.3095
173 1 3.3605 2.52822 38.9382
174 1 16.3224 5.41143 8.39214
175 1 14.7432 5.1606 12.9562
176 1 12.9347 5.12066 17.4684
177 1 11.2253 4.51482 22.1942
178 1 10.0832 5.85204 24.5957
179 1 9.6735 4.03635 26.9366
180 1 9.04598 2.58671 29.3538
181 1 8.4522 5.40936 29.2963
182 1 7.79162 3.7212 31.5769
183 1 7.36527 2.07789 33.8654
184 1 6.81718 4.84327 34.0445
185 1 6.28172 3.2023 36.2945
186 1 5.91765 1.61376 38.8006
187 1 5.33429 4.38883 38.5581
188 1 17.9924 5.9809 10.6185
189 1 16.211 5.64078 15.345
190 1 14.5244 5.21885 19.878
191 1 12.9255 4.75158 24.647
192 1 11.3282 4.39429 29.2154
193 1 10.0779 5.70552 31.5712
194 1 9.60568 4.10064 33.8435
195 1 9.13442 2.33929 36.0393
196 1 8.53369 5.20576 36.1044
197 1 8.32463 3.60628 38.2477
198 1 17.8377 6.02332 17.5951
199 1 16.1698 5.34378 22.3489
200 1 14.654 4.89904 26.7618
201 1 13.0326 4.80687 31.5057
202 1 11.686 4.41963 36.2521
203 1 10.5465 5.77879 38.3846
204 1 17.8438 5.70783 24.4928
205 1 16.3072 5.31359 29.1291
206 1 14.5769 4.9809 33.9005
207 1 13.3093 4.824 38.6953
208 1 17.8724 5.6362 31.4131
209 1 16.3956 5.07798 36.3798
210 1 18.0686 5.50339 39.0127
211 2 14.4243 1.23626 102.227
212 1 14.9913 0.905706 99.5477
213 1 3.4164 0.146662 103.204
214 1 2.35884 0.807874 99.0516
215 1 1.47883 1.41193 101.664
216 2 0.519642 0.28408 97.0308
217 1 14.9304 1.27824 94.709
218 1 5.86476 1.59962 102.908
219 1 6.7141 0.875476 100.288
220 1 5.78407 6.60145 94.7568
221 1 4.72156 2.44141 98.9103
222 2 4.25224 1.00761 101.008
223 1 4.15397 1.39314 93.8306
224 1 2.20705 2.51195 95.4964
225 1 0.633778 0.81047 90.781
226 1 3.25118 1.89029 90.9578
227 2 1.67625 1.6866 93.0495
228 1 0.707836 0.816373 88.2708
229 1 8.19671 0.0275499 95.7326
230 1 7.3723 1.27651 89.1016
231 1 9.03885 6.62064 90.1154
232 1 11.9415 4.60695 103.713
233 1 3.55541 2.95866 102.686
234 1 8.16901 2.87626 101.982
235 1 6.00717 4.47547 103.404
236 2 7.97514 0.304746 102.496
237 2 5.70083 3.25867 101.008
238 1 7.2055 3.6125 98.8638
239 2 6.62539 1.31159 97.5419
240 1 4.87875 2.93826 96.2474
241 1 12.3394 1.79095 103.353
242 1 10.1752 1.17122 101.088
243 1 14.2286 6.01199 99.1487
244 2 11.5426 1.43379 98.891
245 1 10.0838 3.76832 99.9539
246 1 9.02622 1.73944 97.9917
247 1 11.0276 0.562548 96.3545
248 1 7.80146 3.00132 95.8267
249 1 11.3661 3.1679 97.1907
250 2 9.22715 4.39129 97.2259
251 1 8.32501 3.41684 92.9698
252 2 8.98396 2.01219 90.9893
253 1 10.3111 4.05 91.1791
254 1 6.28582 2.0833 91.6869
255 1 8.56491 0.486272 93.1286
256 1 10.4059 4.06604 94.8939
257 1 7.44311 4.09742 90.1828
258 1 9.56978 2.86709 88.6227
259 1 12.8504 2.36195 100.855
260 2 10.6973 3.14464 102.377
261 1 12.4884 5.08339 100.982
262 2 13.1129 3.71439 98.8491
263 1 15.0385 3.85182 100.681
264 1 11.4514 5.60398 98.2675
265 1 13.723 4.65493 96.6548
266 2 6.63666 1.60987 94.3691
267 2 5.23204 2.65858 89.3051
268 1 11.0151 5.31464 88.571
269 1 2.49091 3.75852 100.038
270 1 13.6086 1.82192 97.1938
271 1 10.85 1.94495 93.0019
272 1 11.623 1.53218 90.3606
273 2 14.0895 1.61509 89.4827
274 1 12.1735 2.96525 87.958
275 2 3.065 3.78477 97.5301
276 1 15.8951 3.03929 98.148
277 1 16.353 4.85435 95.9612
278 2 12.6355 2.72212 94.891
279 1 13.8042 1.95884 92.22
280 2 14.2091 5.80606 94.4041
281 1 12.4867 4.49426 92.9397
282 1 13.1386 4.00068 90.3193
283 1 15.3745 3.83477 93.5489
284 1 16.2103 3.44123 91.0856
285 1 13.6088 6.6115 89.2713
286 1 14.6156 5.72537 102.887
287 1 5.20131 0.0344996 95.981
288 2 16.9129 4.62296 102.679
289 1 16.5661 6.35278 100.785
290 1 4.74934 4.97993 99.2351
291 1 4.0819 5.57598 101.734
292 1 17.0518 5.91476 98.2408
293 1 16.7664 6.49265 93.8072
294 1 17.5454 6.04166 91.1647
295 1 14.8231 5.88234 91.7605
296 2 15.7891 5.34244 89.0262
297 1 5.72258 3.98499 93.9073
298 1 3.53687 5.15873 95.2644
299 1 2.85883 3.87074 92.9319
300 1 4.87545 4.48979 90.9492
301 2 4.1435 6.18806 92.9301
302 1 9.75279 5.5721 102.072
303 1 6.72152 5.42094 96.8494
304 1 6.9027 5.49405 100.966
305 1 8.7737 6.30674 98.7221
306 2 8.00772 5.37264 94.5282
307 1 6.83208 6.00919 92.2057
308 1 2.83394 4.02152 89.1479
309 2 6.58787 6.32293 89.7112
310 1 9.94995 6.25237 93.0667
311 2 11.5509 6.28789 91.0595
312 1 5.47388 4.69855 88.1155
313 1 3.50056 1.31404 88.0259
314 1 13.1733 0.605264 87.1924
315 2 16.7116 6.39963 84.9027
316 1 18.3822 6.59064 82.8281
317 1 6.02671 2.10287 83.2469
318 1 6.13815 6.66378 83.8121
319 2 1.08973 0.570507 81.4124
320 1 3.90396 6.03719 77.0098
321 1 1.78506 0.0420391 75.1327
322 1 5.79678 6.45634 78.8459
323 1 18.2686 6.6229 74.282
324 1 4.08628 1.35279 85.1632
325 2 8.72231 6.6161 83.0713
326 1 10.6162 6.63427 84.8037
327 1 3.32749 2.05427 82.2017
328 1 5.40745 0.882263 80.7157
329 1 2.6112 1.22955 72.6923
330 1 9.34756 0.0671797 84.1958
331 2 13.8802 6.33394 81.6077
332 1 11.3517 6.3069 82.291
333 1 7.99136 0.834325 79.9747
334 2 5.99038 2.25708 78.4646
335 1 4.06704 0.336501 77.0333
336 1 8.60904 6.604 74.3415
337 1 10.8674 6.43978 77.7577
338 1 11.5444 5.93424 75.2137
339 1 6.10285 1.99956 86.8342
340 1 1.66626 2.49312 80.0089
341 2 8.46093 0.636232 86.9432
342 2 10.1444 4.23551 86.3243
343 1 8.27465 2.44838 84.8511
344 1 11.873 1.61968 83.0322
345 1 11.1291 1.9115 85.5656
346 1 10.7874 3.97756 83.7856
347 1 9.04952 2.1253 82.2602
348 1 8.40241 2.35607 77.6242
349 1 8.99881 1.73134 74.9268
350 1 6.34228 1.75303 75.7076
351 2 7.19299 1.13234 73.0808
352 1 14.6855 3.09324 87.283
353 1 13.4993 4.18461 83.1772
354 1 12.7825 4.44742 85.657
355 2 11.6829 3.45585 81.0843
356 1 10.4785 3.85836 78.7695
357 1 16.9886 4.65377 86.8744
358 1 2.75628 4.19007 84.3172
359 1 16.5098 6.54241 77.7991
360 1 10.4835 1.06414 79.2829
361 1 12.8232 2.54438 78.9613
362 1 13.7655 6.41648 76.8756
363 1 11.5991 0.421121 74.9409
364 2 10.8882 1.94055 76.9654
365 1 1.64366 2.03251 85.9243
366 1 15.7043 5.41337 82.953
367 2 15.523 4.0219 85.1298
368 1 14.2798 2.24947 81.2054
369 1 14.1585 1.84656 84.8436
370 1 16.1645 2.56445 83.0079
371 2 14.9605 1.39222 78.6887
372 1 13.6111 2.0698 76.2854
373 1 15.0413 3.83059 77.7447
374 1 13.0067 5.13933 79.2674
375 1 13.5332 6.3654 73.1066
376 1 11.2999 3.24718 74.9492
377 2 13.3781 2.21822 73.6692
378 1 14.039 4.41402 74.8859
379 2 12.5052 4.27779 77.0606
380 1 11.5405 3.64763 72.321
381 1 4.35239 3.39378 79.8163
382 1 1.61807 1.9961 77.1264
383 1 2.67019 3.92626 73.2285
384 1 15.7809 2.60289 74.1787
385 2 3.19596 2.14622 75.0164
386 1 12.1419 0.67718 72.1697
387 1 14.6358 5.94861 86.7303
388 1 3.93755 6.09029 85.8598
389 2 3.73653 3.53083 86.7044
390 2 17.7229 4.30995 81.6432
391 1 15.6683 5.28982 80.1325
392 1 8.36392 5.19168 87.7498
393 1 5.71923 4.01279 85.0815
394 2 7.31663 4.25384 82.9694
395 1 4.89292 4.63717 82.1377
396 1 7.07717 3.32102 80.7494
397 1 18.4018 6.03206 79.9951
398 1 7.19307 6.1049 81.135
399 2 4.58439 4.54234 74.8862
400 1 17.2093 4.43843 75.7655
401 1 4.11241 3.20557 77.0248
402 1 5.21535 5.30432 72.6732
403 1 8.41678 5.01868 85.0531
404 2 6.46915 6.23204 86.427
405 2 17.5359 4.35163 78.3704
406 2 15.9657 5.18761 73.3425
407 1 9.44916 4.63789 81.3507
408 1 6.40743 4.44365 76.9055
409 1 7.15941 4.09734 74.2439
410 2 9.67257 4.5421 73.5049
411 1 7.76069 5.66493 71.9994
412 2 8.24121 5.06615 78.9759
413 1 9.25673 4.56614 76.2291
414 1 5.0671 2.48821 73.2041
415 2 1.69518 0.0306931 70.4848
416 1 6.18157 6.61199 67.6724
417 1 10.2185 6.00503 71.2727
418 1 4.9766 0.184441 67.0299
419 1 4.14486 0.360823 69.5496
420 2 7.31546 6.33254 65.0319
421 1 2.14881 0.1766 62.8065
422 1 8.5516 0.767783 70.9206
423 1 9.56758 0.0948368 68.2391
424 1 8.54896 5.53647 62.8147
425 1 7.33199 1.50358 66.8444
426 2 6.83629 0.202205 69.0343
427 1 6.73436 0.258552 61.8782
428 1 4.84316 1.4354 63.2999
429 1 7.14617 6.25898 58.876
430 1 5.74908 0.835956 59.1001
431 2 4.07381 0.571299 61.062
432 1 6.96847 6.1792 56.2888
433 1 15.1116 5.92716 63.8298
434 1 9.818 0.191091 57.241
435 1 11.5821 5.55898 58.3273
436 1 14.5851 3.77892 71.908
437 1 6.30942 2.09235 70.675
438 1 10.9889 1.98671 69.9194
439 1 8.95153 3.38092 71.1357
440 2 14.5792 6.03593 70.6393
441 2 8.36169 2.4089 68.8722
442 1 10.0315 2.60382 66.9076
443 2 9.34593 0.482297 65.5933
444 1 7.62543 1.79271 64.1834
445 1 15.1912 0.960806 71.8754
446 1 12.6487 0.211296 69.0065
447 1 16.9824 4.83397 67.3349
448 2 14.3107 0.250035 66.9996
449 1 12.9536 2.70892 67.8046
450 1 11.8272 0.648856 66.2097
451 1 17.8489 5.92514 64.7079
452 1 10.5175 2.10643 63.9557
453 1 14.0326 2.01711 65.1953
454 2 12.0015 3.41243 65.3492
455 1 10.8789 2.17208 61.1347
456 2 11.5167 0.735769 59.0411
457 1 12.8338 2.92996 59.2164
458 1 8.80381 0.743006 59.8833
459 1 15.0962 6.00431 61.2169
460 1 13.0829 2.88833 62.8979
461 1 9.97422 2.89 58.3022
462 1 12.1966 1.67546 56.7296
463 1 15.2956 1.22143 69.1276
464 2 13.3349 2.20258 70.4412
465 1 15.0335 3.97126 69.2502
466 2 15.6233 2.6476 67.0742
467 1 2.33694 2.71784 69.0384
468 1 14.3049 4.9103 66.183
469 1 16.3432 3.66223 64.9345
470 2 9.23719 0.514907 62.4422
471 2 7.70872 1.35653 57.5776
472 1 13.7168 4.10208 56.8377
473 1 5.10084 2.69792 68.3447
474 1 1.00096 0.827672 65.354
475 1 13.4371 0.840623 60.8773
476 1 14.2348 0.481279 58.4238
477 2 1.25039 0.496257 57.573
478 1 14.6917 1.81882 55.9628
479 2 5.46148 2.37482 65.517
480 1 3.07744 2.26827 66.2826
481 1 3.55096 3.6941 64.0336
482 2 15.3169 1.34291 62.9764
483 1 0.876452 0.849741 60.2724
484 2 16.8558 4.79827 62.5575
485 1 15.1211 3.29447 61.0422
486 1 15.7878 2.94488 58.3172
487 1 2.58685 2.73736 61.7079
488 1 3.33849 2.37907 59.0813
489 1 16.2462 5.61634 57.3976
490 1 17.2298 4.92257 70.9566
491 1 12.0488 5.57544 64.1086
492 2 4.05133 3.52908 70.8635
493 1 3.84516 5.10315 68.9142
494 1 7.50724 4.14091 66.9184
495 1 6.81458 4.52031 69.4956
496 1 4.54941 4.88565 66.2336
497 1 4.1928 5.26849 61.7616
498 1 4.86614 4.86082 59.1409
499 1 17.4635 4.80144 59.7066
500 2 3.18536 4.24659 57.0221
501 1 8.39745 2.7999 61.914
502 1 6.16172 4.23223 63.5115
503 1 5.44671 2.7779 60.9922
504 1 7.37449 3.39002 59.0105
505 2 6.74986 4.89726 61.0827
506 1 12.3506 4.75224 70.0161
507 1 9.58807 4.59624 65.1002
508 1 9.64107 4.63446 68.817
509 1 11.6372 5.37006 66.8564
510 2 10.6094 4.28754 62.6206
511 1 9.42845 5.05655 60.3099
512 1 5.46177 2.8458 57.1855
513 2 9.07617 5.04362 57.5861
514 1 12.4796 4.93884 61.1109
515 2 14.1826 5.11791 59.0283
516 1 8.09289 3.33952 56.0568
517 1 5.88609 0.108291 56.0713
518 1 4.43876 6.10242 55.2869
519 2 3.8713 5.18836 52.9192
520 1 5.26108 5.34652 50.8147
521 1 8.50053 0.887431 51.0242
522 1 8.70482 5.34726 51.8469
523 2 7.21471 5.99911 49.3819
524 1 5.94289 4.64496 45.0763
525 1 7.93385 5.33169 42.9694
526 1 7.96005 5.18823 47.0277
527 1 5.09308 5.47778 42.135
528 1 6.53886 0.277305 52.9755
529 2 11.1525 5.29331 51.1095
530 1 13.0822 5.32651 53.0295
531 1 5.68404 0.758125 50.0595
532 1 11.5425 6.15138 48.6248
533 1 8.90751 6.48087 40.6553
534 1 15.77 5.44607 52.3975
535 2 15.9514 4.87819 49.5698
536 1 13.5859 4.87687 50.4418
537 1 14.0384 6.20646 48.0185
538 2 8.26767 1.11149 46.4524
539 1 10.193 5.73496 45.0824
540 1 10.9809 5.40004 42.5502
541 1 13.0537 5.21333 45.7726
542 1 13.8209 4.76631 43.1604
543 1 8.46224 0.628632 54.8896
544 1 3.84372 1.0816 48.004
545 2 14.9401 5.99699 54.969
546 2 12.6442 3.01054 54.5753
547 1 10.6102 1.11807 53.0827
548 1 14.2971 0.213003 50.9526
549 1 13.617 0.595108 53.5414
550 1 13.0893 2.59555 51.9023
551 1 11.3914 0.767377 50.3439
552 1 10.6758 0.983991 45.7614
553 1 11.3454 0.436523 43.1508
554 1 8.76576 0.464327 43.7981
555 2 13.3277 6.58798 41.0614
556 1 1.94442 1.83846 55.3334
557 1 15.7637 2.69999 51.1394
558 1 15.2484 3.19286 53.7358
559 2 14.0593 2.33138 49.142
560 1 12.7572 2.69465 46.7311
561 1 4.19688 3.39786 54.8404
562 1 5.14666 2.84469 52.2267
563 1 3.43462 5.32231 45.8755
564 1 16.6955 6.39004 47.6728
565 1 14.9701 1.1753 46.8323
566 1 16.002 5.15988 45.1545
567 1 17.6774 5.70426 43.0765
568 2 13.2308 0.678402 45.1274
569 1 4.00369 0.666159 53.9333
570 1 2.69348 4.22012 50.9111
571 2 2.45879 2.82783 52.8923
572 1 1.11884 1.007 48.9802
573 1 1.14111 0.697857 52.9033
574 1 2.9787 1.2223 50.9751
575 2 5.82422 6.5865 46.6151
576 1 0.563031 0.720373 44.0513
577 1 1.99148 2.48354 45.7878
578 1 15.3137 3.80335 47.3528
579 1 15.6745 5.13186 41.1648
580 1 13.5729 2.10439 43.108
581 2 15.5208 0.904121 41.5185
582 1 16.2769 3.28105 43.1337
583 2 14.8222 2.97041 45.0364
584 1 14.2933 3.02492 40.7211
585 1 6.54468 2.29968 47.6785
586 1 3.69735 0.602625 45.0603
587 1 4.85195 2.8997 41.103
588 1 2.72534 1.07304 42.0749
589 2 5.28606 0.924343 43.001
590 1 13.0076 0.661143 40.7444
591 1 17.273 4.81783 54.6959
592 1 6.45396 4.78523 53.735
593 2 6.28352 2.12696 54.801
594 2 4.6364 2.96652 49.6525
595 1 2.55949 3.74647 48.1927
596 1 10.9766 4.29527 55.9154
597 1 8.23157 2.86036 53.1802
598 2 9.79732 3.01094 51.1308
599 1 7.12495 3.53508 50.235
600 1 9.26182 2.051 48.6742
601 1 5.13393 4.78366 48.0203
602 1 9.35281 4.71228 49.2023
603 2 6.56959 3.34412 43.0209
604 1 3.81926 3.24679 43.5458
605 1 6.31072 1.87028 45.0145
606 1 7.20327 4.1879 40.6251
607 1 10.9471 3.88582 53.2439
608 2 9.08409 5.03091 54.5605
609 2 4.3733 2.95033 46.4001
610 2 2.59727 3.74181 41.2136
611 1 11.6784 3.45015 49.2975
612 1 8.60512 3.48446 44.9963
613 1 9.38499 2.75123 42.4833
614 2 11.8636 3.02151 41.4116
615 1 9.86888 3.99917 40.3771
616 2 10.3621 3.79748 46.8984
617 1 11.3349 3.39165 44.2957
618 1 7.35942 1.2117 41.4506
ITEM: TIMESTEP
1000
ITEM: NUMBER OF ATOMS
618
ITEM: BOX BOUNDS xy xz yz pp pp ff
0.0000000000000000e+00 1.9317770367296919e+01 4.0025167278329121e+00
0.0000000000000000e+00 6.6702723500479264e+00 0.0000000000000000e+00
0.0000000000000000e+00 1.0921147561319708e+02 0.0000000000000000e+00
ITEM: ATOMS id type x y z
1 1 4.34819 5.79888 6.35879
2 1 5.77129 6.29178 9.03867
3 1 4.19898 5.98198 13.4162
4 1 5.28731 0.147746 6.22331
5 1 7.48367 6.6855 11.2859
6 1 5.92204 6.31903 15.8501
7 1 4.36116 6.07387 20.3611
8 1 11.9143 5.85291 6.25902
9 1 6.78025 0.727937 8.70397
10 1 5.28791 0.270445 13.6723
11 1 3.72173 -0.117485 18.155
12 1 5.93281 6.43397 22.7785
13 1 4.60402 6.23211 27.4706
14 1 10.2384 1.10779 6.35531
15 1 13.4809 6.24795 8.77991
16 1 8.58272 0.909829 10.9017
17 1 12.0632 5.9517 13.3918
18 1 6.92127 0.577831 15.8323
19 1 5.48254 0.362626 20.3962
20 1 3.64344 0.0824793 24.9227
21 1 6.07415 6.17092 29.8282
22 1 4.46527 6.00119 34.3077
23 1 12.7408 0.0418912 6.12754
24 1 12.2816 2.97387 6.25919
25 1 11.7865 1.48105 8.94803
26 1 11.357 -0.178455 11.1655
27 1 10.8926 2.76825 11.1698
28 1 10.2671 1.2927 13.3345
29 1 13.6426 6.31833 15.7128
30 1 8.55707 0.840963 18.0954
31 1 12.1351 5.9703 20.3843
32 1 7.13505 0.704414 22.698
33 1 5.27774 0.490513 27.3152
34 1 3.78033 0.0184903 31.9666
35 1 5.94854 6.38889 36.8284
36 1 14.9866 1.95968 6.31513
37 1 14.4645 0.394855 8.76736
38 1 14.0615 3.44987 8.74602
39 1 13.6272 1.84788 11.1592
40 1 12.8785 0.30389 13.3941
41 1 12.5887 3.25005 13.3767
42 1 11.8638 1.36042 15.7259
43 1 11.2842 -0.178121 18.1336
44 1 10.8475 2.67966 17.8822
45 1 10.2085 1.21147 20.2258
46 1 13.6983 6.41738 22.6393
47 1 8.58577 1.00971 25.1016
48 1 12.2252 6.18285 27.2826
49 1 7.02288 0.672054 29.4162
50 1 5.31991 0.296285 34.2714
51 1 7.55538 6.33377 39.0046
52 1 2.286 0.846005 6.49313
53 1 17.2417 3.77414 6.21355
54 1 16.8086 2.37139 8.79655
55 1 0.862826 0.926255 11.3117
56 1 15.7859 3.74201 11.0213
57 1 15.0787 2.12065 13.4889
58 1 14.47 0.620929 15.7438
59 1 14.0424 3.40688 15.7781
60 1 13.6154 1.78514 18.2553
61 1 12.9845 0.258125 20.5727
62 1 12.3025 3.03925 20.4397
63 1 11.8339 1.49944 22.785
64 1 11.3162 -0.0304189 24.9993
65 1 10.9292 2.77925 24.9084
66 1 10.4663 1.39202 27.3556
67 1 13.8033 6.33359 29.7384
68 1 8.68307 1.06201 31.8984
69 1 12.173 5.95041 34.1142
70 1 7.1531 0.494982 36.479
71 1 4.56869 2.80666 6.17404
72 1 4.13256 1.42485 8.672
73 1 3.66833 4.28167 8.66837
74 1 3.20924 2.69341 11.0943
75 1 2.66178 1.13736 13.5827
76 1 17.5854 4.03118 13.4927
77 1 16.6245 2.38678 15.8574
78 1 0.961165 0.836773 18.1968
79 1 15.7481 3.60484 18.1489
80 1 15.0657 2.15896 20.5758
81 1 14.5316 0.569147 22.8433
82 1 14.0942 3.43354 22.7952
83 1 13.5751 2.07678 25.0745
84 1 13.1783 0.32107 27.4345
85 1 12.6082 3.1556 27.4663
86 1 11.9388 1.54513 29.5822
87 1 15.4472 6.62159 31.9686
88 1 10.8962 2.89534 31.8541
89 1 10.3027 1.30003 34.1882
90 1 13.9085 6.26638 36.7474
91 1 8.66517 0.678954 39.115
92 1 7.34165 2.00934 6.22467
93 1 6.92756 5.01885 6.13272
94 1 6.37492 3.4309 8.94343
95 1 5.84971 1.72102 11.1545
96 1 5.34932 4.61189 11.2926
97 1 4.86586 2.98933 13.6276
98 1 4.11777 1.51417 15.942
99 1 3.72342 4.36953 15.7526
100 1 3.11568 2.82715 18.101
101 1 2.73517 1.31044 20.4073
102 1 17.3952 4.07447 20.5154
103 1 16.7925 2.58139 22.7635
104 1 0.861868 0.977493 25.1593
105 1 15.9874 3.79364 25.1637
106 1 15.2042 2.30541 27.3478
107 1 14.7821 0.630405 29.7517
108 1 14.3507 3.38772 29.5949
109 1 13.6055 1.92965 31.9974
110 1 13.1821 0.403361 34.1368
111 1 12.7667 3.12412 34.2545
112 1 12.0982 1.52789 36.5866
113 1 15.0142 6.18985 39.1574
114 1 11.1784 2.06984 39.2457
115 1 9.62406 3.93522 6.21133
116 1 9.11544 2.48467 8.72665
117 1 8.68532 5.40511 8.76657
118 1 8.08957 3.79877 11.0653
119 1 7.56424 2.11506 13.47
120 1 6.91621 4.97884 13.509
121 1 6.60384 3.49812 15.8585
122 1 5.73251 1.92496 18.2074
123 1 5.51266 4.70513 18.118
124 1 4.89977 3.08338 20.4142
125 1 4.35963 1.56109 22.6705
126 1 3.79399 4.24302 22.6138
127 1 3.27253 3.03694 25.2261
128 1 2.62626 1.41414 27.2632
129 1 17.2868 4.20663 27.5166
130 1 1.67218 2.51042 29.907
131 1 1.04218 0.978213 32.0416
132 1 15.8659 3.75541 32.0922
133 1 15.3966 2.10657 34.2689
134 1 14.6908 0.508551 36.6262
135 1 14.344 3.26464 36.4335
136 1 13.8563 1.75264 38.7145
137 1 11.391 4.41892 8.69528
138 1 10.272 5.61215 11.1578
139 1 9.66667 4.0538 13.3302
140 1 9.11957 2.3634 15.8456
141 1 8.71699 5.34796 15.7468
142 1 8.06177 3.67444 18.0213
143 1 7.69326 2.4238 20.4307
144 1 6.99175 5.13841 20.4014
145 1 6.50612 3.70545 22.8966
146 1 5.86518 2.03477 25.0296
147 1 5.46457 4.80711 25.0177
148 1 4.76257 3.23398 27.4152
149 1 4.28187 1.57326 29.6322
150 1 3.87219 4.44813 29.6673
151 1 3.50143 2.73455 31.9841
152 1 2.67062 1.41804 34.2911
153 1 17.6784 4.18555 34.2322
154 1 1.75176 2.45489 36.7834
155 1 1.07626 0.871806 39.5776
156 1 16.1214 3.75027 38.9887
157 1 14.5715 4.87901 6.20137
158 1 13.1081 4.71099 11.0909
159 1 11.4123 4.24802 15.6835
160 1 10.4174 5.65847 18.1403
161 1 9.83708 4.12491 20.4853
162 1 9.08723 2.598 22.6341
163 1 8.67169 5.54436 22.6705
164 1 8.29149 3.91734 24.9894
165 1 7.59175 2.32655 27.4069
166 1 7.13596 5.21425 27.169
167 1 6.80464 3.60061 29.6254
168 1 6.06915 1.90538 31.7557
169 1 5.39323 4.75293 32.128
170 1 5.05843 3.07355 34.3792
171 1 4.46612 1.35129 36.7733
172 1 3.86772 4.44116 36.6952
173 1 3.43285 2.7065 39.1736
174 1 16.2102 5.40665 8.46905
175 1 14.7947 5.15114 13.4462
176 1 13.0436 4.46931 18.261
177 1 11.3765 4.31724 22.7402
178 1 10.3782 5.82952 25.0519
179 1 9.75487 4.26732 27.369
180 1 9.2961 2.53921 29.617
181 1 8.97722 5.45607 29.7029
182 1 8.15423 3.86135 32.036
183 1 7.56662 2.20381 34.3665
184 1 7.094 5.2757 34.3231
185 1 6.36796 3.26179 36.767
186 1 6.31607 1.87421 39.1589
187 1 5.35874 4.66595 39.0453
188 1 18.0376 5.3766 11.0702
189 1 16.2823 5.15287 15.6577
190 1 14.8062 4.92807 20.4779
191 1 13.0262 4.84751 25.0534
192 1 11.8408 4.51332 29.4504
193 1 10.5959 5.53214 31.8276
194 1 9.96595 4.01142 34.1821
195 1 9.36285 2.49955 36.3475
196 1 8.61695 5.14526 36.3998
197 1 8.62336 3.35408 38.5977
198 1 17.9177 5.64013 18.0638
199 1 16.3259 5.2936 22.7294
200 1 14.9301 5.19563 27.3033
201 1 13.1993 4.68225 31.9442
202 1 11.7873 4.31436 36.5951
203 1 10.3913 5.83313 38.4459
204 1 18.0036 5.7877 24.9707
205 1 16.5296 5.37416 29.7544
206 1 14.8705 5.09972 34.1982
207 1 12.8749 4.24774 39.16
208 1 18.0791 5.62077 31.9267
209 1 16.5362 5.29097 36.6254
210 1 18.0338 5.6659 39.3655
211 2 14.7788 1.92292 101.824
212 1 15.4476 1.46668 99.1745
213 1 3.92432 0.805751 103.033
214 1 2.64335 1.46712 98.569
215 1 1.98313 1.82505 101.33
216 2 0.814479 0.817513 96.6151
217 1 15.1278 1.63468 94.3332
218 1 6.38111 2.06186 102.364
219 1 7.08636 1.58475 99.7497
220 1 2.096 0.369494 94.4793
221 1 5.0311 3.06387 98.4757
222 2 4.56353 1.72389 100.641
223 1 4.39466 1.75121 93.3466
224 1 2.38898 3.03138 94.64
225 1 0.58818 0.976792 90.4693
226 1 3.33773 2.21198 90.4694
227 2 1.72197 2.07119 92.4328
228 1 0.519536 0.654104 87.9062
229 1 8.40191 0.551303 95.2494
230 1 7.52095 1.63281 88.7165
231 1 5.13995 0.199791 89.6921
232 1 12.2083 5.0493 103.11
233 1 3.81416 3.50797 102.284
234 1 8.55361 3.53374 101.707
235 1 6.24608 4.88391 103.013
236 2 8.41716 0.836118 101.964
237 2 6.06382 4.07098 100.651
238 1 7.70595 4.11468 98.6307
239 2 6.82516 1.95722 97.1346
240 1 5.02058 3.01654 95.7828
241 1 12.8252 2.19533 103.003
242 1 10.4459 1.92181 100.82
243 1 14.4916 6.37259 98.4667
244 2 11.7945 1.73109 98.3101
245 1 10.4501 4.08413 99.3208
246 1 9.2705 2.0887 97.6223
247 1 11.3222 0.824619 95.955
248 1 7.95306 3.46408 95.4839
249 1 11.6262 3.4759 96.6884
250 2 9.59839 4.86171 96.9285
251 1 8.61764 3.74361 92.5834
252 2 9.26671 2.06809 90.601
253 1 10.5635 4.23501 90.7503
254 1 6.45425 2.2946 91.3481
255 1 8.63468 0.791765 92.5172
256 1 10.6677 4.49402 94.4677
257 1 7.70004 4.396 89.7605
258 1 9.71609 3.18466 88.3328
259 1 13.0082 2.70676 100.359
260 2 11.0839 3.64448 101.941
261 1 12.7326 5.52854 100.48
262 2 13.2365 4.12776 98.4612
263 1 15.2632 4.21347 100.315
264 1 11.7293 6.16777 97.7582
265 1 13.7253 4.94943 96.1575
266 2 6.78955 1.95562 93.8716
267 2 5.26594 2.81876 89.0275
268 1 11.3321 5.55957 88.1051
269 1 2.74662 4.27217 99.5459
270 1 13.9403 2.08076 96.7241
271 1 11.0147 2.10069 92.7226
272 1 11.7586 1.73246 90.0336
273 2 14.0822 1.77629 89.1251
274 1 12.1333 3.0202 87.546
275 2 3.00136 3.92683 97.0118
276 1 15.8338 3.71307 97.8812
277 1 16.3664 5.08555 95.3699
278 2 12.9841 3.09939 94.3436
279 1 13.7814 2.25288 91.8737
280 2 14.1171 6.00882 93.8444
281 1 12.5795 4.75777 92.2522
282 1 13.3535 4.31657 89.7115
283 1 15.3869 4.03369 92.9808
284 1 16.1315 3.67956 90.5349
285 1 9.74894 0.298374 88.8275
286 1 14.8896 6.38375 102.515
287 1 5.54793 0.389619 95.719
288 2 17.2465 4.94577 101.956
289 1 12.7239 0.0752122 100.252
290 1 5.10819 5.69095 98.7139
291 1 4.41495 6.11842 101.231
292 1 17.4281 6.37394 97.6795
293 1 16.8784 6.57873 93.3101
294 1 17.5733 6.2386 90.7511
295 1 14.9221 6.06617 91.2389
296 2 15.9599 5.78102 88.6996
297 1 5.96184 4.35784 93.4317
298 1 3.70174 5.59437 94.8713
299 1 3.12349 4.23859 92.3218
300 1 5.01201 4.89865 90.4506
301 2 4.42575 6.4657 92.617
302 1 10.0069 5.93458 101.533
303 1 7.053 5.94675 96.6728
304 1 7.4103 6.10564 100.52
305 1 9.09726 6.75169 98.3652
306 2 8.15992 5.64991 94.173
307 1 7.12129 6.36358 91.7981
308 1 3.07253 4.50239 88.6602
309 2 6.55565 6.66227 89.1965
310 1 10.1608 6.44252 92.6118
311 2 11.732 6.51841 90.4607
312 1 5.8816 4.7351 87.5572
313 1 3.53614 1.6392 87.5735
314 1 13.2578 0.816829 86.8257
315 2 16.8534 6.47046 84.5149
316 1 18.2633 6.6031 82.4728
317 1 6.04272 2.26123 82.9216
318 1 5.94868 6.80719 83.3978
319 2 0.832724 0.540609 81.0016
320 1 3.58507 5.75433 76.8229
321 1 5.42618 6.48291 74.8733
322 1 5.54614 6.36148 78.6237
323 1 17.874 6.53923 73.713
324 1 4.03908 1.48902 84.8014
325 2 8.72229 6.80493 82.7179
326 1 10.7115 6.89597 84.6532
327 1 3.26763 2.01398 81.8973
328 1 5.20991 1.08521 80.2599
329 1 2.35994 1.1295 72.2349
330 1 9.39651 0.173862 84.0538
331 2 13.7586 6.34227 81.1891
332 1 11.2177 6.31256 82.0452
333 1 7.91009 1.07302 79.6494
334 2 5.90217 2.23 78.1995
335 1 3.55874 0.297104 76.6763
336 1 8.33638 6.57307 74.1206
337 1 10.5811 6.42334 77.5521
338 1 11.3136 5.97287 74.9692
339 1 6.05041 1.92003 86.6604
340 1 16.674 2.33543 79.611
341 2 8.52224 0.775779 86.6386
342 2 10.1582 4.23582 86.0514
343 1 8.31372 2.611 84.6175
344 1 11.8158 1.55973 82.7115
345 1 11.2562 2.00648 85.2776
346 1 10.475 3.87024 83.3524
347 1 8.77293 1.99938 81.9723
348 1 8.36326 2.20797 77.2552
349 1 8.85229 1.80906 74.6513
350 1 6.10558 1.61982 75.5795
351 2 7.02695 1.04799 72.8638
352 1 14.7308 3.35488 87.1297
353 1 13.3592 4.03192 82.8206
354 1 12.7408 4.43421 85.5017
355 2 11.3891 3.26197 80.7109
356 1 10.2405 3.71712 78.4665
357 1 16.9888 4.81451 86.564
358 1 2.71274 4.22974 83.9005
359 1 16.3347 6.46525 77.5749
360 1 10.4247 0.871214 78.9021
361 1 12.6261 2.50485 78.5382
362 1 13.5322 6.34306 76.5847
363 1 11.3835 0.396634 74.6145
364 2 10.8927 1.86365 76.6758
365 1 1.57341 2.19825 85.5994
366 1 15.5627 5.46518 82.5093
367 2 15.2747 4.18341 84.6203
368 1 13.95 2.12364 80.8812
369 1 14.1226 1.96809 84.5227
370 1 15.9934 2.55896 82.671
371 2 14.697 1.24273 78.2738
372 1 13.5708 1.87875 75.8502
373 1 14.8433 3.81276 77.5313
374 1 12.6528 5.10457 79.092
375 1 13.277 6.29386 72.9367
376 1 11.1281 3.24904 74.6057
377 2 13.1342 2.156 73.3857
378 1 14.0031 4.3785 74.7111
379 2 12.2666 4.22015 76.7152
380 1 11.2808 3.23417 72.1161
381 1 4.214 3.63737 79.4104
382 1 1.20834 1.89611 76.7006
383 1 2.60941 3.65538 72.9153
384 1 15.63 2.31398 73.831
385 2 2.78587 2.01329 74.6593
386 1 12.0373 0.45148 71.7913
387 1 14.7703 6.25279 86.2833
388 1 3.97318 6.2171 85.5141
389 2 3.94467 3.64074 86.2935
390 2 17.4676 4.22851 81.2793
391 1 15.4256 5.03502 79.8249
392 1 8.52473 5.48651 87.3353
393 1 5.72947 4.23276 84.8122
394 2 7.27674 4.43002 82.6936
395 1 4.82469 4.72257 81.9418
396 1 6.7907 3.47213 80.3617
397 1 18.1134 6.05906 79.8014
398 1 7.07374 6.20592 80.7925
399 2 4.21802 4.24146 74.8374
400 1 16.9245 4.51615 75.5171
401 1 3.79326 2.90899 76.8777
402 1 4.87221 5.18515 72.5021
403 1 8.48158 5.30505 84.8285
404 2 6.44322 6.58529 86.0552
405 2 17.3953 4.10092 78.0948
406 2 15.8114 5.04103 73.1281
407 1 9.28345 4.74366 80.8836
408 1 6.27631 4.29987 76.6024
409 1 6.94763 3.91597 73.8747
410 2 9.56295 4.51587 73.3451
411 1 7.5981 5.53104 71.7543
412 2 8.01853 5.04161 78.5776
413 1 8.97588 4.57664 76.0278
414 1 4.90902 2.35574 73.0102
415 2 1.43631 -0.279921 70.3423
416 1 6.01006 6.24112 67.6089
417 1 10.0482 5.76091 71.0317
418 1 4.76705 -0.323393 66.8127
419 1 4.04605 0.456195 69.4576
420 2 6.98888 5.94548 65.0221
421 1 5.80994 6.7291 62.7512
422 1 8.30696 0.528842 70.6995
423 1 9.30221 -0.0656277 68.1359
424 1 8.20009 5.39748 62.6664
425 1 7.00312 1.19176 66.7595
426 2 6.55469 0.00508881 68.8966
427 1 6.49565 0.0931393 61.8001
428 1 4.54884 1.30532 63.1977
429 1 6.87293 6.12147 58.9351
430 1 5.63294 0.612857 58.8485
431 2 3.93738 0.468307 60.9666
432 1 6.84028 5.98708 56.2226
433 1 14.5011 5.7152 63.9243
434 1 9.7009 0.136278 57.1637
435 1 11.3698 5.24081 58.0976
436 1 14.0463 3.75973 71.8061
437 1 6.04315 1.96653 70.661
438 1 10.6517 1.81469 69.7399
439 1 8.53528 3.23631 71.2448
440 2 14.4954 5.86245 70.4116
441 2 8.04035 2.2762 68.8534
442 1 9.81857 2.41049 66.9595
443 2 8.92696 0.236557 65.5419
444 1 7.31235 1.63462 64.1975
445 1 14.8797 1.05226 71.549
446 1 16.5253 6.50081 68.9909
447 1 16.6991 4.54682 66.9246
448 2 14.0421 0.0942676 66.9285
449 1 12.8355 2.42248 67.676
450 1 11.4693 0.369919 66.1529
451 1 17.3868 5.93892 64.6361
452 1 10.1568 1.68047 63.9755
453 1 13.6893 1.76299 64.98
454 2 11.6298 3.1112 65.3257
455 1 10.5857 2.08595 60.9982
456 2 11.2842 0.705868 59.1189
457 1 12.703 2.78454 59.2738
458 1 8.61222 0.518387 59.7207
459 1 14.925 5.86171 61.1827
460 1 12.7053 2.87621 62.934
461 1 9.77735 2.76197 58.175
462 1 11.9244 1.70808 56.8698
463 1 15.1098 0.995386 68.897
464 2 12.9828 2.12721 70.2441
465 1 14.8582 3.72139 68.9914
466 2 15.3947 2.38739 66.8734
467 1 2.10421 2.46448 68.8211
468 1 13.7722 4.41811 66.0742
469 1 16.0736 3.28697 64.6808
470 2 9.03471 0.281497 62.3136
471 2 7.4842 1.24022 57.2927
472 1 13.5282 4.19931 56.522
473 1 4.77618 2.67863 67.993
474 1 0.645251 0.51153 65.0653
475 1 13.2378 0.598323 60.9737
476 1 13.8775 0.236336 58.4274
477 2 0.968334 0.338273 57.5206
478 1 14.2942 1.58792 56.0209
479 2 5.39865 2.39461 65.3774
480 1 2.78836 1.92151 66.2056
481 1 3.36317 3.65777 63.9206
482 2 15.1283 1.55177 62.7442
483 1 0.56436 0.772117 60.182
484 2 16.4627 4.61391 62.4265
485 1 14.7362 3.27588 60.9382
486 1 15.362 2.76288 58.2123
487 1 2.3253 2.45024 61.5266
488 1 3.00705 2.06366 58.8418
489 1 15.942 5.506 57.275
490 1 16.9943 4.45822 70.7617
491 1 11.6356 5.45207 64.0041
492 2 3.97785 3.20632 70.6879
493 1 3.53609 4.99029 68.8175
494 1 7.27424 3.77178 66.8797
495 1 6.53851 4.27148 69.4286
496 1 4.20142 4.69057 66.1868
497 1 3.81481 5.12882 61.6433
498 1 4.53846 4.69026 59.0325
499 1 17.1998 4.58763 59.6664
500 2 2.77922 4.21224 56.9822
501 1 8.00545 2.69977 61.668
502 1 5.9919 4.00387 63.2788
503 1 5.16871 2.64256 60.6992
504 1 7.2887 3.24835 58.9187
505 2 6.50029 4.72335 60.9562
506 1 12.2032 4.56649 69.7529
507 1 8.99688 4.27255 64.9552
508 1 9.43 4.39334 68.779
509 1 11.2234 5.15662 66.8572
510 2 10.3432 4.00107 62.5171
511 1 9.21987 4.89456 60.1599
512 1 5.20323 2.78544 57.2126
513 2 8.79488 5.10952 57.6408
514 1 12.1415 4.74793 61.0315
515 2 13.8992 4.94154 59.0383
516 1 7.91659 3.39777 56.0092
517 1 5.73703 0.0742026 55.934
518 1 4.16541 5.98419 55.2489
519 2 3.55125 5.16044 52.9801
520 1 5.27684 5.2586 50.986
521 1 8.26334 0.744786 51.1141
522 1 8.34973 5.34619 51.8799
523 2 7.18439 5.90038 49.46
524 1 6.01067 4.68228 45.2178
525 1 8.09701 5.34113 43.1891
526 1 7.73122 4.99222 47.0664
527 1 5.40943 5.28158 42.3057
528 1 6.3752 0.208316 53.0868
529 2 10.936 5.28306 51.1285
530 1 13.0191 5.4084 53.0842
531 1 5.49465 0.656535 50.2268
532 1 11.5428 6.24032 48.703
533 1 9.12994 6.57389 40.9731
534 1 15.6647 5.39395 52.3053
535 2 16.0412 4.86511 49.7301
536 1 13.5679 4.93899 50.5461
537 1 14.1514 6.19694 48.2121
538 2 8.2966 0.880792 46.6523
539 1 10.2124 5.71911 45.2294
540 1 11.1074 5.34316 42.671
541 1 12.9504 5.19778 46.0098
542 1 13.9259 4.7927 43.3944
543 1 8.38497 0.85706 54.862
544 1 3.69599 1.12481 47.9493
545 2 14.7597 5.94548 54.8976
546 2 12.2986 2.71765 54.5293
547 1 10.4444 1.22063 53.0582
548 1 13.9979 0.112081 50.8633
549 1 13.4689 0.568886 53.6409
550 1 12.7447 2.70766 51.7592
551 1 11.1527 0.744337 50.3267
552 1 10.742 0.988753 45.9433
553 1 11.5257 0.441648 43.4293
554 1 8.71671 0.5469 44.0427
555 2 13.6836 6.65252 41.4447
556 1 1.64705 1.85512 55.3911
557 1 15.566 2.77305 51.2027
558 1 14.93 3.11506 53.8148
559 2 13.9267 2.13561 49.1524
560 1 12.7996 2.46627 46.7584
561 1 3.87596 3.40081 54.8832
562 1 4.91493 2.74892 52.252
563 1 3.36021 5.13976 45.9734
564 1 16.8319 6.34872 47.8639
565 1 14.9987 1.15427 46.9969
566 1 15.95 5.19683 45.347
567 1 17.846 5.78529 43.1951
568 2 13.3473 0.591694 45.2839
569 1 3.82776 0.753911 53.8859
570 1 2.61781 4.075 51.0272
571 2 2.1762 2.81262 53.0922
572 1 0.882045 0.689595 49.1482
573 1 0.930756 0.588648 52.8555
574 1 2.81423 1.25997 50.9627
575 2 5.72743 6.58796 46.7474
576 1 0.624702 0.603448 44.2842
577 1 2.04834 2.48526 45.8925
578 1 15.1433 3.83337 47.55
579 1 15.7404 5.11535 41.4105
580 1 13.6262 2.00147 43.2672
581 2 15.4264 0.63678 41.789
582 1 16.3128 3.26613 43.2982
583 2 14.7428 2.99354 45.2232
584 1 14.559 2.82482 40.9637
585 1 6.51661 2.08442 47.846
586 1 3.81027 0.566495 45.2621
587 1 4.9706 2.71342 41.401
588 1 2.72701 1.01292 42.1748
589 2 5.41984 0.764876 43.2582
590 1 12.9814 0.82756 40.9471
591 1 16.8907 4.78377 54.6699
592 1 6.29436 4.7036 53.8646
593 2 6.13574 2.21529 54.6664
594 2 4.50031 2.88628 49.7588
595 1 2.61855 3.83541 48.4091
596 1 10.6712 3.96829 55.8931
597 1 7.9396 2.794 53.0185
598 2 9.62179 2.99622 51.1978
599 1 7.03451 3.36168 50.1843
600 1 9.25335 2.03519 48.8334
601 1 5.09706 4.73804 48.1792
602 1 9.2693 4.75926 49.2023
603 2 6.67957 3.17824 43.2446
604 1 3.75655 3.20415 43.7643
605 1 6.29475 1.8162 45.3097
606 1 7.3454 4.02758 40.8129
607 1 10.6353 4.04434 53.2685
608 2 8.77172 5.0818 54.5511
609 2 4.46069 2.9385 46.458
610 2 2.58897 3.67658 41.2594
611 1 11.5596 3.36687 49.3163
612 1 8.50761 3.09899 45.082
613 1 9.42197 2.83047 42.5666
614 2 12.0129 3.0146 41.6623
615 1 10.254 4.25192 40.5097
616 2 10.4317 3.79874 46.9969
617 1 11.3413 3.18811 44.44
618 1 7.43215 1.2025 41.7234
ITEM: TIMESTEP
2000
ITEM: NUMBER OF ATOMS
618
ITEM: BOX BOUNDS xy xz yz pp pp ff
0.0000000000000000e+00 1.9317770367296919e+01 4.0025167278329121e+00
0.0000000000000000e+00 6.6702723500479264e+00 0.0000000000000000e+00
0.0000000000000000e+00 1.0921147561319708e+02 0.0000000000000000e+00
ITEM: ATOMS id type x y z
1 1 4.94322 5.75274 5.9219
2 1 6.44229 6.08291 8.31308
3 1 4.86971 5.74541 13.002
4 1 5.72472 -0.0991506 5.96197
5 1 8.06362 6.27291 10.8414
6 1 6.34583 6.04383 15.3047
7 1 4.69879 5.63143 19.971
8 1 12.4711 5.44346 6.04212
9 1 7.37848 0.404969 8.30463
10 1 5.65575 0.0317781 13.1427
11 1 7.96069 6.33823 17.6126
12 1 6.24367 5.78468 22.2182
13 1 4.68157 5.50419 27.0122
14 1 10.6262 0.60667 5.70963
15 1 14.0876 5.82753 8.32189
16 1 9.04724 0.498972 10.7033
17 1 12.3692 5.68624 13.0041
18 1 7.19347 0.218533 15.5691
19 1 5.70679 -0.181807 20.0048
20 1 7.83748 6.11847 24.5896
21 1 6.36125 5.95975 29.4193
22 1 4.33185 5.7648 34.2585
23 1 13.5535 -0.0240065 5.86307
24 1 12.8864 2.64406 6.01672
25 1 12.4168 1.22483 8.48117
26 1 15.8662 6.2221 10.4905
27 1 11.2055 2.47731 10.7756
28 1 10.6542 0.713403 13.1436
29 1 13.8969 6.0518 15.3562
30 1 9.04292 0.536612 17.6858
31 1 12.4546 5.51177 20.0531
32 1 7.36284 0.169826 22.4433
33 1 9.56865 6.611 26.9896
34 1 7.87034 6.38814 31.7737
35 1 6.02736 6.1482 36.4104
36 1 15.4601 1.9396 5.6787
37 1 15.0861 0.179929 8.29516
38 1 14.6901 3.00095 8.26583
39 1 14.047 1.48058 10.5845
40 1 13.2741 -0.0476434 12.9462
41 1 12.9463 2.7993 13.0029
42 1 12.1879 1.20382 15.371
43 1 15.6361 6.21182 17.597
44 1 11.1428 2.43284 17.7556
45 1 10.6486 0.819747 20.0497
46 1 14.1013 5.89342 22.4182
47 1 8.83765 0.713186 24.6576
48 1 12.283 5.70186 27.0277
49 1 7.21583 0.420431 29.1648
50 1 5.38363 -0.079163 33.9581
51 1 7.56445 6.31592 38.6049
52 1 2.93799 1.03727 5.52907
53 1 2.50718 3.73095 6.00358
54 1 1.93988 2.19611 8.34135
55 1 1.52591 0.583887 10.6042
56 1 16.2239 3.37709 10.5948
57 1 15.6092 1.89399 12.8182
58 1 14.9033 0.262873 15.2255
59 1 14.5238 3.11195 15.4732
60 1 13.8963 1.47502 17.5458
61 1 13.453 -0.158035 19.9859
62 1 12.9893 2.60643 20.0847
63 1 12.0939 1.20322 22.2828
64 1 15.6072 6.24958 24.6269
65 1 11.1488 2.48062 24.7435
66 1 10.5083 0.801403 27.1476
67 1 13.8914 6.08495 29.3726
68 1 8.81593 0.518767 31.6638
69 1 12.1153 5.71892 34.0434
70 1 7.00597 0.401647 36.2724
71 1 5.40152 2.75639 5.82734
72 1 4.5521 1.172 8.23784
73 1 4.11078 4.07657 8.1018
74 1 3.69965 2.57306 10.6917
75 1 3.01734 0.927996 12.8747
76 1 2.54647 3.7929 12.9267
77 1 1.82725 2.21643 15.3033
78 1 1.24683 0.634905 17.5524
79 1 16.0386 3.41815 17.7204
80 1 15.6285 1.74517 19.9647
81 1 14.9479 0.293231 22.2334
82 1 14.5342 3.18187 22.3964
83 1 13.7914 1.56225 24.6222
84 1 13.2727 0.0246202 27.0187
85 1 12.7643 2.84374 26.9983
86 1 12.0936 1.54369 29.3804
87 1 15.6072 6.43194 31.6543
88 1 11.0966 2.50576 31.8106
89 1 10.4339 0.847659 34.0303
90 1 13.7551 5.89827 36.3737
91 1 8.58628 0.823844 38.8496
92 1 8.13708 1.7872 5.84992
93 1 7.5688 4.76328 6.04181
94 1 6.79251 3.20037 8.3473
95 1 6.20641 1.41066 10.5467
96 1 5.86753 4.34068 10.6469
97 1 5.32785 2.67287 13.1434
98 1 4.51518 1.18179 15.2812
99 1 4.04691 4.03353 15.28
100 1 3.41536 2.35322 17.6017
101 1 3.0141 0.762496 19.9544
102 1 2.47546 3.52386 19.9584
103 1 1.99402 2.02764 22.1741
104 1 1.1588 0.537211 24.744
105 1 16.0087 3.44922 24.5653
106 1 15.6288 1.77732 26.9077
107 1 14.9622 0.392895 29.2275
108 1 14.4865 3.08796 29.2791
109 1 13.8204 1.78781 31.7149
110 1 12.994 -0.0274973 34.0136
111 1 12.6915 3.0464 34.1164
112 1 12.0525 1.25953 36.4614
113 1 14.9907 6.29372 38.8044
114 1 11.2534 2.37605 39.0603
115 1 10.2378 3.61102 6.0207
116 1 9.62645 2.06367 8.35974
117 1 9.13721 5.02898 8.60152
118 1 8.46615 3.39092 10.6888
119 1 7.92307 1.93366 12.9252
120 1 7.39927 4.6254 13.1346
121 1 6.84403 3.08699 15.3585
122 1 6.27882 1.48387 17.7603
123 1 5.73329 4.44525 17.7158
124 1 5.11382 2.86533 19.8612
125 1 4.63394 1.09314 22.2251
126 1 3.98924 4.07445 22.3624
127 1 3.39677 2.56148 24.6559
128 1 2.90594 0.888525 27.1491
129 1 17.6294 3.91982 26.9631
130 1 1.80081 2.15974 29.3507
131 1 1.17356 0.558969 31.8386
132 1 16.1579 3.59098 31.6348
133 1 15.4519 1.94569 33.8524
134 1 14.7693 0.472013 36.2138
135 1 14.103 3.24727 36.3383
136 1 13.8051 1.39647 38.3914
137 1 11.7997 4.11324 8.30906
138 1 10.7263 5.38301 10.8942
139 1 10.1444 3.54863 13.0471
140 1 9.59105 2.12823 15.423
141 1 8.99647 4.87662 15.3371
142 1 8.41642 3.26127 17.7694
143 1 8.01584 1.73745 20.1355
144 1 7.36886 4.61464 19.9853
145 1 6.67781 3.09646 22.1772
146 1 6.01406 1.43084 24.6504
147 1 5.62614 4.26925 24.6485
148 1 5.1282 2.67 26.931
149 1 4.55274 1.4421 29.4285
150 1 3.93877 4.16371 29.3124
151 1 3.4225 2.67505 31.737
152 1 2.78853 0.93852 34.0814
153 1 2.31543 3.83724 34.0486
154 1 1.61864 2.37488 36.4507
155 1 0.99777 0.827543 39.0322
156 1 15.789 3.60132 38.8104
157 1 15.0269 4.56842 5.62586
158 1 13.501 4.38181 10.6991
159 1 11.7892 4.07079 15.3575
160 1 10.6375 5.24059 17.8059
161 1 10.1287 3.72451 20.0928
162 1 9.64127 2.12192 22.463
163 1 9.00308 4.97704 22.2749
164 1 8.34468 3.39312 24.6446
165 1 7.90633 1.98157 26.8982
166 1 7.29336 4.6726 26.9122
167 1 6.74927 3.0891 29.3435
168 1 6.20391 1.47037 31.7016
169 1 5.68354 4.622 31.701
170 1 5.03116 2.80734 33.8574
171 1 4.46287 1.38419 36.3348
172 1 3.73804 4.44874 36.4922
173 1 3.18682 2.74124 38.742
174 1 16.8326 4.99152 8.30789
175 1 15.1672 4.445 13.006
176 1 13.4177 4.27331 17.6378
177 1 11.8881 4.05372 22.3536
178 1 10.572 5.35178 24.6721
179 1 10.1307 3.83714 27.0114
180 1 9.4039 2.25668 29.5469
181 1 9.06455 5.00723 29.3239
182 1 8.20654 3.49913 31.656
183 1 7.73197 1.85355 33.9313
184 1 7.17959 4.77201 33.9674
185 1 6.60523 3.2388 36.3292
186 1 5.99467 2.05991 38.7355
187 1 5.1758 4.73082 38.9698
188 1 18.5564 5.40922 10.6549
189 1 16.5752 5.13321 15.2194
190 1 15.2102 4.63475 20.0197
191 1 13.339 4.44744 24.7655
192 1 11.7353 4.15177 29.4706
193 1 10.4847 5.30785 31.6697
194 1 9.84495 3.5599 34.0808
195 1 9.43188 1.93216 36.1093
196 1 8.65794 5.16629 36.1807
197 1 8.85298 3.44556 38.1033
198 1 18.4025 5.22775 17.4768
199 1 16.7083 5.02422 22.2777
200 1 15.065 4.86108 27.0533
201 1 13.3121 4.48779 31.5537
202 1 11.2522 4.09013 36.276
203 1 10.4383 5.88232 38.5181
204 1 18.3771 5.29422 24.6649
205 1 16.6147 5.05815 29.4197
206 1 14.8674 4.85449 33.86
207 1 12.9602 4.50531 38.9712
208 1 18.2406 5.5091 31.6786
209 1 16.3292 5.11025 36.372
210 1 17.7973 5.34502 39.0163
211 2 14.5502 2.02541 102.387
212 1 15.1014 1.66627 99.5467
213 1 3.68873 1.01917 103.213
214 1 2.42527 1.79216 98.9532
215 1 1.76394 2.10515 101.598
216 2 0.762135 1.2067 97.0177
217 1 14.8993 1.69655 94.6524
218 1 6.04099 2.41323 102.88
219 1 7.14318 1.85006 100.21
220 1 1.94563 0.440076 94.7546
221 1 4.92585 3.18392 98.933
222 2 4.53956 1.86243 101.101
223 1 4.35987 1.72855 93.787
224 1 2.25685 3.01749 95.1962
225 1 15.899 0.977097 90.8748
226 1 3.23081 2.40933 90.8355
227 2 1.60686 2.10047 92.8176
228 1 0.506382 0.862432 88.1581
229 1 8.44605 0.93663 95.7074
230 1 7.22673 1.6092 89.001
231 1 4.92212 0.297932 90.201
232 1 12.0276 5.63679 103.501
233 1 3.79549 3.82284 102.625
234 1 8.29778 3.7585 102.032
235 1 6.24971 5.21594 103.482
236 2 8.3582 1.28087 102.555
237 2 5.87402 4.25045 101.01
238 1 7.53048 4.31958 98.9529
239 2 6.77452 2.05904 97.5824
240 1 4.83555 3.1858 96.2973
241 1 12.4128 2.18917 103.288
242 1 10.3253 2.0065 101.006
243 1 14.4573 6.58068 98.9711
244 2 11.7578 2.03696 98.7868
245 1 10.4973 4.37383 99.7018
246 1 9.25429 2.28052 97.9833
247 1 11.3872 1.14214 96.3519
248 1 7.88094 3.6879 95.9177
249 1 11.5351 3.77476 97.1412
250 2 9.41206 4.9936 97.3246
251 1 8.31041 3.81841 92.9312
252 2 8.9301 2.42242 90.8911
253 1 10.2659 4.52083 91.0643
254 1 6.2467 2.26035 91.7371
255 1 8.64055 0.863862 92.8594
256 1 10.3693 4.63909 94.8176
257 1 7.33653 4.26587 90.0806
258 1 9.5821 3.18916 88.6253
259 1 12.9351 3.12043 100.827
260 2 11.0084 3.94871 102.217
261 1 12.6639 6.00721 100.804
262 2 13.2675 4.30681 98.865
263 1 15.262 4.48541 100.622
264 1 11.7065 6.41087 98.0934
265 1 13.7964 5.26219 96.6753
266 2 6.75124 2.10767 94.3564
267 2 5.1254 2.87168 89.2717
268 1 11.0315 5.69348 88.5545
269 1 18.0047 4.45073 99.915
270 1 13.8386 2.26994 97.1444
271 1 10.812 2.43422 92.9939
272 1 11.5509 1.96242 90.2364
273 2 13.955 1.88724 89.4189
274 1 12.0759 3.16871 87.818
275 2 2.90048 4.05737 97.4562
276 1 15.8619 3.98358 98.1883
277 1 16.3197 5.22521 95.8717
278 2 12.781 3.15616 94.7294
279 1 13.5927 2.29813 92.1575
280 2 14.1379 6.20711 94.383
281 1 12.4599 4.92167 92.6998
282 1 13.1924 4.46434 90.0985
283 1 15.4291 4.11861 93.5861
284 1 15.9853 3.65048 90.7939
285 1 9.55968 0.399443 89.2112
286 1 14.6257 6.39363 102.739
287 1 5.70106 0.407252 95.9635
288 2 17.0508 5.27096 102.545
289 1 12.6537 0.349557 100.718
290 1 5.00979 5.84664 98.9536
291 1 4.31643 6.44777 101.513
292 1 17.2484 6.41023 98.1891
293 1 12.7775 0.10934 93.6822
294 1 17.4422 6.19503 91.119
295 1 14.8175 6.12085 91.7259
296 2 15.7372 5.72257 89.0578
297 1 5.68265 4.36693 93.8023
298 1 3.61347 5.72248 95.4742
299 1 2.8471 4.25271 92.8447
300 1 4.86716 4.87181 90.9345
301 2 4.19348 6.42536 93.0597
302 1 9.9604 6.16359 101.859
303 1 7.13014 6.28068 97.0514
304 1 7.23502 6.28575 100.812
305 1 5.02817 0.387344 98.8266
306 2 7.88207 5.75188 94.5383
307 1 6.9828 6.42946 92.2078
308 1 3.00518 4.38476 88.9425
309 2 6.41235 6.57797 89.612
310 1 10.0256 6.37374 92.97
311 2 11.775 6.58815 90.8613
312 1 5.59342 4.85741 87.8607
313 1 3.28694 1.62867 87.925
314 1 13.0954 0.853116 87.2244
315 2 16.3705 6.57708 84.8144
316 1 14.2283 0.0397358 82.9132
317 1 5.90478 2.29057 82.9891
318 1 1.89039 0.171617 83.6461
319 2 0.795833 0.675413 81.3529
320 1 3.7698 6.19589 77.1149
321 1 1.68156 0.13329 75.0782
322 1 5.64861 6.62255 78.8196
323 1 18.035 6.6675 74.1075
324 1 4.00974 1.49122 84.879
325 2 4.58232 0.206534 82.7808
326 1 6.62377 0.155219 84.7708
327 1 3.1246 2.10353 82.1252
328 1 5.15773 0.98115 80.399
329 1 2.41348 1.47409 72.7975
330 1 9.31598 0.383937 84.3774
331 2 9.86225 0.0552721 81.5125
332 1 11.3373 6.38543 82.3625
333 1 7.85978 1.26355 79.9476
334 2 6.02636 2.57687 78.4147
335 1 3.89144 0.634609 77.1724
336 1 4.58674 0.251771 74.5176
337 1 10.7997 6.71067 77.8897
338 1 11.4139 6.17634 75.1899
339 1 5.8809 2.09181 86.8704
340 1 16.7291 2.64091 79.7964
341 2 8.27317 0.888894 86.8692
342 2 10.1483 4.57189 86.3484
343 1 7.92963 2.65162 84.9955
344 1 11.6906 1.72447 82.9602
345 1 10.8374 2.07634 85.7723
346 1 10.5197 4.04298 83.7173
347 1 8.68989 2.24471 82.3182
348 1 8.38698 2.52123 77.6491
349 1 8.98556 2.17842 74.9498
350 1 6.27397 1.96885 75.7349
351 2 7.23505 1.2794 73.0695
352 1 14.6937 3.37294 87.3423
353 1 13.287 4.1827 83.1754
354 1 12.7178 4.62448 85.744
355 2 11.4097 3.46573 81.1637
356 1 10.4204 4.03951 78.7207
357 1 16.828 4.93217 86.7491
358 1 2.56352 4.19451 84.2226
359 1 16.4653 6.72798 78.0051
360 1 10.477 1.21958 79.2314
361 1 12.7015 2.69321 78.7756
362 1 13.6903 6.67041 76.7748
363 1 11.4692 0.640026 74.8957
364 2 10.8413 2.23266 76.9505
365 1 1.42411 2.17885 85.8993
366 1 15.5837 5.62711 82.8858
367 2 15.2249 4.12465 84.9902
368 1 13.9797 2.36775 81.0711
369 1 13.8252 1.96538 85.0266
370 1 15.8464 2.62987 82.9618
371 2 14.7964 1.5073 78.6005
372 1 13.436 2.17055 76.2691
373 1 14.9149 4.12352 77.8579
374 1 12.7198 5.47467 79.3411
375 1 13.5368 6.7947 73.0451
376 1 11.3501 3.54619 74.9008
377 2 13.2018 2.32917 73.5301
378 1 13.8837 4.59981 74.9133
379 2 12.4635 4.54504 77.1114
380 1 11.3586 3.35325 72.1866
381 1 4.16554 3.64465 79.8192
382 1 1.33049 2.12736 77.0059
383 1 2.69348 3.97581 73.1078
384 1 15.6606 2.68565 74.0535
385 2 3.03731 2.27315 75.0946
386 1 12.2358 0.602519 71.9898
387 1 14.56 6.14408 86.8281
388 1 3.82999 6.28852 85.7139
389 2 3.66795 3.6183 86.5502
390 2 17.4617 4.43845 81.5983
391 1 15.5442 5.18912 80.2334
392 1 8.41786 5.65001 87.7279
393 1 5.67938 4.39508 85.0662
394 2 7.12503 4.48987 83.0845
395 1 4.60055 4.74725 82.2636
396 1 6.76884 3.55308 80.8394
397 1 18.343 6.16179 80.0342
398 1 6.93817 6.14995 81.0644
399 2 4.38559 4.66373 75.0899
400 1 17.0337 4.61991 75.7017
401 1 4.07494 3.33703 77.1968
402 1 5.0702 5.35036 72.4627
403 1 8.34244 5.46008 84.892
404 2 6.33488 6.55849 86.3389
405 2 17.4513 4.43856 78.3456
406 2 15.8039 5.26778 73.3929
407 1 9.28973 4.78916 81.3909
408 1 6.44192 4.59921 76.8417
409 1 7.14214 4.41673 74.2681
410 2 9.66233 4.73519 73.6061
411 1 7.67401 5.93697 72.0248
412 2 8.08205 5.21178 78.9934
413 1 9.14518 4.80905 76.1798
414 1 5.01741 2.7057 73.3532
415 2 1.69039 0.43145 70.4804
416 1 5.87472 6.68094 67.6903
417 1 10.1543 6.06207 71.3098
418 1 8.57622 6.66222 66.9209
419 1 4.00427 0.631722 69.4474
420 2 6.86637 6.10139 65.093
421 1 1.83697 0.354098 62.6828
422 1 8.40741 0.906731 70.8616
423 1 9.4273 0.175396 68.1944
424 1 8.09076 5.60654 62.8705
425 1 6.87379 1.59649 66.923
426 2 10.6198 6.81587 68.9898
427 1 6.42357 0.272632 61.8362
428 1 4.48684 1.53502 63.3251
429 1 6.67762 6.30959 58.9215
430 1 5.3738 0.747357 58.9185
431 2 3.81569 0.609093 60.9924
432 1 6.54471 5.97502 56.3178
433 1 14.6527 6.03772 63.796
434 1 9.41219 0.282221 57.0848
435 1 11.0761 5.37386 58.1767
436 1 14.1406 3.951 72.0002
437 1 6.05389 2.11278 70.7397
438 1 10.6228 2.22205 69.8134
439 1 8.49388 3.45189 71.498
440 2 14.5416 6.07706 70.5222
441 2 8.01187 2.59452 69.0429
442 1 9.51494 2.70825 66.9912
443 2 8.79215 0.488124 65.5342
444 1 7.02436 1.56582 64.2438
445 1 15.0304 1.25025 71.771
446 1 16.4319 6.92392 69.0156
447 1 16.7189 4.95529 67.0404
448 2 14.0253 0.392664 66.7799
449 1 12.5979 2.75685 67.6817
450 1 11.3563 0.790811 66.0783
451 1 17.5392 6.14426 64.4353
452 1 9.8897 2.14507 63.9618
453 1 13.7545 2.15277 65.14
454 2 11.4958 3.31828 65.4132
455 1 10.4059 2.26285 60.9932
456 2 11.0764 0.745433 59.0461
457 1 12.4 2.92561 59.1752
458 1 8.35402 0.662836 59.8332
459 1 14.642 6.04814 61.1429
460 1 12.448 2.8376 62.905
461 1 9.51206 2.87207 58.1552
462 1 11.7262 1.53407 56.6719
463 1 15.105 1.31233 69.163
464 2 13.1513 2.47328 70.3423
465 1 14.7071 4.17089 69.0364
466 2 15.3976 2.71383 67.0724
467 1 2.05237 2.74025 68.901
468 1 13.7562 4.84225 66.163
469 1 15.9831 3.67245 64.7177
470 2 8.87723 0.457158 62.375
471 2 7.17503 1.40065 57.4625
472 1 13.2261 4.1797 56.8079
473 1 4.78214 2.94711 68.2462
474 1 0.771264 0.769825 65.1884
475 1 13.093 0.744165 61.0132
476 1 13.6646 0.469385 58.3575
477 2 0.700365 0.413879 57.529
478 1 14.155 1.83871 56.0147
479 2 5.1393 2.48445 65.5572
480 1 2.71991 2.33162 66.3807
481 1 3.15941 3.68359 64.0063
482 2 14.9778 1.62029 62.8545
483 1 0.43311 0.84416 60.2737
484 2 16.5501 4.95548 62.4157
485 1 14.6035 3.3403 61.0838
486 1 15.129 2.90974 58.4493
487 1 2.27858 2.71045 61.6087
488 1 2.77436 2.38866 58.9544
489 1 15.7353 5.523 57.2953
490 1 16.8089 4.63208 70.9252
491 1 11.7287 5.53564 63.9568
492 2 3.73224 3.17705 70.8512
493 1 3.539 5.29033 68.8903
494 1 7.11348 4.27406 66.9739
495 1 6.47069 4.74287 69.7808
496 1 4.32609 4.91419 66.194
497 1 3.84956 5.14876 61.8214
498 1 4.42504 4.84872 59.1186
499 1 17.0856 4.84019 59.6632
500 2 2.49913 4.16443 57.0912
501 1 7.83582 2.84789 61.7682
502 1 5.81141 4.16375 63.5767
503 1 5.11319 2.76533 60.8738
504 1 6.93808 3.50129 58.8735
505 2 6.44876 4.99072 61.1331
506 1 12.2221 4.84442 69.8379
507 1 9.03377 4.44035 64.9452
508 1 9.31025 4.72017 68.9389
509 1 11.1573 5.4017 66.7106
510 2 10.0816 4.19255 62.6577
511 1 8.99203 4.90716 60.2823
512 1 4.99535 3.07945 56.9664
513 2 8.61988 5.16849 57.5722
514 1 12.0753 4.92499 61.0698
515 2 13.6593 5.03656 59.0607
516 1 7.6627 3.37059 55.9992
517 1 5.26109 0.188049 56.1878
518 1 3.81065 6.08522 55.2568
519 2 3.33623 5.10046 52.9749
520 1 5.04031 5.15581 50.9092
521 1 7.9187 0.727939 51.1735
522 1 8.13103 5.20141 51.7901
523 2 7.03229 5.72806 49.3516
524 1 5.85518 4.63536 45.0236
525 1 7.84477 5.22486 42.9107
526 1 7.83782 5.05209 46.8308
527 1 5.15761 5.29031 41.9446
528 1 10.0757 6.79626 53.1014
529 2 10.8321 5.21182 50.9224
530 1 12.686 5.18723 52.8494
531 1 5.19764 0.597401 49.936
532 1 11.3772 6.07231 48.534
533 1 4.8834 -0.191147 40.7692
534 1 15.4396 5.35892 52.2853
535 2 16.1045 5.11748 49.6474
536 1 13.4677 4.82025 50.2288
537 1 14.0675 6.28907 48.006
538 2 8.10017 0.841513 46.4528
539 1 10.0542 5.54088 44.9541
540 1 10.8521 5.22825 42.4909
541 1 12.9923 5.09897 45.8415
542 1 13.5484 4.64128 43.2398
543 1 7.96221 0.523282 54.9065
544 1 3.41327 1.17533 47.9097
545 2 14.3775 5.67301 54.904
546 2 12.3249 3.06566 54.4974
547 1 10.2063 1.06866 53.0572
548 1 13.7936 0.0990105 51.1192
549 1 12.919 0.526745 53.6733
550 1 12.5867 2.58623 51.6697
551 1 10.9542 0.606342 50.4901
552 1 10.5627 0.951365 45.7719
553 1 11.1437 0.598884 43.2536
554 1 8.45988 0.453519 43.8922
555 2 9.37861 -0.203544 41.179
556 1 1.43231 1.7153 55.3077
557 1 15.4214 2.54478 50.8938
558 1 14.701 3.01962 53.6012
559 2 13.5843 1.77128 49.0334
560 1 12.4633 2.56689 46.7772
561 1 3.6863 3.36969 54.7954
562 1 4.62988 2.62047 52.1943
563 1 3.31177 5.16311 45.6467
564 1 16.6318 6.41121 47.3339
565 1 14.8246 1.23248 46.954
566 1 15.8936 5.16974 44.9022
567 1 17.718 5.70521 43.0164
568 2 13.1537 0.619652 45.0322
569 1 3.57747 0.631621 53.9306
570 1 17.6458 4.0447 50.9044
571 2 1.90657 2.74232 53.0374
572 1 0.633084 0.345466 49.0694
573 1 0.724052 0.589991 52.8646
574 1 2.57918 1.1328 50.9522
575 2 1.51839 -0.103721 46.6041
576 1 0.417753 0.649242 44.1561
577 1 1.80722 2.56017 45.8972
578 1 15.0979 3.91884 47.3992
579 1 15.4606 5.04187 41.2222
580 1 13.4845 1.96414 43.0168
581 2 15.2995 0.69857 41.5658
582 1 16.2322 3.14438 43.1641
583 2 14.5224 2.93721 45.0552
584 1 14.3658 2.74078 40.6189
585 1 6.30278 1.79769 47.8468
586 1 3.55039 0.444039 44.9944
587 1 4.74702 2.57343 41.045
588 1 2.6134 0.963671 42.0374
589 2 5.07691 0.752446 43.0339
590 1 12.7364 0.622282 40.6407
591 1 16.7119 4.62133 54.7627
592 1 5.98988 4.68094 53.8449
593 2 5.84613 2.17855 54.6275
594 2 4.35331 2.90006 49.6047
595 1 2.64444 4.0653 48.2734
596 1 10.6434 4.19547 55.794
597 1 7.68949 2.72381 53.2087
598 2 9.4307 2.79211 51.1084
599 1 6.94108 3.20405 50.2711
600 1 8.97068 1.91839 48.8858
601 1 5.31397 4.4916 48.0041
602 1 9.13084 4.47416 49.0454
603 2 6.50216 3.08274 42.8618
604 1 3.73344 3.21981 43.5104
605 1 6.11691 1.72249 45.0236
606 1 7.25359 3.91131 40.4213
607 1 10.2594 3.8413 53.1336
608 2 8.45522 4.96964 54.3987
609 2 4.28496 2.83433 46.385
610 2 2.30062 3.60726 40.9948
611 1 11.2906 3.25718 49.2538
612 1 8.39613 3.16562 44.9314
613 1 9.22352 2.84772 42.3928
614 2 11.7471 2.89374 41.5113
615 1 9.9712 4.10951 40.3293
616 2 10.0538 3.61763 47.0087
617 1 11.1887 3.20613 44.3241
618 1 7.29345 1.12774 41.4078
ITEM: TIMESTEP
3000
ITEM: NUMBER OF ATOMS
618
ITEM: BOX BOUNDS xy xz yz pp pp ff
0.0000000000000000e+00 1.9317770367296919e+01 4.0025167278329121e+00
0.0000000000000000e+00 6.6702723500479264e+00 0.0000000000000000e+00
0.0000000000000000e+00 1.0921147561319708e+02 0.0000000000000000e+00
ITEM: ATOMS id type x y z
1 1 4.59909 5.525 5.90803
2 1 6.35758 5.9769 8.27997
3 1 4.67388 5.41205 13.0992
4 1 9.56585 6.66768 5.63309
5 1 7.90814 6.18657 10.5501
6 1 6.30592 5.78369 15.3091
7 1 4.66588 5.47723 20.1255
8 1 12.282 5.77466 5.60371
9 1 7.35074 0.181852 8.23063
10 1 9.60454 6.31043 12.9576
11 1 7.94744 5.97633 17.7629
12 1 6.24256 5.83057 22.5462
13 1 4.50175 5.48575 26.8471
14 1 10.717 0.810254 5.8734
15 1 13.9009 5.91664 8.22701
16 1 8.90864 0.629792 10.4638
17 1 12.3445 5.49544 12.8237
18 1 11.3294 6.56465 15.2122
19 1 9.65626 6.389 19.8326
20 1 7.85752 6.25384 24.6935
21 1 6.17358 5.76711 29.3955
22 1 4.75693 5.65919 33.9566
23 1 17.3876 6.51927 6.00651
24 1 12.8941 2.71883 5.85738
25 1 12.312 1.27601 8.34481
26 1 15.7263 6.14148 10.531
27 1 11.1659 2.36399 10.6585
28 1 10.6222 0.783467 12.8559
29 1 13.9638 5.8975 15.3069
30 1 8.86492 0.355292 17.5903
31 1 12.3337 5.48509 20.1285
32 1 7.07916 0.118858 22.1509
33 1 9.51481 6.5953 27.0041
34 1 7.92901 6.33951 31.6605
35 1 6.29 6.03169 36.3698
36 1 15.377 1.88079 6.09834
37 1 15.0603 0.150377 8.47284
38 1 14.4383 2.97149 8.4723
39 1 13.8694 1.35204 10.6232
40 1 17.2157 6.3745 13.0982
41 1 12.752 2.62546 12.8796
42 1 12.0717 1.14544 15.3707
43 1 15.5614 6.2678 17.657
44 1 11.036 2.29981 17.6922
45 1 10.4862 0.609805 20.1092
46 1 13.6956 5.75436 22.4219
47 1 8.70409 0.251842 24.5452
48 1 12.3653 5.53551 26.8764
49 1 7.15681 0.138593 29.3649
50 1 9.53219 6.67006 34.0546
51 1 7.88007 6.28695 38.5229
52 1 2.66037 0.882062 5.79896
53 1 2.54812 3.54681 5.85467
54 1 1.87538 2.10751 8.38699
55 1 1.40176 0.433634 10.9546
56 1 16.125 3.35135 10.7171
57 1 15.5123 1.7341 12.9653
58 1 14.7619 0.233528 15.2427
59 1 14.3555 3.04085 15.3742
60 1 13.6569 1.35718 17.547
61 1 17.1911 6.49974 19.9902
62 1 12.6548 2.44304 19.8976
63 1 11.8699 1.03678 22.3699
64 1 15.3406 6.06346 24.7887
65 1 10.8442 2.19821 24.7899
66 1 10.2549 0.768336 27.0613
67 1 13.8185 5.75193 29.2926
68 1 9.00304 0.479299 31.5532
69 1 12.2866 5.70228 33.9075
70 1 7.29721 0.286092 36.3067
71 1 5.26377 2.65029 5.69848
72 1 4.7407 1.19873 8.2181
73 1 3.99642 3.87654 8.42225
74 1 3.58297 2.23175 10.6299
75 1 3.01783 0.754281 13.1888
76 1 2.58047 3.58035 12.981
77 1 1.90189 1.98061 15.498
78 1 1.17486 0.406986 17.5896
79 1 16.0281 3.37364 17.6922
80 1 15.5755 1.61089 19.9171
81 1 14.7538 -0.0100281 22.2688
82 1 14.4663 2.80881 22.3135
83 1 13.5767 1.26688 24.5876
84 1 17.1632 6.43916 26.9323
85 1 12.6579 2.75162 26.9361
86 1 12.0823 1.09162 29.1887
87 1 15.6054 6.12068 31.5704
88 1 11.0343 2.49636 31.5757
89 1 10.6272 0.657755 33.96
90 1 13.852 5.84469 36.3985
91 1 8.9731 0.595265 38.8041
92 1 7.93671 1.95166 5.77965
93 1 7.58037 4.57827 5.83938
94 1 6.73688 3.17089 8.21007
95 1 6.22082 1.38705 10.6009
96 1 5.7941 4.17636 10.6352
97 1 5.13811 2.60112 13.1126
98 1 4.77759 0.811211 15.4008
99 1 4.06996 3.93043 15.4186
100 1 3.65367 2.35151 17.6778
101 1 2.8946 0.686048 19.9929
102 1 2.3848 3.56155 20.0223
103 1 1.85371 1.87184 22.3489
104 1 1.01703 0.510952 24.6167
105 1 15.9719 3.21967 24.5723
106 1 15.3867 1.63336 26.9985
107 1 14.8101 0.0718851 29.2026
108 1 14.4609 3.04307 29.2695
109 1 13.7364 1.44405 31.3648
110 1 17.2844 6.58465 33.8197
111 1 12.4723 2.6922 33.8389
112 1 12.2046 1.2296 36.3008
113 1 15.3768 6.21008 38.844
114 1 11.3746 2.25867 38.9528
115 1 10.1594 3.60291 5.47756
116 1 9.54575 2.19804 8.1654
117 1 9.0498 5.06144 8.23486
118 1 8.5039 3.40599 10.4848
119 1 7.91444 1.71815 12.8268
120 1 7.43718 4.38796 13.0603
121 1 6.819 2.75489 15.4109
122 1 6.29475 1.27097 17.5462
123 1 5.68284 4.30565 17.6317
124 1 5.21323 2.62936 19.9533
125 1 4.49804 1.0775 22.2723
126 1 3.96803 3.86746 22.268
127 1 3.36486 2.39884 24.6298
128 1 2.69669 0.678811 27.001
129 1 2.18407 3.44912 26.9879
130 1 1.66569 2.01828 29.3647
131 1 1.20118 0.663888 31.5313
132 1 16.157 3.20688 31.6986
133 1 15.4035 1.90027 34.01
134 1 14.9137 0.339956 36.1694
135 1 14.4704 3.14649 36.1953
136 1 13.8477 1.49123 38.4132
137 1 11.7188 3.98734 8.15619
138 1 10.7904 5.27279 10.4998
139 1 10.1482 3.65938 12.9121
140 1 9.37906 1.92689 15.4191
141 1 9.03365 4.75267 15.3588
142 1 8.32166 3.21676 17.5872
143 1 7.78405 1.70243 19.9765
144 1 7.26616 4.46125 20.0292
145 1 6.53529 3.05445 22.3425
146 1 6.07368 1.51229 24.3869
147 1 5.54161 4.30636 24.706
148 1 4.9752 2.6624 26.9567
149 1 4.57613 1.10685 29.3907
150 1 3.95264 3.95461 29.2257
151 1 3.54765 2.57075 31.675
152 1 2.87157 0.925916 33.9463
153 1 2.42506 3.60488 33.9513
154 1 1.8199 2.25835 36.4995
155 1 1.03682 0.774452 39.1038
156 1 16.1827 3.7246 38.882
157 1 15.0622 4.72422 5.83467
158 1 13.3638 4.3491 10.6692
159 1 11.7441 3.95315 15.0976
160 1 10.7928 5.10111 17.6073
161 1 10.0223 3.55349 19.9083
162 1 9.36297 2.04754 22.1795
163 1 9.02452 4.79554 22.2439
164 1 8.21775 3.33729 24.6236
165 1 7.56926 1.58408 26.7571
166 1 7.31019 4.56679 26.8813
167 1 6.63167 3.10178 29.1731
168 1 6.11856 1.53003 31.6835
169 1 5.77756 4.2586 31.7928
170 1 5.17811 2.69367 34.1003
171 1 4.67632 1.27925 36.4236
172 1 4.17282 4.31254 36.4154
173 1 3.3828 2.45693 38.7707
174 1 16.653 4.98564 8.25631
175 1 14.9666 4.49424 13.0802
176 1 13.3851 4.2227 17.5737
177 1 11.5435 3.74802 22.2124
178 1 10.5762 5.25268 24.7053
179 1 10.0014 3.68767 26.8231
180 1 9.37613 2.07056 29.2348
181 1 8.88049 4.87014 29.2522
182 1 8.43419 3.46853 31.5994
183 1 8.0014 1.84518 33.8145
184 1 7.47919 4.70024 34.077
185 1 6.92019 3.16246 36.3806
186 1 6.30848 1.6884 38.7227
187 1 5.59427 4.50149 38.9906
188 1 18.3431 5.3695 10.6587
189 1 16.5957 4.84326 15.3521
190 1 15.0135 4.55884 20.0988
191 1 13.1453 3.96361 24.5194
192 1 11.5444 3.93273 29.1213
193 1 10.4869 5.34076 31.5828
194 1 10.0813 3.87832 33.9107
195 1 9.55932 2.18447 36.0575
196 1 9.11322 5.08427 36.2356
197 1 8.84361 3.33614 38.3096
198 1 3.04865 5.13067 17.7904
199 1 16.6269 4.75685 22.4045
200 1 14.9742 4.43927 26.8612
201 1 13.2286 4.41069 31.6292
202 1 11.6862 4.1495 36.4969
203 1 10.7332 5.7591 38.5147
204 1 18.1466 5.31319 24.6019
205 1 16.6152 4.99839 29.1667
206 1 14.943 4.57779 33.8565
207 1 13.2772 4.34282 38.8473
208 1 18.3918 5.31156 31.62
209 1 16.7064 5.09989 36.2552
210 1 18.3351 5.44299 38.8943
211 2 14.3466 1.99838 102.35
212 1 14.9392 1.67698 99.5138
213 1 3.4767 1.19021 103.409
214 1 2.22598 1.836 99.1397
215 1 1.44264 2.16319 101.752
216 2 15.9479 1.36926 97.0109
217 1 14.681 1.9076 94.9203
218 1 6.0288 2.60843 102.826
219 1 6.58653 2.05839 100.204
220 1 1.65577 0.583257 94.7955
221 1 4.55259 3.38508 98.9582
222 2 4.15 1.80579 101.052
223 1 3.96813 1.76107 93.6334
224 1 17.1353 3.21801 95.2108
225 1 15.6613 1.16607 90.7961
226 1 2.90721 2.35786 90.8137
227 2 16.6514 2.18517 92.8497
228 1 15.5417 0.69013 88.0456
229 1 8.24435 1.14494 95.8406
230 1 7.0435 1.66395 89.1909
231 1 4.70139 0.0687133 90.1595
232 1 11.89 5.44686 103.635
233 1 3.60084 3.9112 102.485
234 1 8.18105 3.91404 101.98
235 1 6.01072 5.34561 103.413
236 2 7.97204 1.22036 102.462
237 2 5.64755 4.25217 100.976
238 1 7.08786 4.55359 98.7599
239 2 6.49512 2.23569 97.6154
240 1 4.56259 3.01799 96.1787
241 1 12.2925 2.31823 103.392
242 1 10.0288 2.03371 101.095
243 1 10.2106 0.0621114 98.9252
244 2 11.4794 2.21587 99.0334
245 1 10.2395 4.40789 99.7347
246 1 8.90474 2.57063 98.2179
247 1 11.0382 1.31649 96.7692
248 1 7.3707 3.85488 95.9426
249 1 11.2688 3.87691 97.215
250 2 9.16069 5.10056 97.249
251 1 8.08371 4.00916 92.9534
252 2 8.73607 2.34396 91.1345
253 1 10.0896 4.53586 91.2903
254 1 6.12337 2.27596 91.7695
255 1 8.43241 0.941504 93.1181
256 1 10.0663 4.28437 94.9118
257 1 7.20095 4.25012 90.1722
258 1 9.18719 3.30675 88.5628
259 1 12.67 3.1966 100.908
260 2 10.7037 4.05412 102.396
261 1 12.4895 5.97442 100.87
262 2 12.928 4.50801 98.8396
263 1 14.9655 4.63305 100.677
264 1 11.4447 6.62229 98.2514
265 1 13.4359 5.38678 96.4314
266 2 6.41313 2.12395 94.3387
267 2 4.88089 2.81035 89.3786
268 1 10.8704 5.65734 88.6013
269 1 17.5546 4.63034 99.8809
270 1 13.6002 2.51542 97.2971
271 1 10.6978 2.34273 92.9601
272 1 11.3016 2.02611 90.257
273 2 13.7041 1.97075 89.3047
274 1 11.9402 3.34319 87.9532
275 2 2.67766 4.06072 97.3705
276 1 15.501 4.1088 98.1381
277 1 16.1497 5.67196 95.9485
278 2 12.3981 3.04894 94.9471
279 1 13.4297 2.62231 92.2409
280 2 10.4025 0.281625 94.4994
281 1 12.2909 4.92135 92.9967
282 1 12.861 4.47094 90.1435
283 1 15.0706 4.35187 93.657
284 1 15.8488 3.94889 90.9526
285 1 9.41198 0.443373 89.2266
286 1 14.3366 6.59946 102.852
287 1 5.6023 0.395111 95.8949
288 2 16.6199 5.10239 102.577
289 1 12.336 0.508488 100.831
290 1 4.75316 6.05227 99.0666
291 1 4.01661 6.38187 101.619
292 1 13.0723 0.0427035 98.2019
293 1 12.7397 0.345757 93.7986
294 1 17.2016 6.58482 91.0465
295 1 14.5725 6.33294 91.6856
296 2 15.6267 5.90004 89.1149
297 1 5.45837 4.4214 93.9131
298 1 3.46378 5.56602 95.3857
299 1 17.9403 4.45759 92.9725
300 1 4.55289 4.80887 91.0431
301 2 19.2691 6.57786 93.0016
302 1 9.67194 6.43445 102.119
303 1 2.87669 0.186484 97.1041
304 1 6.89327 6.38014 100.928
305 1 4.7665 0.460409 98.8598
306 2 7.72365 5.89577 94.6554
307 1 6.42843 6.5721 92.1842
308 1 18.0676 4.57003 88.9952
309 2 6.20084 6.63981 89.5189
310 1 9.86485 6.45121 93.219
311 2 11.4354 6.66819 91.0079
312 1 5.60063 4.71006 88.0076
313 1 2.87404 1.87252 88.0797
314 1 12.6011 0.880428 87.266
315 2 16.3579 6.63966 84.961
316 1 14.1526 0.218915 82.8131
317 1 5.7041 2.23011 83.0456
318 1 1.79002 0.178369 83.5918
319 2 0.602598 0.943311 81.2465
320 1 19.057 6.53401 77.0428
321 1 1.62628 0.507207 75.0735
322 1 1.84195 0.811794 78.9599
323 1 14.1275 0.314286 74.1951
324 1 3.81278 1.61536 85.0491
325 2 4.39675 0.116053 82.8891
326 1 6.41455 0.222211 84.8836
327 1 2.87587 2.22323 82.0825
328 1 5.08836 0.930059 80.605
329 1 2.3793 1.60607 72.7206
330 1 9.13561 0.208787 84.1971
331 2 9.78114 0.245066 81.5611
332 1 11.2418 6.42293 82.191
333 1 7.73704 1.3545 79.9476
334 2 5.73014 2.44159 78.3822
335 1 3.77151 0.859006 76.9011
336 1 4.46949 0.368152 74.3015
337 1 6.81659 0.226742 77.7585
338 1 11.4475 6.47065 75.1229
339 1 5.5801 2.02543 86.9616
340 1 15.9709 3.28809 79.936
341 2 8.138 0.88559 86.9038
342 2 9.93912 4.67182 86.3587
343 1 7.69171 2.77884 84.9826
344 1 11.4495 1.67596 83.0748
345 1 10.4656 2.06846 85.7783
346 1 10.2581 4.03995 83.73
347 1 8.44612 2.333 82.3305
348 1 8.24482 2.78935 77.6819
349 1 9.01877 2.44754 75.0703
350 1 6.3942 2.25299 75.6886
351 2 7.33567 1.62084 73.0446
352 1 14.4784 3.24619 87.3062
353 1 12.9212 4.17037 82.8974
354 1 12.3346 4.63295 85.5301
355 2 11.138 3.40791 81.1225
356 1 10.3396 4.42727 78.7066
357 1 16.6876 4.80595 86.9012
358 1 17.7655 4.22394 84.1075
359 1 12.6175 0.351086 77.6303
360 1 10.3001 1.59045 79.2339
361 1 12.4705 3.02121 78.7915
362 1 9.71119 0.257234 76.8015
363 1 11.5498 0.992534 74.8978
364 2 10.8691 2.439 76.9178
365 1 16.4787 2.27465 85.6982
366 1 15.3968 5.70638 82.7918
367 2 15.014 4.29792 84.9071
368 1 13.5319 1.99899 80.836
369 1 13.6594 2.0886 84.8148
370 1 15.5763 2.79998 82.77
371 2 14.6707 1.72519 78.5826
372 1 13.6613 2.50598 76.1698
373 1 14.9864 4.43423 77.7646
374 1 12.9265 5.54932 79.6135
375 1 9.64055 0.509392 73.0342
376 1 11.2873 3.80726 74.9066
377 2 13.1553 2.4578 73.4526
378 1 13.9398 4.97346 74.8946
379 2 12.4283 4.82506 77.0838
380 1 11.2099 3.28223 72.2088
381 1 3.72275 3.36796 79.6601
382 1 16.5845 2.51474 77.0195
383 1 2.73682 4.33529 73.1408
384 1 15.6645 3.0235 74.2849
385 2 2.9903 2.65139 75.0024
386 1 12.412 0.630804 71.8013
387 1 14.3292 6.05461 86.875
388 1 18.8014 6.29807 85.6648
389 2 3.54374 3.69118 86.5948
390 2 17.3216 4.62879 81.5295
391 1 15.7821 6.04831 80.1151
392 1 8.14033 5.86713 87.7148
393 1 5.44786 4.29512 85.1332
394 2 6.97541 4.51376 82.9378
395 1 4.34679 4.67122 82.2615
396 1 6.38884 3.65351 80.6929
397 1 18.6832 6.16281 79.8269
398 1 6.63871 6.23946 81.1022
399 2 4.47604 4.97567 75.1124
400 1 17.0629 4.96233 75.7103
401 1 4.12042 3.57931 77.0534
402 1 5.06476 5.67287 72.6728
403 1 7.93534 5.37818 84.9958
404 2 6.17987 6.65393 86.4234
405 2 17.3802 4.67784 78.2916
406 2 15.6827 5.53077 73.2822
407 1 8.96965 4.92045 81.1542
408 1 6.35629 5.09828 76.9499
409 1 7.06996 4.70117 74.3189
410 2 9.49315 4.58772 73.4217
411 1 7.70305 5.78559 72.03
412 2 8.12822 5.87012 78.8235
413 1 9.04496 5.0854 76.2301
414 1 4.93906 2.90519 73.2794
415 2 1.72779 0.504124 70.524
416 1 5.97544 6.58707 67.7595
417 1 10.1217 5.75187 71.1938
418 1 4.71023 0.104268 66.9291
419 1 4.03011 0.4091 69.6441
420 2 6.79673 5.8534 65.1783
421 1 1.83292 0.165902 62.8125
422 1 8.19568 0.733515 70.8746
423 1 9.25668 0.0771101 68.2135
424 1 8.15367 5.4493 62.9005
425 1 6.98708 1.42561 66.9352
426 2 6.50274 0.0509322 68.9072
427 1 6.46219 0.246757 61.9324
428 1 4.47931 1.50487 63.5852
429 1 7.02932 6.23955 58.9849
430 1 5.48189 0.801161 59.013
431 2 3.92624 0.57949 61.1506
432 1 6.85513 5.59003 56.2426
433 1 14.7421 5.84456 63.6841
434 1 9.7533 0.206531 57.1376
435 1 11.34 5.52656 58.1387
436 1 13.8517 4.3131 72.1366
437 1 5.88231 2.06277 70.776
438 1 10.6521 2.08316 69.7436
439 1 8.55302 3.40388 71.254
440 2 14.3317 6.16096 70.5779
441 2 7.92091 2.57166 69.0574
442 1 9.69362 2.49905 66.9748
443 2 8.897 0.350856 65.6285
444 1 7.26456 1.78906 64.2903
445 1 15.1935 1.56688 71.7887
446 1 12.351 0.0323401 69.0921
447 1 16.5925 4.90997 67.0057
448 2 14.056 0.345705 66.985
449 1 12.5693 2.67009 67.6983
450 1 11.4234 0.665089 66.1394
451 1 17.3864 6.1001 64.599
452 1 10.1253 2.00956 63.9265
453 1 13.6869 2.07015 65.1514
454 2 11.6151 3.28791 65.3647
455 1 10.7727 2.31182 61.0972
456 2 11.3559 0.765118 59.0152
457 1 12.7572 2.97288 59.0585
458 1 8.70665 0.679375 59.7599
459 1 14.9663 6.10546 60.9949
460 1 12.734 3.02447 62.9601
461 1 9.80574 2.88146 58.3045
462 1 12.0042 1.76684 56.7479
463 1 15.0618 1.35494 69.1139
464 2 13.0855 2.36394 70.4074
465 1 14.5882 4.06991 69.0858
466 2 15.3853 2.62788 66.9796
467 1 2.05616 2.5982 68.7764
468 1 13.8896 4.75943 66.126
469 1 16.0397 3.47715 64.7046
470 2 8.94687 0.547614 62.5342
471 2 7.4928 1.21544 57.4364
472 1 13.4766 4.15133 56.7812
473 1 4.70866 2.82612 68.2636
474 1 0.612467 0.781064 65.1991
475 1 13.2185 0.856214 60.9639
476 1 13.9721 0.437566 58.3552
477 2 1.13014 0.320482 57.5328
478 1 14.6765 1.698 56.1102
479 2 5.26927 2.80913 65.6391
480 1 2.79888 2.12931 66.2001
481 1 3.22147 3.84404 64.027
482 2 14.9835 1.56441 62.8749
483 1 0.597038 0.935024 60.1647
484 2 16.6195 4.88733 62.3745
485 1 14.8023 3.42805 60.9559
486 1 15.5893 2.94313 58.294
487 1 2.37805 2.75248 61.5425
488 1 3.17639 2.37138 59.0072
489 1 16.0732 5.48315 57.1971
490 1 16.4618 4.30206 70.8684
491 1 11.9004 5.59839 63.9898
492 2 3.82258 3.38806 70.9166
493 1 3.42302 5.34378 69.0096
494 1 7.0575 4.19378 67.1444
495 1 6.30239 4.65575 69.9839
496 1 4.19351 4.93836 66.3691
497 1 3.77205 5.38124 61.7959
498 1 4.66776 4.90012 59.1487
499 1 17.2208 4.76064 59.6965
500 2 3.0561 4.3388 57.155
501 1 8.15419 2.69937 61.9547
502 1 5.81193 4.12206 63.4165
503 1 5.19215 2.72062 60.9236
504 1 7.30277 3.41987 58.8285
505 2 6.58475 4.83638 61.0132
506 1 12.1471 4.75768 69.8445
507 1 9.15983 4.28861 65.0474
508 1 9.31449 4.53113 68.7712
509 1 11.1161 5.27581 66.8316
510 2 10.2993 4.25676 62.5749
511 1 9.20847 4.95197 60.3277
512 1 5.40795 2.95534 57.1144
513 2 8.94241 5.05228 57.5858
514 1 12.2028 4.88951 61.0401
515 2 13.9567 5.20012 58.9734
516 1 8.09193 3.07584 55.8585
517 1 5.39638 0.212692 56.2406
518 1 4.24249 6.04635 55.2106
519 2 3.61642 4.96197 52.9514
520 1 5.12105 5.14113 50.6861
521 1 8.14773 0.742682 51.0645
522 1 8.56382 4.88865 51.8084
523 2 7.17694 5.86576 49.5827
524 1 6.0674 4.49268 45.0699
525 1 8.16193 5.23515 43.1104
526 1 8.13388 5.19202 46.8121
527 1 5.53617 5.09728 42.2185
528 1 10.3863 6.62158 53.1106
529 2 10.9856 5.17651 51.0148
530 1 12.9773 5.08641 52.9189
531 1 5.42261 0.554393 50.0431
532 1 11.5985 6.14499 48.6133
533 1 9.10199 6.45737 40.7628
534 1 15.6307 5.29416 52.3778
535 2 16.2722 5.32065 49.6283
536 1 13.6699 4.75484 50.2535
537 1 14.1954 6.30124 48.024
538 2 8.27905 1.00986 46.3412
539 1 10.3517 5.59826 44.9861
540 1 11.2151 5.15992 42.5168
541 1 13.2062 5.02647 45.8072
542 1 14.0234 4.65539 43.2661
543 1 8.18646 0.146876 54.9858
544 1 3.53151 1.24932 48.0781
545 2 14.7972 5.88204 54.9178
546 2 12.6037 2.93122 54.612
547 1 10.2604 1.007 53.0768
548 1 14.1195 -0.000992393 51.1497
549 1 13.1866 0.434075 53.8485
550 1 12.9601 2.4461 51.8561
551 1 11.2235 0.685469 50.403
552 1 10.8208 0.943709 45.6728
553 1 11.5499 0.421949 43.1132
554 1 8.7704 0.395556 43.7435
555 2 13.774 6.31622 41.0536
556 1 1.84775 1.59623 55.3673
557 1 15.4904 2.66815 51.1957
558 1 15.1283 2.91144 53.8113
559 2 13.775 1.72793 49.2411
560 1 12.7764 2.45922 46.7675
561 1 4.01797 3.22744 54.832
562 1 4.93868 2.80298 52.2238
563 1 3.61748 5.13617 45.9264
564 1 16.8255 6.39749 47.4585
565 1 15.04 1.21477 46.9691
566 1 16.1336 4.98573 45.1125
567 1 18.0329 5.58719 43.1337
568 2 13.4938 0.452235 45.1435
569 1 3.80642 0.553652 53.7863
570 1 2.57996 4.01339 50.9599
571 2 2.31838 2.62134 52.8877
572 1 0.944333 0.695766 49.1772
573 1 1.12827 0.387853 52.7444
574 1 2.93788 1.37558 50.7743
575 2 5.85968 6.64727 46.6515
576 1 0.768889 0.577073 44.1207
577 1 1.98256 2.47975 45.8439
578 1 15.1888 3.90758 47.6174
579 1 16.0031 5.10572 41.2397
580 1 13.8098 1.82444 43.1044
581 2 0.376227 0.520789 41.5972
582 1 16.4153 3.10268 43.1388
583 2 14.7982 2.86522 45.1344
584 1 14.6463 2.88119 40.8688
585 1 6.50347 1.91884 47.7887
586 1 3.66254 0.536902 45.155
587 1 5.029 2.57659 41.0389
588 1 2.91818 0.896202 42.1372
589 2 5.40594 0.701917 43.0099
590 1 13.2734 0.651777 40.8702
591 1 17.1287 4.5315 54.8491
592 1 6.36068 4.63659 53.76
593 2 6.14822 1.96301 54.768
594 2 4.57454 2.91417 49.521
595 1 2.7251 4.0439 48.2339
596 1 10.7578 4.28365 55.7711
597 1 7.97396 2.52341 53.1514
598 2 9.77586 2.7541 51.0494
599 1 7.02962 3.24899 50.1021
600 1 9.1641 1.93454 48.7588
601 1 5.49043 4.6531 48.0112
602 1 9.36528 4.5959 49.0563
603 2 6.78118 3.05157 42.8871
604 1 4.00937 3.09274 43.5172
605 1 6.39054 1.76804 44.9842
606 1 7.52359 3.81848 40.635
607 1 10.6641 3.69955 53.1918
608 2 8.86213 4.96616 54.3664
609 2 4.4887 2.75643 46.3541
610 2 2.69527 3.4818 41.0136
611 1 11.6378 3.17526 49.2578
612 1 8.70231 3.18944 44.9043
613 1 9.72148 2.77655 42.4034
614 2 12.2203 2.8739 41.6252
615 1 10.2892 4.14559 40.3542
616 2 10.5211 3.63822 46.8438
617 1 11.5609 3.19665 44.3926
618 1 7.39594 1.03338 41.3184
ITEM: TIMESTEP
4000
ITEM: NUMBER OF ATOMS
618
ITEM: BOX BOUNDS xy xz yz pp pp ff
0.0000000000000000e+00 1.9317770367296919e+01 4.0025167278329121e+00
0.0000000000000000e+00 6.6702723500479264e+00 0.0000000000000000e+00
0.0000000000000000e+00 1.0921147561319708e+02 0.0000000000000000e+00
ITEM: ATOMS id type x y z
1 1 4.77385 5.92152 6.2436
2 1 6.13022 6.0361 8.76253
3 1 4.39656 5.53378 13.5247
4 1 9.60735 6.67759 6.34676
5 1 7.71039 6.31976 11.2669
6 1 5.94415 5.98 15.8996
7 1 4.4868 5.58362 20.258
8 1 12.0788 5.58044 6.40578
9 1 7.10786 0.276968 8.75563
10 1 9.35737 6.64838 13.5616
11 1 7.77568 6.25886 18.0872
12 1 5.99615 6.09592 22.7141
13 1 4.44728 5.67312 27.3194
14 1 10.3089 0.971758 6.39902
15 1 13.8514 6.07109 8.78567
16 1 8.74124 0.369298 11.106
17 1 12.2236 5.69281 13.3126
18 1 7.00749 0.115224 15.8091
19 1 5.36216 -0.0506006 20.3386
20 1 7.8326 6.24574 25.0879
21 1 6.10054 6.06777 29.6747
22 1 4.2167 5.83337 34.2686
23 1 16.794 6.76828 6.1622
24 1 12.4718 2.95986 6.41271
25 1 12.3907 1.35075 8.72177
26 1 15.3268 6.15956 11.1512
27 1 11.0024 2.32539 11.2231
28 1 10.1404 0.792323 13.5637
29 1 13.7452 5.94302 15.8642
30 1 8.67879 0.525243 18.0934
31 1 12.0532 5.66547 20.4364
32 1 6.97768 0.164342 22.5572
33 1 5.47075 0.00399743 27.2408
34 1 7.6271 6.50789 32.0109
35 1 5.90596 6.1918 36.6302
36 1 15.1595 1.93798 6.13789
37 1 14.7098 0.338777 8.38721
38 1 14.4268 3.2604 8.69883
39 1 13.68 1.48522 11.1138
40 1 12.997 0.187007 13.3298
41 1 12.5489 2.81803 13.4807
42 1 11.9174 1.37461 15.6759
43 1 15.3963 6.33039 18.0977
44 1 10.8364 2.47686 18.0894
45 1 10.3046 0.965813 20.3464
46 1 13.7047 5.98194 22.6634
47 1 8.72856 0.733938 25.2061
48 1 12.0541 5.85275 27.2987
49 1 7.05358 0.294176 29.5208
50 1 9.28407 6.81791 34.1403
51 1 7.29001 6.33438 38.8523
52 1 2.90316 0.995279 6.17882
53 1 2.34768 3.81304 6.16384
54 1 1.6969 2.09984 8.55188
55 1 1.04635 0.566563 10.961
56 1 15.9647 3.31274 11.0428
57 1 15.2801 1.74387 13.397
58 1 14.4792 0.191085 15.607
59 1 14.159 3.05132 15.6757
60 1 13.4427 1.61702 18.1959
61 1 13.0459 -0.103863 20.4973
62 1 12.4325 2.97868 20.4811
63 1 11.7597 1.22827 22.759
64 1 15.2883 6.40138 25.0967
65 1 10.8589 2.65839 25.0887
66 1 10.4598 0.968118 27.4266
67 1 13.7544 6.25009 29.6825
68 1 8.73605 0.712687 31.8858
69 1 12.1468 5.94745 34.4578
70 1 6.87854 0.492613 36.5278
71 1 5.16044 2.94071 6.33506
72 1 4.333 1.18576 8.70107
73 1 3.99154 4.20669 8.59164
74 1 3.36569 2.49059 10.8726
75 1 2.68031 0.889638 13.4653
76 1 2.11276 3.77985 13.1803
77 1 1.57035 2.18126 15.7108
78 1 0.827549 0.486688 17.9941
79 1 15.7694 3.35896 17.9818
80 1 15.1588 1.85793 20.3533
81 1 14.5845 0.330769 22.7943
82 1 14.2229 3.0223 22.825
83 1 13.533 1.64728 25.1797
84 1 17.0357 6.60691 27.4448
85 1 12.5104 2.81302 27.3597
86 1 12.019 1.21981 29.6336
87 1 15.3831 6.41856 31.9347
88 1 10.9655 2.58229 31.8912
89 1 10.382 1.00028 34.1653
90 1 13.6694 6.26609 36.6497
91 1 8.63256 0.713134 38.9745
92 1 7.79027 1.7082 6.20547
93 1 7.38813 4.77147 6.29845
94 1 6.67975 3.12156 8.70895
95 1 6.06214 1.61024 11.1618
96 1 5.59986 4.44209 11.0868
97 1 4.92125 2.74527 13.3436
98 1 4.40128 1.06397 15.7912
99 1 3.87052 3.91398 15.7191
100 1 3.35252 2.46937 18.0024
101 1 2.73528 0.931314 20.293
102 1 17.4653 3.64223 20.2498
103 1 1.62846 2.06388 22.7604
104 1 1.00016 0.528492 25.1264
105 1 15.8937 3.44562 24.9921
106 1 15.3634 1.93833 27.5299
107 1 14.7992 0.362098 29.6263
108 1 14.1733 3.17389 29.7496
109 1 13.6055 1.64861 32.0079
110 1 16.9327 6.83015 34.171
111 1 12.525 3.15848 34.3346
112 1 11.9107 1.37708 36.5516
113 1 14.9899 6.2278 39.0074
114 1 11.1101 2.10542 39.2587
115 1 9.88434 3.83155 6.37814
116 1 9.30852 2.22729 8.81589
117 1 8.6853 5.06433 8.86822
118 1 8.18304 3.36589 11.063
119 1 7.58472 1.85462 13.5257
120 1 7.11806 4.57323 13.4768
121 1 6.57241 2.98438 15.8216
122 1 6.04576 1.40898 18.1275
123 1 5.408 4.27609 18.0365
124 1 4.8475 2.67902 20.3947
125 1 4.37154 1.2493 22.782
126 1 3.85826 4.14144 22.6818
127 1 3.30648 2.40457 25.1101
128 1 2.77959 0.841387 27.3355
129 1 2.19701 3.86011 27.4214
130 1 1.72652 2.19097 29.5209
131 1 0.891852 0.761822 32.0512
132 1 15.7489 3.63236 32.0224
133 1 15.2934 2.04488 34.3823
134 1 14.6891 0.349401 36.551
135 1 14.1475 3.3425 36.7324
136 1 13.6764 1.63856 38.7279
137 1 11.556 4.04344 8.86187
138 1 10.3899 5.3402 11.1583
139 1 9.77484 3.82811 13.423
140 1 9.19402 2.02635 15.7905
141 1 8.67179 5.05915 15.7492
142 1 8.1944 3.36546 18.1819
143 1 7.54931 1.80087 20.502
144 1 7.08768 4.72357 20.313
145 1 6.54267 3.23911 22.4999
146 1 6.08006 1.48291 24.8542
147 1 5.54519 4.35235 24.9331
148 1 4.8489 2.76692 27.2052
149 1 4.35033 1.42342 29.8153
150 1 3.83215 4.27285 29.7198
151 1 3.16516 2.65498 32.0266
152 1 2.72145 1.15698 34.307
153 1 2.055 3.87407 34.3169
154 1 1.5839 2.27991 36.7122
155 1 0.91716 0.824855 39.5907
156 1 15.8245 3.53083 39.0817
157 1 14.786 4.80219 6.19694
158 1 13.2399 4.33123 11.1002
159 1 11.4471 4.11756 15.6097
160 1 10.3737 5.19133 18.1447
161 1 9.78372 3.90105 20.4089
162 1 9.03246 2.05067 22.6338
163 1 8.81624 5.02228 22.8007
164 1 8.17962 3.4192 25.004
165 1 7.46887 2.01738 27.3516
166 1 7.13662 4.73543 27.3874
167 1 6.58466 3.23237 29.7086
168 1 5.88269 1.6271 31.9378
169 1 5.4042 4.38576 31.8923
170 1 4.93358 2.9788 34.3725
171 1 4.36987 1.35195 36.7107
172 1 3.82817 4.24144 36.7357
173 1 3.31706 2.64701 39.1201
174 1 16.5311 4.97289 8.60388
175 1 15.0607 4.66574 13.1849
176 1 13.1004 4.42695 18.0471
177 1 11.4666 4.16802 22.7334
178 1 10.5988 5.35541 24.9256
179 1 9.8417 3.92557 27.3116
180 1 9.40766 2.51863 29.5953
181 1 8.73696 5.15013 29.5189
182 1 8.12845 3.66623 31.9589
183 1 7.56336 2.02263 34.0313
184 1 6.85872 4.97847 34.2328
185 1 6.62087 3.21168 36.6178
186 1 6.08011 1.94117 38.953
187 1 5.19294 4.65139 39.3963
188 1 18.1645 5.39678 11.1257
189 1 16.369 4.9666 15.5991
190 1 14.9269 4.72849 20.4654
191 1 13.1614 4.4896 25.1706
192 1 11.6613 4.2584 29.579
193 1 10.5235 5.57315 31.9219
194 1 9.84079 3.99886 34.1199
195 1 9.13605 2.17563 36.2224
196 1 8.58838 5.18476 36.3855
197 1 8.78016 3.29339 38.596
198 1 17.942 5.3029 17.9701
199 1 16.4271 4.97144 22.7892
200 1 14.7886 4.77393 27.4193
201 1 13.1094 4.5275 31.9394
202 1 11.2101 4.07341 36.6739
203 1 10.4611 5.96453 38.6405
204 1 18.0336 5.24454 25.0646
205 1 16.4361 5.08034 29.7287
206 1 14.6551 4.94437 34.3908
207 1 12.7181 4.52616 39.1744
208 1 18.0506 5.58645 31.9492
209 1 16.3536 5.05957 36.7305
210 1 17.8693 5.41075 39.1367
211 2 14.5581 1.61622 102.001
212 1 15.2152 1.4371 99.1943
213 1 3.6034 0.86136 102.851
214 1 2.56787 1.52397 98.4265
215 1 1.79287 2.11093 101.095
216 2 0.724577 0.75489 96.5446
217 1 14.9179 1.62954 94.246
218 1 6.20864 2.17558 102.515
219 1 6.8872 1.5873 99.7445
220 1 1.87497 0.363223 94.3827
221 1 4.77077 2.89526 98.2468
222 2 4.33636 1.72126 100.498
223 1 4.25929 1.69277 93.3695
224 1 2.15164 2.96182 94.8759
225 1 15.7982 1.14889 90.4511
226 1 3.1666 2.1699 90.4286
227 2 1.49807 2.04922 92.4956
228 1 15.9589 0.909096 87.6716
229 1 8.46675 0.613748 95.3058
230 1 7.26725 1.67724 88.7532
231 1 5.07909 0.211028 89.9916
232 1 12.1234 5.13983 103.069
233 1 3.86091 3.76405 102.334
234 1 8.4146 3.44869 101.538
235 1 6.36926 4.93939 102.844
236 2 8.26721 0.837512 102.047
237 2 5.93583 3.92469 100.557
238 1 7.40858 3.99212 98.4298
239 2 6.7472 1.7724 97.0656
240 1 5.05191 3.31366 95.6806
241 1 12.7817 2.33574 103.122
242 1 10.3901 1.74005 100.808
243 1 14.4589 6.39485 98.6323
244 2 11.8024 1.8195 98.6005
245 1 10.4432 4.12023 99.3196
246 1 9.16223 2.15422 97.6587
247 1 11.0406 0.8201 96.2803
248 1 7.80246 3.41554 95.5812
249 1 11.6265 3.52705 96.6532
250 2 9.48887 4.77904 96.8044
251 1 8.4332 3.60082 92.6616
252 2 9.00792 2.26203 90.5428
253 1 10.2737 4.38588 90.5142
254 1 6.38141 2.16047 91.3085
255 1 8.60122 0.691607 92.6751
256 1 10.3079 4.22244 94.4533
257 1 7.52365 4.2639 89.7321
258 1 9.65782 3.18565 88.0265
259 1 12.9964 2.76298 100.381
260 2 11.0633 3.79547 101.919
261 1 12.7449 5.59175 100.49
262 2 13.198 4.21311 98.3618
263 1 15.1619 4.19015 100.284
264 1 11.6641 6.17695 97.7118
265 1 13.8097 4.95246 96.0924
266 2 6.71668 1.9006 93.8701
267 2 5.17604 2.9121 88.9841
268 1 11.1373 5.71747 88.303
269 1 17.9394 4.2814 99.5402
270 1 13.9016 2.10961 96.7104
271 1 10.873 2.11609 92.389
272 1 11.6397 1.96269 89.7589
273 2 14.1036 2.14265 89.0899
274 1 12.3259 3.50686 87.5862
275 2 3.15575 4.24269 96.913
276 1 15.9415 3.88482 97.6523
277 1 16.3476 5.29948 95.4771
278 2 12.7173 2.77477 94.4473
279 1 13.6825 2.4571 91.6869
280 2 10.3429 -0.146854 93.9463
281 1 12.2406 4.77228 92.5159
282 1 13.1686 4.41967 89.9234
283 1 15.3393 4.129 93.1792
284 1 16.1384 3.85926 90.517
285 1 9.6667 0.395176 88.8203
286 1 14.7335 6.135 102.466
287 1 5.58967 0.286626 95.6348
288 2 16.8615 4.77218 102.199
289 1 12.7063 0.0722667 100.433
290 1 5.03572 5.60134 98.6081
291 1 4.47428 6.23599 101.174
292 1 17.4276 6.40192 97.7896
293 1 12.8421 -0.0312068 93.1522
294 1 17.7075 6.29125 90.5421
295 1 14.7788 6.1856 91.2954
296 2 15.7612 5.74783 88.5859
297 1 6.10241 4.23861 93.4275
298 1 3.6323 5.42075 94.7045
299 1 2.97884 4.10314 92.4196
300 1 4.9349 4.89027 90.4482
301 2 4.33978 6.2984 92.5152
302 1 9.89121 5.97751 101.527
303 1 6.82564 5.9789 96.624
304 1 7.20058 6.12566 100.35
305 1 5.08913 -0.0109417 98.4039
306 2 8.03013 5.61333 94.0514
307 1 6.97484 6.47981 91.7064
308 1 18.1347 4.25747 88.7844
309 2 6.50473 6.68167 89.1984
310 1 10.1022 6.33601 92.8073
311 2 11.6909 6.54165 90.5866
312 1 5.55014 4.98988 87.655
313 1 3.32814 1.76815 87.5701
314 1 13.0577 1.04252 86.9625
315 2 12.6242 0.0591294 84.6151
316 1 14.3815 0.11955 82.5012
317 1 6.01896 2.38226 82.813
318 1 2.05854 0.166414 83.3387
319 2 0.950568 0.754424 81.0231
320 1 3.84994 6.43023 76.7647
321 1 1.89261 0.414678 74.8587
322 1 1.76456 0.156434 78.6746
323 1 14.2325 0.238308 73.9397
324 1 3.98945 1.6672 84.6407
325 2 8.72536 6.80324 82.5915
326 1 6.66371 0.155809 84.4993
327 1 3.23429 2.32231 81.8553
328 1 5.41911 1.01942 80.2992
329 1 2.57947 1.5973 72.5784
330 1 9.47268 0.353261 83.8521
331 2 10.1128 0.304646 81.0773
332 1 11.5217 6.40211 81.7824
333 1 8.02502 1.36389 79.6761
334 2 6.03101 2.58336 78.2073
335 1 4.0529 0.799157 76.8902
336 1 4.72024 0.502055 74.17
337 1 6.84863 0.108714 77.4989
338 1 11.5804 6.27687 74.8379
339 1 5.8258 2.11984 86.5788
340 1 16.5845 2.85646 79.6998
341 2 8.1672 0.585507 86.3882
342 2 10.2961 4.68284 86.0087
343 1 8.27105 2.75523 84.8188
344 1 11.7659 1.66466 82.7443
345 1 11.0645 2.19979 85.3954
346 1 10.5529 4.11852 83.3754
347 1 8.83697 2.29986 82.0133
348 1 8.37365 2.64622 77.37
349 1 9.0039 2.18136 74.6459
350 1 6.42658 2.1402 75.6066
351 2 7.09499 1.23525 72.9402
352 1 14.6621 3.31386 86.7542
353 1 13.3378 4.24475 82.6306
354 1 12.5512 4.77288 85.2012
355 2 11.5384 3.42679 80.7391
356 1 10.3829 4.1586 78.4856
357 1 16.962 4.95021 86.511
358 1 17.9854 4.39946 83.7833
359 1 12.6604 0.174203 77.4486
360 1 10.5708 1.46074 78.9121
361 1 12.8318 2.96732 78.5405
362 1 9.59312 0.107786 76.8052
363 1 11.5808 0.870872 74.9064
364 2 11.0509 2.17861 76.6951
365 1 1.54133 2.29526 85.3573
366 1 15.6716 5.63497 82.5329
367 2 15.1808 4.25939 84.5716
368 1 13.7992 2.00552 80.7134
369 1 13.9165 2.08948 84.3729
370 1 15.9424 2.69566 82.5057
371 2 14.9031 1.64241 78.3552
372 1 13.7439 2.33843 75.9682
373 1 15.0855 4.20776 77.6006
374 1 12.9044 5.58495 79.1619
375 1 9.65494 0.219703 72.9099
376 1 11.4332 3.61866 74.7816
377 2 13.393 2.5681 73.3715
378 1 14.0617 4.85234 74.8268
379 2 12.5101 4.63799 76.7628
380 1 11.6872 3.71061 72.1253
381 1 4.07809 3.26486 79.5254
382 1 1.68965 2.35086 76.8936
383 1 2.91608 4.24874 72.9213
384 1 15.8123 2.85214 73.8935
385 2 3.27964 2.55804 74.9578
386 1 12.3163 0.884492 71.8865
387 1 14.615 6.14671 86.3029
388 1 19.2722 6.3327 85.3682
389 2 3.7626 3.80803 86.2215
390 2 17.5867 4.53467 81.1734
391 1 15.8691 5.78278 79.8081
392 1 8.38363 5.82075 87.5353
393 1 5.80997 4.42283 84.6844
394 2 7.39908 4.33611 82.7656
395 1 4.78745 4.83325 81.8144
396 1 6.85722 3.60833 80.4435
397 1 18.6899 6.18809 79.6578
398 1 7.07325 6.29294 80.8038
399 2 4.58946 4.88693 74.6792
400 1 17.2425 4.78507 75.4693
401 1 4.268 3.54369 76.8795
402 1 5.20891 5.81952 72.5329
403 1 8.38814 5.4474 84.6257
404 2 6.4701 6.65974 86.0082
405 2 17.5511 4.55902 78.1336
406 2 15.9371 5.60025 73.1749
407 1 9.2992 4.73857 80.9416
408 1 6.50807 4.97652 76.6307
409 1 7.14961 4.32436 73.988
410 2 9.73368 4.90717 73.3593
411 1 7.68196 6.05682 71.8477
412 2 8.06814 5.415 78.6863
413 1 9.20887 5.0656 76.0745
414 1 5.06764 2.86052 72.997
415 2 1.69639 0.558231 70.3487
416 1 6.04475 6.70521 67.6741
417 1 10.1445 6.00393 71.0531
418 1 4.78334 0.0854238 66.7843
419 1 4.08159 0.463905 69.4435
420 2 6.96397 6.10907 65.0577
421 1 1.94943 0.357697 62.6346
422 1 8.31627 0.672788 70.743
423 1 9.50224 0.316907 68.1935
424 1 8.15801 5.48704 62.9258
425 1 7.10447 1.69667 66.9408
426 2 6.85257 0.25313 68.7487
427 1 6.49231 0.281228 61.9423
428 1 4.58635 1.44637 63.3838
429 1 6.91629 6.40693 58.9971
430 1 5.45542 0.846337 58.8311
431 2 4.09363 0.630224 60.9521
432 1 6.71565 5.60998 56.2758
433 1 14.8582 5.90546 63.7812
434 1 9.65406 0.293657 57.2266
435 1 11.3168 5.53376 58.2307
436 1 14.2643 4.20292 71.8098
437 1 6.1219 2.04789 70.5105
438 1 10.8491 2.22906 69.7896
439 1 8.76945 3.44546 71.3335
440 2 14.7041 6.33184 70.587
441 2 8.23327 2.68408 69.0532
442 1 9.76118 2.64861 66.7122
443 2 9.20475 0.58395 65.5034
444 1 7.47168 1.84394 64.2366
445 1 15.1164 1.3244 71.5886
446 1 12.3751 0.237198 68.872
447 1 16.9218 4.83042 67.0035
448 2 13.9035 0.430729 66.7253
449 1 12.9516 2.72288 67.6447
450 1 11.5213 0.849709 65.9722
451 1 17.468 6.1979 64.4728
452 1 10.3492 2.15506 63.8637
453 1 13.7538 2.18574 65.0279
454 2 11.7 3.50486 65.3455
455 1 10.66 2.39241 61.1731
456 2 11.2781 1.0138 59.1854
457 1 12.706 3.0167 59.2536
458 1 8.61704 0.938976 59.8336
459 1 14.8654 6.15357 60.9855
460 1 12.8071 3.2298 62.773
461 1 9.72433 2.94262 58.3355
462 1 11.8401 1.95203 56.8579
463 1 15.1202 1.52776 68.9681
464 2 13.2737 2.49938 70.2505
465 1 14.9454 4.20439 68.882
466 2 15.6042 2.68252 66.7412
467 1 2.20563 2.74253 68.7051
468 1 14.0725 4.91692 66.1246
469 1 16.164 3.38569 64.5267
470 2 9.07193 0.471693 62.3642
471 2 7.41408 1.41581 57.5556
472 1 13.5476 4.35653 56.7876
473 1 4.86941 2.97373 68.1515
474 1 0.679958 0.692665 65.1952
475 1 13.1139 0.9748 61.0934
476 1 13.7848 0.315968 58.4796
477 2 0.94007 0.257003 57.4709
478 1 14.3868 1.66944 56.0147
479 2 5.47383 2.74621 65.482
480 1 3.0249 2.27166 66.1894
481 1 3.30987 3.81444 63.9211
482 2 14.996 1.61247 62.8152
483 1 0.496394 0.996469 60.1706
484 2 16.6526 5.00763 62.414
485 1 14.7697 3.47691 60.9094
486 1 15.6073 3.04731 58.1832
487 1 2.40292 2.77737 61.5743
488 1 2.98147 2.38118 58.9933
489 1 15.9214 5.64746 57.2626
490 1 16.873 4.87562 70.7036
491 1 12.0108 5.6397 64.0537
492 2 3.86167 3.40954 70.7369
493 1 3.60297 5.46718 68.8501
494 1 7.25952 4.35195 67.0374
495 1 6.54175 4.62434 69.7145
496 1 4.2691 4.96728 66.2942
497 1 3.83392 5.42718 61.6488
498 1 4.56328 4.92649 59.0466
499 1 17.1224 4.64656 59.7947
500 2 2.8407 4.33269 57.1559
501 1 8.08764 2.9196 61.8325
502 1 5.91248 4.18371 63.2781
503 1 5.16066 2.80418 60.8836
504 1 7.09456 3.52339 58.9816
505 2 6.49181 4.85092 61.0339
506 1 12.2704 4.7788 69.6517
507 1 9.29486 4.70019 64.9716
508 1 9.49737 4.6579 68.6719
509 1 11.4244 5.6093 66.6139
510 2 10.3266 4.29065 62.7157
511 1 9.29278 5.11237 60.236
512 1 5.30168 3.06162 56.9885
513 2 8.84491 5.05737 57.6621
514 1 12.1578 5.06778 60.9318
515 2 13.977 5.21445 58.9335
516 1 8.13124 3.05159 55.9598
517 1 5.25173 0.344567 56.1049
518 1 4.07197 5.8418 55.2941
519 2 3.45081 4.92932 53.0961
520 1 5.12075 5.14521 51.0882
521 1 8.28721 0.529559 51.325
522 1 8.3213 5.05841 51.8786
523 2 6.98082 5.78512 49.4369
524 1 5.98107 4.42151 45.1534
525 1 7.94076 5.14076 43.2715
526 1 7.87928 4.96264 47.1397
527 1 5.21576 5.13433 42.303
528 1 6.33728 -0.0700629 53.1692
529 2 11.0124 5.058 51.0277
530 1 12.7841 5.06952 52.9485
531 1 5.36038 0.379968 50.3631
532 1 11.3622 5.83492 48.7167
533 1 8.79591 6.43961 40.8531
534 1 15.5664 5.14782 52.1658
535 2 16.1382 5.10684 49.5971
536 1 13.5772 4.77174 50.3727
537 1 13.9342 6.15156 48.1806
538 2 8.00478 0.838016 46.7232
539 1 10.0847 5.48112 45.183
540 1 10.8782 5.12278 42.6544
541 1 12.8679 4.95858 45.992
542 1 13.5711 4.47379 43.4501
543 1 8.07054 0.300106 55.0127
544 1 3.33195 1.10523 48.1715
545 2 14.6948 5.94496 54.883
546 2 12.5825 3.03777 54.6067
547 1 10.2123 1.08804 53.1754
548 1 17.9871 6.56571 51.2157
549 1 13.2252 0.414029 53.7422
550 1 12.7758 2.38848 51.8474
551 1 11.0705 0.724716 50.4793
552 1 10.4585 0.665604 45.9844
553 1 11.2193 0.378936 43.3225
554 1 8.32977 0.304299 44.0566
555 2 13.3551 6.38182 41.3798
556 1 1.7009 1.7028 55.4531
557 1 15.4794 2.50356 51.0906
558 1 14.7535 3.03109 53.7315
559 2 13.4289 1.54418 49.2464
560 1 12.4801 2.35962 47.0192
561 1 3.89111 3.07713 54.8572
562 1 4.63772 2.62225 52.3434
563 1 3.30998 5.0069 45.999
564 1 16.6654 6.25433 47.3737
565 1 14.8402 1.09378 47.0188
566 1 15.6778 4.97286 45.0442
567 1 17.7199 5.59064 43.1965
568 2 13.125 0.35419 45.1178
569 1 3.61245 0.443653 53.6993
570 1 2.53794 3.91622 51.0175
571 2 2.02631 2.62933 53.0316
572 1 0.638562 0.527751 49.1828
573 1 0.807586 0.416775 53.0876
574 1 2.58209 1.07788 50.9996
575 2 5.6438 6.3881 46.7392
576 1 0.477426 0.361647 44.2839
577 1 1.77792 2.43355 45.9596
578 1 15.0209 3.57632 47.7481
579 1 15.6332 5.01657 41.4433
580 1 13.4533 1.79433 43.3065
581 2 15.2524 0.531015 41.8895
582 1 16.0718 3.0756 43.3499
583 2 14.4514 2.77953 45.312
584 1 14.4618 2.64276 41.0474
585 1 6.14586 1.76944 48.0172
586 1 3.62837 0.501562 45.2752
587 1 4.89287 2.40667 41.4468
588 1 2.69565 0.912471 42.2008
589 2 5.07951 0.611209 43.1886
590 1 12.9034 0.583475 40.9973
591 1 16.9333 4.51203 54.8633
592 1 6.20413 4.4784 53.7701
593 2 6.02198 2.03317 54.6856
594 2 4.44931 2.75455 49.8053
595 1 2.60938 3.89493 48.3182
596 1 10.819 4.37594 55.8726
597 1 7.96625 2.58005 53.2448
598 2 9.31998 2.72329 51.2567
599 1 6.77035 3.13066 50.4209
600 1 8.71532 1.85867 48.9018
601 1 5.31897 4.38568 48.1489
602 1 9.19962 4.46028 49.3922
603 2 6.58157 3.03217 43.2239
604 1 3.78443 3.04934 43.9217
605 1 6.15461 1.58462 45.2286
606 1 7.31416 3.90662 40.7658
607 1 10.5886 3.70659 53.1963
608 2 8.76571 4.91191 54.458
609 2 4.32975 2.73244 46.4519
610 2 2.31751 3.54933 41.3001
611 1 11.4608 3.1258 49.5135
612 1 8.48873 3.04982 45.1398
613 1 9.1949 2.58954 42.625
614 2 11.8111 2.81034 41.7589
615 1 10.1116 4.13304 40.5647
616 2 10.323 3.60612 47.1005
617 1 11.3015 3.09897 44.5177
618 1 7.16961 1.02876 41.5648
ITEM: TIMESTEP
5000
ITEM: NUMBER OF ATOMS
618
ITEM: BOX BOUNDS xy xz yz pp pp ff
0.0000000000000000e+00 1.9317770367296919e+01 4.0025167278329121e+00
0.0000000000000000e+00 6.6702723500479264e+00 0.0000000000000000e+00
0.0000000000000000e+00 1.0921147561319708e+02 0.0000000000000000e+00
ITEM: ATOMS id type x y z
1 1 3.94055 5.73513 6.07059
2 1 5.65896 6.37982 8.3504
3 1 4.28024 5.90707 13.053
4 1 5.1124 0.261143 5.91671
5 1 7.29758 6.64724 10.8674
6 1 5.70987 6.15346 15.5357
7 1 4.27185 5.86631 20.032
8 1 11.7499 5.87386 5.94109
9 1 6.84598 0.512657 8.43088
10 1 5.14909 0.228207 13.1049
11 1 7.56455 6.56643 17.726
12 1 5.89874 6.26295 22.5014
13 1 4.2271 6.1229 26.9972
14 1 9.92107 1.26647 5.90132
15 1 13.5134 6.34525 8.38268
16 1 8.4401 0.778312 10.7753
17 1 11.8684 5.86134 13.0698
18 1 6.76782 0.435761 15.5429
19 1 5.03041 0.0885987 20.3134
20 1 3.40862 -0.253269 24.7292
21 1 5.89448 6.36225 29.3273
22 1 4.22196 6.2649 34.034
23 1 12.5312 0.265406 6.07595
24 1 12.0389 3.11706 5.93048
25 1 11.7367 1.46768 8.44596
26 1 15.0927 6.57592 10.708
27 1 10.5088 2.65933 10.7347
28 1 10.0792 1.28752 12.9717
29 1 13.3808 6.1672 15.3741
30 1 8.4396 0.806168 17.7453
31 1 11.7758 5.92103 20.0097
32 1 6.74474 0.496305 22.4576
33 1 5.31888 0.330071 26.9986
34 1 3.54025 0.0809186 31.7242
35 1 5.86696 6.37407 36.3332
36 1 14.8526 2.24012 6.1682
37 1 14.3597 0.574793 8.49038
38 1 13.77 3.44131 8.54017
39 1 13.3308 1.96282 10.8785
40 1 12.7871 0.248576 13.178
41 1 12.3295 3.10055 13.2336
42 1 11.5333 1.36191 15.4668
43 1 15.0902 6.48697 17.8574
44 1 10.6139 2.65055 17.7666
45 1 9.9373 1.18672 20.0385
46 1 13.2936 6.17871 22.2866
47 1 8.44883 0.82884 24.7373
48 1 11.9248 5.93537 27.1027
49 1 6.8487 0.698834 29.4002
50 1 5.082 0.296255 34.2135
51 1 7.1396 6.40055 38.6696
52 1 2.28429 1.18559 5.77668
53 1 17.1517 4.02686 6.13473
54 1 16.5487 2.311 8.46581
55 1 0.665514 0.71628 10.8618
56 1 15.5828 3.83323 10.6627
57 1 14.9488 2.24758 13.1317
58 1 14.3203 0.556134 15.5019
59 1 13.9664 3.56903 15.524
60 1 13.3845 1.67626 17.7456
61 1 12.5546 0.280198 20.0668
62 1 12.3573 3.17274 19.9753
63 1 11.6086 1.58756 22.2192
64 1 15.1464 6.5064 24.7378
65 1 10.7235 2.65822 24.6973
66 1 10.1755 1.26135 27.0852
67 1 13.4495 6.38393 29.3155
68 1 8.48251 0.98071 31.7712
69 1 11.8212 6.19839 34.1451
70 1 6.77651 0.756028 36.5001
71 1 4.35105 3.01439 5.82883
72 1 4.03747 1.53014 8.43147
73 1 3.65426 4.26204 8.40644
74 1 2.94477 2.73345 10.7014
75 1 2.35142 1.15718 13.2287
76 1 17.228 4.01661 12.8908
77 1 16.6595 2.49237 15.5343
78 1 0.759715 0.869499 17.7486
79 1 15.665 3.68492 17.8424
80 1 15.1345 2.06567 20.1228
81 1 14.4589 0.535501 22.2542
82 1 13.995 3.41675 22.4535
83 1 13.3555 1.78866 24.6945
84 1 12.8262 0.310323 27.1531
85 1 12.2329 3.18455 27.1234
86 1 11.8139 1.52963 29.4562
87 1 11.1998 -0.0354317 31.5854
88 1 10.7819 2.95613 31.8227
89 1 10.284 1.28606 33.8896
90 1 13.7111 6.47173 36.2526
91 1 8.60445 0.795847 38.8482
92 1 7.25611 2.15617 5.98044
93 1 6.77324 4.79779 6.05078
94 1 6.28937 3.41993 8.58272
95 1 5.77644 1.74205 10.8379
96 1 5.22625 4.59054 10.8433
97 1 4.61555 2.95361 13.1019
98 1 4.18621 1.39696 15.4413
99 1 3.47356 4.32936 15.4884
100 1 3.0655 2.74734 17.8752
101 1 2.4141 1.24754 20.1138
102 1 17.285 4.13506 20.1004
103 1 16.5842 2.29301 22.4602
104 1 0.782953 0.895105 24.7442
105 1 15.6607 3.85117 24.8114
106 1 15.0052 2.25286 26.9973
107 1 14.7029 0.792714 29.2437
108 1 13.9814 3.41955 29.423
109 1 13.5308 1.85694 31.688
110 1 12.9528 0.385355 34.0867
111 1 12.5116 3.20968 33.8021
112 1 11.8441 1.85747 36.2257
113 1 14.8308 6.35181 39.0082
114 1 11.1473 2.36863 39.1061
115 1 9.3673 4.09878 5.98927
116 1 8.84074 2.43157 8.39945
117 1 8.30849 5.51605 8.50825
118 1 7.86623 3.80154 10.7361
119 1 7.32932 2.11508 13.1882
120 1 6.84001 4.98116 13.1155
121 1 6.13299 3.47806 15.4502
122 1 5.78508 1.65325 17.8212
123 1 5.19037 4.71056 17.8665
124 1 4.79102 3.04937 20.0678
125 1 4.11275 1.4921 22.6054
126 1 3.64238 4.40337 22.3446
127 1 3.21062 2.84518 24.5922
128 1 2.59307 1.35887 26.9564
129 1 17.3505 4.15115 26.9666
130 1 16.7206 2.6225 29.2616
131 1 0.917642 1.17657 31.5922
132 1 15.819 3.93704 31.5626
133 1 15.3208 2.48304 33.979
134 1 14.4879 0.772835 36.3103
135 1 14.1076 3.46509 36.4577
136 1 13.5775 1.83332 38.559
137 1 11.1322 4.37552 8.42937
138 1 10.2062 5.55285 10.886
139 1 9.4839 3.98332 13.1199
140 1 8.85699 2.36501 15.4009
141 1 8.50338 5.20418 15.4519
142 1 7.79238 3.65543 17.5763
143 1 7.29921 2.06092 20.1754
144 1 6.94789 4.95896 19.9796
145 1 6.47121 3.40813 22.4719
146 1 5.86759 2.03756 24.6773
147 1 5.40026 4.68649 24.9175
148 1 4.78303 3.1194 27.1209
149 1 4.1835 1.54195 29.4258
150 1 3.80431 4.36043 29.369
151 1 3.22126 2.79987 31.7564
152 1 2.55279 1.23361 33.996
153 1 17.5035 4.28521 34.1098
154 1 16.8792 2.69452 36.3571
155 1 0.860147 0.805307 38.8343
156 1 15.7944 3.72595 38.9314
157 1 14.4594 5.01365 6.19639
158 1 12.8265 4.65655 10.6959
159 1 11.1253 4.41745 15.4043
160 1 10.1216 5.56252 17.7885
161 1 9.49372 3.90735 19.9983
162 1 9.00516 2.42732 22.469
163 1 8.44634 5.14884 22.3431
164 1 8.08971 3.71475 24.9029
165 1 7.66773 2.17894 27.0976
166 1 7.03499 5.10829 27.1848
167 1 6.39518 3.61805 29.4138
168 1 5.76228 1.82731 31.7264
169 1 5.32918 4.87608 31.7211
170 1 4.76581 3.36871 34.0036
171 1 4.08123 1.67021 36.3917
172 1 3.62914 4.67648 36.4065
173 1 3.15318 2.75419 38.8191
174 1 16.2811 5.19671 8.49154
175 1 14.4604 5.11641 13.1535
176 1 12.9516 4.59917 17.8154
177 1 11.1903 4.28887 22.2592
178 1 10.0808 5.71612 24.728
179 1 9.78481 4.19283 27.0032
180 1 9.06158 2.64111 29.5536
181 1 8.52251 5.44532 29.4027
182 1 8.02384 3.96807 31.7076
183 1 7.27177 2.24679 33.9021
184 1 6.94694 5.21897 33.9761
185 1 6.39049 3.57089 36.465
186 1 6.02913 2.07431 38.8106
187 1 5.00264 4.82911 38.8778
188 1 17.7672 5.52958 10.7149
189 1 16.2926 5.25124 15.4818
190 1 14.4884 4.9527 20.1668
191 1 12.8141 4.61692 24.6565
192 1 11.3165 4.45301 29.5335
193 1 10.3217 5.76572 31.708
194 1 9.69059 4.25688 34.1549
195 1 8.98227 2.4805 36.2525
196 1 8.50532 5.50071 36.2707
197 1 8.41937 3.61658 38.3181
198 1 17.8973 5.59064 17.8537
199 1 16.2756 5.30885 22.3629
200 1 14.5367 5.1041 27.0518
201 1 13.1036 4.78897 31.6698
202 1 11.414 4.50366 36.3729
203 1 10.1987 5.82367 38.4159
204 1 17.8301 5.84435 24.6585
205 1 16.5218 5.37625 29.3288
206 1 14.7731 5.10124 34.1461
207 1 12.8194 4.57285 39.1459
208 1 18.0397 5.72602 31.6728
209 1 16.0981 5.47287 36.4503
210 1 17.7901 5.67254 39.0101
211 2 14.8839 1.63539 102.312
212 1 15.4472 1.36296 99.5393
213 1 4.14031 0.702614 103.185
214 1 2.87279 1.37379 98.9205
215 1 2.01735 1.92966 101.594
216 2 0.922636 0.880531 96.8993
217 1 15.2465 1.28275 94.5288
218 1 6.48988 2.11161 102.732
219 1 7.37298 1.59561 100.262
220 1 6.14585 6.58033 94.7135
221 1 5.18374 2.86296 98.7271
222 2 4.67043 1.62909 100.98
223 1 4.47693 1.3735 93.7688
224 1 2.30711 2.64344 95.0956
225 1 0.828414 0.678233 90.7013
226 1 3.45768 1.87021 90.7031
227 2 2.00374 1.57939 92.7681
228 1 1.1496 0.908528 88.0353
229 1 8.95454 1.06778 95.6707
230 1 7.57665 1.30863 89.0817
231 1 9.20857 6.58809 90.1596
232 1 12.041 5.31041 103.419
233 1 4.0912 3.62744 102.498
234 1 8.75496 3.49836 101.78
235 1 6.67119 5.01449 103.362
236 2 8.56913 0.794491 102.449
237 2 6.27264 4.00293 101.066
238 1 7.76342 4.19118 98.6899
239 2 7.06949 1.82694 97.4447
240 1 5.03659 2.61585 95.9989
241 1 13.7932 3.09754 103.491
242 1 10.7585 1.79095 101.353
243 1 14.8729 6.26601 98.9287
244 2 12.0216 1.79062 98.9708
245 1 10.9415 4.0752 99.627
246 1 9.4725 2.20239 98.0404
247 1 11.5436 0.954375 96.6696
248 1 7.66686 3.71078 95.8804
249 1 11.8604 3.57241 97.0773
250 2 9.65207 4.78963 97.2703
251 1 8.51146 3.34447 92.9703
252 2 9.22306 1.87973 90.9196
253 1 10.4961 4.08259 91.1595
254 1 6.40741 1.90051 91.663
255 1 8.76654 0.548936 93.0961
256 1 10.4315 3.70602 94.8285
257 1 7.6285 3.9265 90.0263
258 1 9.88211 2.62262 88.5846
259 1 13.2024 2.65164 100.828
260 2 11.3826 3.63217 102.324
261 1 12.9656 5.56529 100.688
262 2 13.6886 4.12092 98.7611
263 1 15.4133 4.14445 100.677
264 1 12.083 6.2038 98.0282
265 1 14.1395 4.97961 96.3085
266 2 6.93093 1.78555 94.3283
267 2 5.59347 2.60175 89.1511
268 1 11.19 5.30481 88.7992
269 1 2.79772 4.22562 99.907
270 1 14.1683 2.25446 97.1749
271 1 11.2337 1.93814 92.6495
272 1 11.9626 1.4549 90.1474
273 2 14.4463 2.04282 89.3637
274 1 12.4037 2.97477 87.8949
275 2 3.30318 3.76933 97.3523
276 1 16.1904 3.75374 98.0494
277 1 16.7163 5.1618 95.8362
278 2 12.8531 2.50795 94.8481
279 1 13.8389 1.9857 92.249
280 2 14.8191 6.40225 94.3247
281 1 12.7517 4.45388 93.1767
282 1 13.2325 4.01737 90.3684
283 1 15.623 3.76848 93.6056
284 1 16.2765 3.30277 90.8406
285 1 13.797 6.55351 89.2429
286 1 14.9547 5.80624 102.869
287 1 10.2374 6.74545 95.9338
288 2 17.2863 4.55027 102.486
289 1 16.9958 6.60661 100.812
290 1 5.33084 5.64826 98.9302
291 1 4.76254 6.14147 101.575
292 1 17.755 6.29123 98.0341
293 1 17.0808 6.35535 93.3931
294 1 17.7395 6.01103 90.6929
295 1 15.1034 5.80962 91.6284
296 2 15.9401 5.24956 88.9135
297 1 5.9236 3.92038 93.6433
298 1 3.91872 5.07854 95.0805
299 1 3.1031 3.87956 92.7573
300 1 4.92355 4.38513 90.7554
301 2 4.46703 5.95876 92.746
302 1 10.2008 5.99434 101.525
303 1 7.53006 6.41832 96.8805
304 1 7.51329 6.04337 100.789
305 1 5.47881 0.0834401 98.8204
306 2 8.40991 5.51164 94.6262
307 1 7.07825 6.1185 91.9867
308 1 3.03869 3.76174 88.8665
309 2 6.71759 6.23688 89.4323
310 1 10.2845 6.0649 93.0706
311 2 11.8943 6.18295 91.0167
312 1 5.47631 4.74937 87.9323
313 1 4.03576 1.13957 87.6283
314 1 13.5147 0.670408 87.4321
315 2 16.8815 6.44601 84.8458
316 1 18.4146 6.58402 82.7507
317 1 6.25882 2.07525 82.883
318 1 6.25998 6.59273 83.6657
319 2 1.03741 0.551347 81.2448
320 1 3.99694 6.00318 76.905
321 1 1.73862 -0.0444238 74.9868
322 1 5.84407 6.40515 78.8647
323 1 14.2746 -0.0661599 74.1632
324 1 4.29138 1.41341 84.9228
325 2 8.83484 6.66743 83.0171
326 1 6.99216 -0.0248413 84.8439
327 1 3.34322 2.00112 81.9541
328 1 5.43487 0.839945 80.623
329 1 2.46925 1.20029 72.6658
330 1 9.6115 0.130865 84.1651
331 2 13.9559 6.30965 81.4217
332 1 11.46 6.22499 82.2022
333 1 7.95486 0.943621 79.9411
334 2 5.86781 2.21022 78.4378
335 1 3.87342 0.321657 76.9217
336 1 4.60698 -0.0561239 74.2905
337 1 10.8285 6.51455 77.6951
338 1 11.6738 5.95091 75.0357
339 1 6.63186 2.28056 86.8096
340 1 1.43043 2.50253 79.9931
341 2 8.79273 0.739824 86.836
342 2 10.2363 4.02673 86.4343
343 1 8.37759 2.59091 84.7182
344 1 12.1179 1.5783 82.9193
345 1 11.3514 1.94475 85.5594
346 1 10.8182 3.93182 83.7667
347 1 9.09352 2.06439 82.2117
348 1 8.52339 2.31192 77.6925
349 1 9.12878 2.00224 74.9897
350 1 6.41517 1.72689 75.8176
351 2 7.33421 1.22463 73.0723
352 1 14.9915 3.30363 87.1497
353 1 13.4783 4.08779 83.0472
354 1 12.7835 4.47963 85.6965
355 2 11.7855 3.51184 81.0964
356 1 10.5314 3.89213 78.7045
357 1 17.2775 4.81917 86.645
358 1 2.78584 4.08999 84.1083
359 1 16.7676 6.51533 77.802
360 1 10.5799 1.07362 79.3565
361 1 12.8339 2.57094 78.7124
362 1 13.896 6.50566 76.8352
363 1 11.6742 0.538996 74.8256
364 2 11.1524 1.90341 76.9797
365 1 1.89544 2.1421 85.7431
366 1 15.7546 5.51087 82.869
367 2 15.4641 4.03464 84.9174
368 1 14.0386 2.1591 81.0108
369 1 14.3553 1.85802 84.813
370 1 16.0868 2.58088 82.7643
371 2 14.9771 1.3179 78.7178
372 1 13.778 2.05981 76.1389
373 1 15.1613 3.9859 77.8265
374 1 13.0077 5.31924 79.1711
375 1 9.6885 0.0405981 73.1074
376 1 11.4052 3.3089 74.7903
377 2 13.3541 2.1441 73.5891
378 1 13.9903 4.49352 74.7343
379 2 12.5398 4.36294 76.9069
380 1 11.2412 2.99534 72.0688
381 1 4.2804 3.27718 79.7593
382 1 1.42273 1.8753 77.0796
383 1 2.89394 3.92305 73.0749
384 1 15.8238 2.65758 74.0871
385 2 3.13053 2.02435 74.9786
386 1 12.3742 0.502928 72.0494
387 1 14.8483 5.98091 86.5891
388 1 4.18804 6.12773 85.8461
389 2 4.03179 3.39011 86.4454
390 2 17.6878 4.30324 81.4969
391 1 15.7587 5.21896 80.1399
392 1 8.52951 5.03885 87.6647
393 1 5.86446 4.15374 84.8641
394 2 7.49042 4.32862 82.9211
395 1 4.86711 4.66127 82.1657
396 1 7.05266 3.39115 80.4943
397 1 18.5594 5.99696 79.9628
398 1 7.18375 6.00396 81.1027
399 2 4.56512 4.39611 74.8569
400 1 17.287 4.39776 75.7419
401 1 4.25632 2.95835 77.1371
402 1 5.0791 5.47271 72.4274
403 1 8.63106 5.29925 85.0346
404 2 6.67895 6.20583 86.2202
405 2 17.676 4.15329 78.356
406 2 16.016 5.14667 73.4511
407 1 9.61119 4.69473 81.2994
408 1 6.54454 4.46246 76.8698
409 1 7.12108 4.06098 74.1869
410 2 9.73856 4.59542 73.3888
411 1 7.61189 5.70508 71.9382
412 2 8.248 5.28385 78.8468
413 1 9.29486 4.61563 76.1156
414 1 5.04934 2.51933 73.1605
415 2 1.84401 0.38314 70.3813
416 1 6.01495 6.45178 67.8047
417 1 10.2648 5.67586 71.2161
418 1 8.61845 6.57817 67.0113
419 1 4.14372 0.312121 69.5973
420 2 6.90392 5.90221 65.1151
421 1 2.06657 0.224529 62.6574
422 1 8.52457 0.658201 70.7333
423 1 9.24102 0.0195655 68.1635
424 1 8.19057 5.28578 62.6621
425 1 7.08711 1.41194 66.8361
426 2 10.7006 6.71479 68.9476
427 1 6.50088 0.0609824 61.8059
428 1 4.67821 1.46929 63.1653
429 1 6.91772 6.29367 58.8489
430 1 5.56208 0.802879 58.9186
431 2 4.1167 0.546321 60.9405
432 1 6.79136 6.18303 56.1883
433 1 14.6954 5.68912 63.7199
434 1 9.50185 0.139705 57.0974
435 1 11.374 5.49096 58.1751
436 1 14.0215 4.01709 72.0428
437 1 6.10614 1.82939 70.5424
438 1 10.895 1.78148 69.6602
439 1 8.57379 3.33704 71.2773
440 2 14.5629 5.94504 70.6672
441 2 8.17082 2.34483 68.971
442 1 9.75356 2.40184 66.7687
443 2 8.96302 0.272694 65.557
444 1 7.45206 1.86648 64.2619
445 1 15.2264 1.31854 71.7649
446 1 16.6693 6.53374 69.2244
447 1 16.6379 4.71463 67.0736
448 2 14.0884 0.111981 66.9151
449 1 12.7187 2.47668 67.745
450 1 11.39 0.346705 66.1583
451 1 17.4765 5.84753 64.6917
452 1 10.3696 1.84072 63.8356
453 1 13.7674 1.92198 65.0227
454 2 11.6836 3.29474 65.3309
455 1 10.6489 2.11454 61.0101
456 2 11.2867 0.764869 58.9315
457 1 12.6424 2.81369 59.0604
458 1 8.61465 0.720972 59.7864
459 1 14.993 6.06967 61.0423
460 1 12.8203 3.06829 62.775
461 1 9.8854 2.87424 58.1964
462 1 11.7483 1.62225 56.4552
463 1 15.1683 1.08923 68.9926
464 2 13.3286 2.27815 70.3414
465 1 14.8227 3.96808 69.0465
466 2 15.4486 2.44513 66.9282
467 1 2.16957 2.46408 68.7581
468 1 13.8575 4.61127 66.144
469 1 16.0642 3.33006 64.718
470 2 8.98661 0.392415 62.3833
471 2 7.47181 1.55884 57.3418
472 1 13.3409 4.17952 56.5962
473 1 4.90425 2.62447 68.1442
474 1 0.732914 0.515025 65.2657
475 1 13.2612 0.869405 60.9749
476 1 13.7785 0.328511 58.339
477 2 0.956648 0.472287 57.5368
478 1 14.3105 1.74296 55.9081
479 2 5.54397 2.79923 65.4357
480 1 2.85116 2.04792 66.1816
481 1 3.33043 3.4822 63.9486
482 2 15.0627 1.40722 62.9551
483 1 0.633541 0.890807 60.1361
484 2 16.6055 4.68184 62.5345
485 1 14.8511 3.38621 60.8906
486 1 15.4896 2.85032 58.2114
487 1 2.56038 2.63774 61.5762
488 1 3.20754 2.40068 58.9318
489 1 15.8576 5.45902 57.2805
490 1 16.8125 4.33386 70.9929
491 1 11.786 5.52852 64.0702
492 2 3.92788 2.97833 70.7623
493 1 3.57269 4.91586 68.8207
494 1 7.30159 4.11587 67.0708
495 1 6.5616 4.40651 69.7421
496 1 4.25226 4.82915 66.2241
497 1 3.81892 5.38706 61.7789
498 1 4.64518 4.9867 59.0813
499 1 17.2588 4.69969 59.8242
500 2 2.95403 4.40545 57.1205
501 1 8.04272 2.64902 61.7186
502 1 5.862 4.00701 63.078
503 1 5.53121 2.69425 60.6962
504 1 7.27724 3.56358 58.7334
505 2 6.55496 5.00569 60.8307
506 1 12.2299 4.59132 69.8838
507 1 9.12166 4.44718 64.9518
508 1 9.6896 4.52414 68.6437
509 1 11.1507 5.29433 66.7037
510 2 10.2985 4.09769 62.5266
511 1 9.22891 4.81956 60.189
512 1 5.31765 3.13745 56.9372
513 2 8.78614 5.24237 57.4727
514 1 12.3715 4.94672 61.0331
515 2 14.0068 4.96662 58.9267
516 1 7.94243 3.49214 55.9094
517 1 5.61684 0.306937 55.9331
518 1 4.10173 6.04297 55.2134
519 2 3.65925 5.23539 52.9225
520 1 5.1496 5.45375 50.7893
521 1 8.22063 0.842663 51.0184
522 1 8.23484 5.24349 51.7929
523 2 7.08982 5.88197 49.3659
524 1 5.9149 4.63287 45.0248
525 1 8.10909 5.22081 42.9046
526 1 7.846 5.15016 46.881
527 1 5.15766 5.26712 42.0971
528 1 6.33474 0.308392 53.009
529 2 10.9059 5.40836 50.9829
530 1 12.8224 5.43669 52.9315
531 1 5.35304 0.762727 50.1488
532 1 11.5004 6.202 48.5849
533 1 8.67998 6.69781 40.7282
534 1 15.6217 5.60392 52.4703
535 2 16.0562 5.33624 49.644
536 1 13.6133 4.96266 50.3162
537 1 13.9984 6.38923 48.0008
538 2 8.08653 0.916032 46.4875
539 1 10.0178 5.54716 45.1006
540 1 10.867 5.15191 42.5012
541 1 12.7494 5.13769 45.9068
542 1 13.625 4.61137 43.3286
543 1 8.24634 0.639631 54.9075
544 1 3.65301 1.1005 47.9319
545 2 14.6362 6.07332 54.9079
546 2 12.4295 3.27772 54.5454
547 1 10.4127 1.33508 53.0938
548 1 13.9963 0.172582 51.1428
549 1 13.2374 0.793491 53.7495
550 1 12.7709 2.5954 51.8147
551 1 11.1003 0.812096 50.3901
552 1 10.4987 0.986175 45.6522
553 1 11.123 0.405244 43.1431
554 1 8.44522 0.357035 43.9261
555 2 13.2371 6.34701 41.3021
556 1 1.58822 2.02001 55.5421
557 1 15.5451 2.83182 51.029
558 1 14.8795 3.27241 53.7404
559 2 13.4933 1.86832 49.1984
560 1 12.3996 2.44114 46.8968
561 1 3.8066 3.37797 54.938
562 1 4.60232 3.02796 52.3072
563 1 3.27287 5.11377 45.7772
564 1 16.584 6.35929 47.3403
565 1 14.7559 1.03515 46.8846
566 1 15.6051 5.04676 45.2578
567 1 17.7069 5.62309 43.0809
568 2 13.0322 0.501602 45.048
569 1 3.67291 0.741307 53.8588
570 1 17.864 4.19218 50.9009
571 2 2.04926 3.00355 52.9722
572 1 0.854601 0.901236 49.0452
573 1 0.806969 0.755677 52.8635
574 1 2.65063 1.37762 50.8537
575 2 1.70252 -0.0235684 46.66
576 1 15.7821 0.532655 44.1645
577 1 1.71603 2.50993 45.9402
578 1 14.8901 3.71505 47.7196
579 1 15.568 5.09741 41.346
580 1 13.4138 1.76962 43.0904
581 2 15.2399 0.544019 41.4643
582 1 16.0914 3.16883 43.2371
583 2 14.3817 2.86324 45.2055
584 1 14.2859 2.84782 40.8939
585 1 6.31403 2.17947 47.6489
586 1 3.53586 0.549609 45.0642
587 1 4.69881 2.64012 41.0717
588 1 2.66588 0.966828 42.1384
589 2 5.29784 0.75594 43.0183
590 1 12.8504 0.696318 40.8479
591 1 16.8723 4.91679 54.7751
592 1 6.21771 4.76026 53.8902
593 2 6.07233 2.20696 54.5443
594 2 4.39209 2.99726 49.4244
595 1 2.38798 3.90391 48.2921
596 1 10.6422 4.35557 55.8338
597 1 8.10228 2.87102 53.2675
598 2 9.57043 3.03253 51.0313
599 1 6.87932 3.27228 50.2055
600 1 8.86252 2.2179 48.6183
601 1 5.04271 4.74567 47.9998
602 1 9.29321 4.82816 49.2256
603 2 6.54126 3.15026 42.9493
604 1 3.7237 3.11131 43.724
605 1 6.1603 1.74875 45.0134
606 1 7.08869 4.04699 40.5281
607 1 10.5663 4.12866 53.1258
608 2 8.6983 5.22937 54.4184
609 2 4.21967 2.84368 46.42
610 2 2.29604 3.57986 41.0826
611 1 11.5391 3.34945 49.311
612 1 8.44537 3.18699 44.8769
613 1 9.19304 2.70892 42.3081
614 2 11.6907 2.86675 41.578
615 1 9.96181 4.17402 40.3728
616 2 10.3518 3.81051 46.9288
617 1 11.2835 3.09704 44.2619
618 1 7.27323 1.02557 41.4422
ITEM: TIMESTEP
6000
ITEM: NUMBER OF ATOMS
618
ITEM: BOX BOUNDS xy xz yz pp pp ff
0.0000000000000000e+00 1.9317770367296919e+01 4.0025167278329121e+00
0.0000000000000000e+00 6.6702723500479264e+00 0.0000000000000000e+00
0.0000000000000000e+00 1.0921147561319708e+02 0.0000000000000000e+00
ITEM: ATOMS id type x y z
1 1 3.94224 6.35671 5.80605
2 1 5.84326 6.66262 8.26065
3 1 4.16109 6.20843 12.9127
4 1 5.09437 0.758424 5.8181
5 1 7.43711 6.86841 10.4879
6 1 5.81621 6.37382 15.1283
7 1 3.96884 6.06757 19.8751
8 1 11.7924 6.41008 5.52001
9 1 6.99431 0.948325 8.07038
10 1 5.08023 0.520042 12.8424
11 1 7.28285 6.67153 17.5288
12 1 5.70417 6.42808 22.2203
13 1 4.30118 6.1035 26.966
14 1 9.91523 1.58418 5.63871
15 1 13.5218 6.62091 8.02646
16 1 8.38365 1.14168 10.5216
17 1 11.7929 6.03355 12.9608
18 1 6.73764 0.755366 15.1873
19 1 5.13518 0.379299 19.9983
20 1 3.64187 0.181851 24.4979
21 1 6.10285 6.54826 29.1599
22 1 4.48679 6.1633 33.9577
23 1 12.6965 0.751267 5.85958
24 1 12.1982 3.55155 5.75804
25 1 11.797 1.80318 8.39678
26 1 15.1406 6.99559 10.5539
27 1 10.6274 3.13249 10.6896
28 1 9.70608 1.27773 13.1002
29 1 13.5003 6.49372 15.4252
30 1 8.32082 0.951649 17.6908
31 1 11.9415 6.09821 19.972
32 1 6.7758 0.628782 22.1738
33 1 5.34561 0.563498 26.8901
34 1 3.81533 0.0017994 31.5926
35 1 6.02286 6.41397 36.2948
36 1 15.0198 2.6991 5.7719
37 1 14.4356 0.874525 8.26152
38 1 14.0012 3.81223 8.1799
39 1 13.385 2.03211 10.6713
40 1 12.8024 0.476508 13.0342
41 1 12.347 3.21121 13.0505
42 1 11.9076 1.70179 15.2328
43 1 15.0422 6.76505 17.5214
44 1 10.6132 2.94382 17.3904
45 1 10.209 1.3773 19.8873
46 1 13.6446 6.438 22.2685
47 1 8.62535 1.04666 24.3201
48 1 11.9518 6.35565 26.7865
49 1 6.90913 0.827235 29.2489
50 1 5.36299 0.347624 33.834
51 1 7.63859 6.48094 38.5657
52 1 2.21799 1.74232 5.77821
53 1 17.2143 4.52422 5.79999
54 1 16.749 2.77583 8.33096
55 1 0.756999 1.25216 10.6321
56 1 15.5293 4.21246 10.521
57 1 15.0339 2.40963 12.8483
58 1 14.4373 0.68193 15.3771
59 1 13.9987 3.72761 15.2677
60 1 13.3823 1.97394 17.653
61 1 12.7993 0.369064 20.0419
62 1 12.2667 3.34927 19.8192
63 1 11.7399 1.73275 22.2961
64 1 11.4182 0.227552 24.6408
65 1 10.7365 3.16662 24.5163
66 1 10.1609 1.36715 27.0955
67 1 13.8154 6.60918 29.3874
68 1 8.6491 1.07965 31.4921
69 1 12.1257 6.2657 34.1034
70 1 7.0102 0.734697 36.2388
71 1 4.6247 3.54261 5.60012
72 1 4.17719 1.81714 8.30119
73 1 3.66196 4.65813 8.1736
74 1 2.89098 2.97835 10.6103
75 1 2.35121 1.3625 12.831
76 1 17.2378 4.27106 13.0186
77 1 16.6883 2.41764 15.3574
78 1 0.656683 0.797273 17.5375
79 1 15.6289 3.811 17.4869
80 1 14.8932 2.30437 19.9738
81 1 14.3939 0.658608 22.2522
82 1 13.9724 3.56736 22.3926
83 1 13.4043 2.01811 24.6666
84 1 12.9189 0.657297 26.9624
85 1 12.2634 3.5247 26.9616
86 1 11.9963 1.6576 29.2776
87 1 11.2653 0.0726401 31.5909
88 1 10.8342 2.97001 31.4848
89 1 10.3255 1.3988 33.8646
90 1 13.8338 6.59054 36.426
91 1 8.69863 1.22798 38.9886
92 1 7.26033 2.79863 5.64649
93 1 6.73011 5.66058 5.74367
94 1 6.23607 3.74315 8.21419
95 1 5.62801 2.02547 10.5877
96 1 5.19765 5.0166 10.527
97 1 4.62974 3.45677 12.9572
98 1 3.96469 1.60608 15.261
99 1 3.67602 4.50358 15.3116
100 1 3.07674 2.87102 17.6194
101 1 2.40642 1.44532 19.8958
102 1 17.2182 4.07841 20.055
103 1 16.7872 2.47118 22.4548
104 1 0.864784 0.968126 24.52
105 1 15.6882 3.78396 24.6166
106 1 15.0156 2.4523 26.9005
107 1 14.6522 0.681864 29.2503
108 1 13.9663 3.51773 29.2183
109 1 13.7377 1.95392 31.4714
110 1 13.0375 0.527471 33.889
111 1 12.4972 3.39281 33.8914
112 1 12.0315 1.7463 36.4355
113 1 15.2356 6.52479 38.9133
114 1 11.5398 2.46183 39.0632
115 1 9.54582 4.62832 5.66799
116 1 8.94714 2.76177 8.21511
117 1 8.58747 5.70327 8.26514
118 1 8.04372 3.98448 10.5889
119 1 7.32462 2.352 12.8388
120 1 6.96179 5.17268 12.9133
121 1 6.20681 3.52207 15.277
122 1 5.64507 1.921 17.6325
123 1 5.23883 4.70323 17.5991
124 1 4.73145 3.13198 19.9809
125 1 4.16598 1.6087 22.307
126 1 3.59893 4.44265 22.2872
127 1 3.11944 2.87672 24.6704
128 1 2.47058 1.25874 26.8771
129 1 17.3812 4.27164 27.0376
130 1 16.7441 2.66556 29.2124
131 1 1.12073 1.19601 31.4936
132 1 15.972 3.94159 31.483
133 1 15.2374 2.39951 33.8799
134 1 14.7518 0.801129 36.161
135 1 14.2224 3.63285 36.2025
136 1 14.028 1.99972 38.4152
137 1 11.1172 4.46007 8.12466
138 1 10.2092 5.90168 10.5711
139 1 9.60742 4.24824 12.7279
140 1 8.88102 2.65126 15.2948
141 1 8.55547 5.47985 15.1959
142 1 7.91562 3.93992 17.4883
143 1 7.34987 2.15688 19.8293
144 1 6.71548 5.13476 19.9129
145 1 6.47037 3.47859 22.252
146 1 5.8356 1.98391 24.6232
147 1 5.36018 4.91459 24.5169
148 1 4.76555 3.2224 26.9593
149 1 4.25404 1.6684 29.2623
150 1 3.66806 4.51172 29.3549
151 1 3.16252 2.89373 31.6101
152 1 2.69012 1.16577 34.0512
153 1 17.4547 4.32116 33.9798
154 1 16.9762 2.82508 36.4428
155 1 1.18415 0.83879 38.8854
156 1 16.2882 3.75552 38.9397
157 1 14.4772 5.36643 5.61417
158 1 12.9489 5.12592 10.4752
159 1 11.1481 4.59809 15.293
160 1 10.2026 5.77842 17.5488
161 1 9.64086 4.10326 19.6771
162 1 9.11378 2.653 22.1939
163 1 8.50882 5.43232 22.164
164 1 7.98012 4.1078 24.4747
165 1 7.47916 2.37087 26.744
166 1 7.06326 5.1284 26.9343
167 1 6.5084 3.70243 29.2946
168 1 5.93197 2.13001 31.5806
169 1 5.37275 4.98016 31.6984
170 1 4.84221 3.37678 33.9605
171 1 4.33825 1.7381 36.218
172 1 3.81461 4.58767 36.4418
173 1 3.5206 2.66718 38.7922
174 1 16.1338 5.65566 8.16329
175 1 14.4357 5.19991 13.0382
176 1 12.956 4.8679 17.5502
177 1 11.2488 4.62426 22.1774
178 1 10.3225 5.97402 24.5263
179 1 9.80024 4.34786 26.7489
180 1 9.12178 2.76657 29.2848
181 1 8.78658 5.4718 29.2044
182 1 8.11203 3.90894 31.5941
183 1 7.5254 2.28314 33.8691
184 1 7.22148 5.10425 33.886
185 1 6.57709 3.67 36.3573
186 1 6.20733 2.14915 38.5179
187 1 5.38189 4.74948 38.802
188 1 17.8228 5.88009 10.6425
189 1 16.27 5.35209 15.1748
190 1 14.5811 5.02182 19.9631
191 1 13.1229 4.92787 24.6509
192 1 11.451 4.66499 29.2839
193 1 10.359 5.92654 31.5524
194 1 9.89235 4.15044 33.7034
195 1 9.2391 2.54505 35.9544
196 1 8.72349 5.40097 36.0119
197 1 8.9335 3.70225 38.1891
198 1 17.6199 5.82643 17.65
199 1 16.3243 5.25823 22.3292
200 1 14.6387 5.36898 27.0086
201 1 13.0816 4.80954 31.5658
202 1 11.4948 4.55136 36.4535
203 1 10.4477 6.28645 38.385
204 1 18.075 5.7868 24.7134
205 1 16.3575 5.48727 29.2977
206 1 14.8105 5.18028 33.8189
207 1 13.0428 4.94949 39.0163
208 1 18.1998 5.97211 31.6781
209 1 16.4956 5.59549 36.337
210 1 18.1286 5.83405 38.9823
211 2 14.7826 1.52873 102.396
212 1 15.2292 1.2564 99.6195
213 1 3.878 0.609935 103.304
214 1 2.56452 1.3853 99.0433
215 1 1.94818 1.80371 101.713
216 2 0.82793 0.760892 97.1087
217 1 14.8927 1.27444 94.6511
218 1 6.23723 2.02284 102.95
219 1 7.11384 1.53043 100.367
220 1 5.77847 6.37221 94.8623
221 1 5.00279 2.86635 98.9217
222 2 4.60275 1.49345 101.054
223 1 4.18229 1.1557 93.8655
224 1 1.99912 2.43696 95.2286
225 1 0.512169 0.66366 90.7644
226 1 2.98402 1.85356 90.8686
227 2 1.57945 1.61213 92.854
228 1 0.834106 0.895038 88.104
229 1 8.74835 0.99507 95.6803
230 1 7.15265 1.05532 89.2097
231 1 8.96202 6.61619 90.175
232 1 11.8607 5.45303 103.489
233 1 3.9517 3.50066 102.613
234 1 8.63884 3.41488 102.22
235 1 6.23221 4.91738 103.39
236 2 8.48299 0.968626 102.66
237 2 6.12615 3.9098 100.998
238 1 7.52438 4.02159 98.844
239 2 6.75683 1.64902 97.5367
240 1 4.62778 2.30753 96.3753
241 1 13.5241 2.9058 103.63
242 1 10.73 1.78328 101.604
243 1 14.6685 6.11395 98.9285
244 2 11.7768 1.69339 99.1424
245 1 10.7827 4.02313 99.6819
246 1 9.2829 1.98367 98.3198
247 1 11.4071 0.858683 96.6568
248 1 7.22194 3.54495 95.99
249 1 11.6425 3.50862 97.0433
250 2 9.38593 4.43281 97.3682
251 1 8.21922 3.40806 93.048
252 2 8.89315 1.87368 90.8732
253 1 10.2016 3.98326 91.0434
254 1 6.24889 1.71434 91.6868
255 1 8.62013 0.490026 93.0202
256 1 10.1047 3.55282 94.9091
257 1 7.40038 3.93899 89.9658
258 1 9.64453 2.67327 88.4541
259 1 13.1179 2.62277 101.01
260 2 11.2085 3.76713 102.406
261 1 12.8481 5.50667 100.998
262 2 13.2585 3.99144 98.942
263 1 15.3097 4.14471 100.721
264 1 11.8787 6.16193 98.3609
265 1 13.7856 4.95959 96.4763
266 2 6.68512 1.48948 94.4687
267 2 5.10624 2.44639 89.3611
268 1 11.1179 5.20573 88.7806
269 1 2.77312 4.13592 100.008
270 1 13.962 2.13739 97.2146
271 1 10.774 1.93875 92.841
272 1 11.6038 1.56248 90.1256
273 2 14.1797 2.15576 89.4559
274 1 12.2307 3.11841 87.7719
275 2 3.04568 3.91816 97.2902
276 1 15.8797 3.68181 98.2082
277 1 16.4645 5.0739 95.8112
278 2 12.7043 2.56098 94.92
279 1 13.5351 1.90128 92.1475
280 2 14.4927 6.43778 94.3221
281 1 12.3425 4.4131 93.0219
282 1 13.0357 4.09598 90.3422
283 1 15.1791 3.71187 93.8234
284 1 15.8518 3.43708 91.1383
285 1 13.5223 6.55031 89.1703
286 1 14.8131 5.95213 102.967
287 1 10.2008 6.22069 95.9356
288 2 17.0292 4.51912 102.662
289 1 12.7547 -0.0642221 100.921
290 1 5.16014 5.56981 99.0738
291 1 4.40805 6.12853 101.694
292 1 17.4256 6.2604 98.2786
293 1 16.9981 6.32234 93.4015
294 1 17.5822 5.92228 90.8117
295 1 14.9264 5.87908 91.7556
296 2 15.8265 5.30076 89.0335
297 1 5.66505 3.72508 93.6416
298 1 3.67526 4.78685 95.0352
299 1 2.8119 3.7778 92.794
300 1 4.75809 4.5327 90.9247
301 2 4.24262 5.95812 92.8025
302 1 10.0447 5.94308 101.762
303 1 7.25751 6.20217 96.9318
304 1 7.28443 6.04545 100.838
305 1 5.12973 -0.139853 98.7498
306 2 8.14294 5.36381 94.6555
307 1 6.87471 5.90836 92.2461
308 1 2.83684 3.65751 89.0018
309 2 6.54568 6.28278 89.4906
310 1 9.99487 5.87546 93.1649
311 2 11.4982 6.13043 91.0479
312 1 5.4082 4.72822 87.9969
313 1 3.58193 1.27316 87.7706
314 1 13.2805 0.701363 87.3724
315 2 16.6892 6.44296 84.8328
316 1 18.3262 6.45377 82.8961
317 1 6.09322 1.87929 83.0248
318 1 6.05039 6.58251 83.6023
319 2 0.966527 0.435122 81.3183
320 1 3.79546 5.83641 77.1426
321 1 5.6724 6.50573 75.0806
322 1 5.68771 6.35301 78.9128
323 1 18.2114 6.5549 74.3055
324 1 4.2093 1.36319 85.0816
325 2 8.74617 6.50432 82.8887
326 1 6.6919 -0.117077 84.9515
327 1 3.23319 1.97317 82.1498
328 1 5.36069 0.769701 80.4849
329 1 2.50277 1.20078 72.7203
330 1 9.51401 0.133917 84.3122
331 2 14.0024 6.71476 81.5964
332 1 11.391 6.12703 82.1614
333 1 7.96713 1.02766 79.9739
334 2 6.0388 2.37401 78.437
335 1 3.7613 0.317153 77.0021
336 1 8.48515 6.59554 74.4775
337 1 10.8785 6.43227 77.8054
338 1 11.4797 6.04381 75.1439
339 1 6.29985 2.31071 87.0177
340 1 16.6614 2.41905 80.0375
341 2 8.38832 0.600888 86.9107
342 2 10.2088 4.31744 86.4446
343 1 8.0899 2.39173 84.953
344 1 11.8563 1.39907 82.9728
345 1 11.1046 1.97126 85.6185
346 1 10.5454 3.9077 83.8398
347 1 8.86508 2.0633 82.4074
348 1 8.32457 2.42554 77.6076
349 1 9.03952 1.72533 75.0187
350 1 6.23571 1.72379 75.8495
351 2 7.17423 1.09586 73.1745
352 1 14.7997 3.30521 87.242
353 1 13.267 3.85459 82.8648
354 1 12.6018 4.54438 85.5484
355 2 11.3311 2.96173 81.1184
356 1 10.3792 3.91181 78.6699
357 1 17.0928 4.61148 86.7453
358 1 2.66305 4.00737 84.2032
359 1 16.5293 6.57124 77.8112
360 1 10.4633 1.20245 79.2279
361 1 12.6712 2.55167 78.8492
362 1 13.7642 6.45671 77
363 1 11.5949 0.463656 74.8956
364 2 11.0696 1.9156 76.9327
365 1 1.56778 2.02399 85.7558
366 1 15.6169 5.46767 82.8961
367 2 15.2928 4.04003 84.8789
368 1 13.9194 1.79279 80.9483
369 1 13.9516 1.8881 84.9295
370 1 15.9075 2.44745 82.8609
371 2 14.8418 1.20964 78.6001
372 1 13.7527 2.04729 76.2442
373 1 14.8959 3.93753 77.847
374 1 12.9672 5.20866 79.6659
375 1 13.6362 6.50658 73.0826
376 1 11.3927 3.36293 75.0103
377 2 13.1191 2.21238 73.718
378 1 13.9925 4.50745 75.0022
379 2 12.457 4.26262 77.1241
380 1 11.3733 3.13193 72.2692
381 1 4.03241 3.29958 79.67
382 1 1.31559 1.92747 77.149
383 1 2.71792 3.86577 73.1462
384 1 15.7749 2.45179 74.1464
385 2 2.8973 2.09985 75.0314
386 1 12.2048 0.462798 72.1285
387 1 14.8476 6.04115 86.5699
388 1 4.01182 6.12992 85.7335
389 2 3.8221 3.33421 86.5795
390 2 17.5131 4.16276 81.4738
391 1 15.7398 5.28847 80.1304
392 1 8.40373 5.25645 87.7566
393 1 5.74728 4.11256 84.9319
394 2 7.1911 4.1877 82.9735
395 1 4.72641 4.53224 82.1462
396 1 6.76789 3.27852 80.6279
397 1 18.3909 5.94875 80.0115
398 1 7.10588 6.00421 81.0822
399 2 4.40506 4.36174 74.9258
400 1 16.9783 4.5013 75.77
401 1 4.05683 3.05616 77.033
402 1 4.8795 5.30577 72.4855
403 1 8.3413 5.15138 85.002
404 2 6.46305 6.37987 86.3434
405 2 17.4778 4.13677 78.3318
406 2 15.9107 5.12673 73.3822
407 1 9.21192 4.54922 81.1758
408 1 6.31916 4.48802 76.8985
409 1 7.06153 4.08979 74.2022
410 2 9.7501 4.58567 73.5455
411 1 7.53625 5.51079 72.0247
412 2 8.15371 5.14666 78.8213
413 1 9.13832 4.61522 76.1465
414 1 4.9981 2.46135 73.2816
415 2 1.73761 0.179665 70.5664
416 1 5.8905 6.26043 67.8208
417 1 10.2522 5.47536 71.2909
418 1 8.66725 6.52781 66.9199
419 1 4.07059 0.147375 69.5835
420 2 6.82692 5.46925 65.2272
421 1 2.04487 -0.00559297 62.7757
422 1 8.36371 0.478425 70.8612
423 1 13.2785 6.52307 68.3137
424 1 8.30699 5.2729 62.977
425 1 7.14108 1.082 66.835
426 2 10.6565 6.60623 68.942
427 1 6.54602 0.0660386 61.6665
428 1 4.74599 1.28068 63.4831
429 1 6.96679 6.10177 59.0306
430 1 5.48855 0.740758 59.0011
431 2 3.96088 0.321989 61.0421
432 1 6.84299 5.78112 56.2209
433 1 14.5567 5.361 63.867
434 1 9.70513 -0.0169446 57.294
435 1 11.394 5.3963 58.1079
436 1 14.2132 3.79999 72.1224
437 1 6.03826 1.71141 70.8918
438 1 10.6396 1.89156 69.9335
439 1 8.44623 3.0229 71.4414
440 2 14.4905 5.88285 70.669
441 2 8.07546 2.13602 69.0871
442 1 9.82843 2.27471 67.0513
443 2 9.04429 0.12687 65.6078
444 1 7.41987 1.6429 64.3203
445 1 15.0723 1.2057 71.7646
446 1 16.425 6.49706 69.2028
447 1 16.84 4.46668 67.1937
448 2 14.0098 -0.0183523 67.0225
449 1 12.7745 2.20521 67.8749
450 1 11.4531 0.284454 66.3208
451 1 17.3725 5.78513 64.7248
452 1 10.3006 1.5825 64.0023
453 1 13.6832 1.68414 65.1951
454 2 11.6865 3.07988 65.3339
455 1 10.8964 1.9943 61.2227
456 2 11.4237 0.600871 59.0763
457 1 12.6745 2.73157 59.0223
458 1 8.60354 0.666794 60.0159
459 1 15.0852 5.83086 61.212
460 1 12.8956 2.83075 63.0361
461 1 9.87944 2.56723 58.2811
462 1 11.9592 1.56683 56.5671
463 1 15.0694 0.936964 69.1494
464 2 13.1801 2.08285 70.4219
465 1 14.8335 3.77789 69.1246
466 2 15.4566 2.41883 67.1031
467 1 1.95033 2.39512 69.0183
468 1 13.8478 4.41626 66.3185
469 1 15.9094 3.16999 64.7778
470 2 9.13553 0.279233 62.4547
471 2 7.51935 1.24281 57.4478
472 1 13.6748 4.04267 56.7674
473 1 4.79073 2.5616 68.1966
474 1 0.76167 0.336872 65.3238
475 1 13.3465 0.645748 61.0919
476 1 14.0542 0.267957 58.3787
477 2 1.00602 0.160558 57.5519
478 1 14.5193 1.59874 55.9475
479 2 5.4799 2.5333 65.5951
480 1 2.74318 1.76629 66.3848
481 1 3.28271 3.35944 64.1249
482 2 15.1425 1.27355 62.974
483 1 0.632501 0.628036 60.3074
484 2 16.604 4.52807 62.5696
485 1 14.8049 3.16222 60.9353
486 1 15.8073 2.77935 58.1876
487 1 2.41752 2.36675 61.7397
488 1 3.07068 2.06203 59.1073
489 1 16.0445 5.37216 57.2206
490 1 16.7384 4.40495 70.9556
491 1 11.5724 5.49459 64.1096
492 2 3.78155 2.87939 70.8328
493 1 3.58195 4.92717 69.0331
494 1 7.3427 3.8121 67.1679
495 1 6.57066 4.40877 69.6763
496 1 4.29061 4.50945 66.4241
497 1 3.79148 5.05431 61.9177
498 1 4.64762 4.75226 59.2702
499 1 17.2837 4.5325 59.8779
500 2 2.89422 4.00334 57.2229
501 1 8.10084 2.59541 61.9126
502 1 5.98125 3.89324 63.3438
503 1 5.23707 2.50555 60.9183
504 1 7.17496 3.30049 58.9533
505 2 6.58187 4.72654 61.0006
506 1 12.4173 4.43877 69.7559
507 1 9.05231 4.05632 65.0799
508 1 9.44968 4.37484 69.0377
509 1 11.2662 5.05576 66.9554
510 2 10.4201 3.8442 62.6655
511 1 9.35888 4.62723 60.3538
512 1 5.32079 2.93276 57.0798
513 2 8.88915 4.84093 57.6302
514 1 12.3747 4.76042 61.1674
515 2 14.0491 4.94535 59.106
516 1 7.9284 3.12232 56.0608
517 1 5.55819 -0.0470937 56.12
518 1 4.12224 5.74487 55.4122
519 2 3.74987 4.81815 53.1942
520 1 5.48354 5.1921 51.1457
521 1 8.35433 0.569776 50.8821
522 1 8.44971 5.1678 51.8191
523 2 7.37897 5.84607 49.3603
524 1 6.1786 4.6391 44.9776
525 1 8.19983 5.32735 42.8897
526 1 8.11464 5.31889 46.8247
527 1 5.48152 5.45443 41.9032
528 1 6.50818 -0.131368 53.0163
529 2 11.1216 5.1454 50.975
530 1 13.1281 5.12334 52.7653
531 1 5.47255 0.610643 50.1882
532 1 11.6615 6.1716 48.4557
533 1 9.07802 6.70889 40.6679
534 1 15.7424 5.30333 52.3171
535 2 16.5098 5.35481 49.553
536 1 13.8991 4.8129 50.2197
537 1 14.3776 6.36246 48.0135
538 2 8.41099 1.11925 46.5303
539 1 10.1876 5.83115 45.1924
540 1 11.0547 5.48322 42.4961
541 1 13.2262 5.22281 45.8356
542 1 13.9921 4.88108 43.1653
543 1 8.21046 0.273183 55.0196
544 1 3.58298 1.25017 47.862
545 2 14.7618 5.78968 54.9503
546 2 12.7178 3.10232 54.5279
547 1 10.5058 0.920653 52.9755
548 1 14.3401 0.0509033 51.3072
549 1 13.3542 0.457873 53.8763
550 1 13.0237 2.41049 51.8031
551 1 11.3502 0.766795 50.4132
552 1 10.8188 1.20569 45.534
553 1 11.4859 0.53977 43.178
554 1 8.82411 0.469377 43.9477
555 2 13.5169 6.85398 41.225
556 1 1.75964 1.60393 55.3088
557 1 15.6864 2.5307 50.9178
558 1 15.1058 2.88973 53.6544
559 2 13.867 1.70351 49.2174
560 1 12.7795 2.74984 46.8915
561 1 3.99822 3.07105 54.9678
562 1 5.05591 2.64696 52.2404
563 1 3.68623 5.34263 45.8022
564 1 16.8184 6.77937 47.467
565 1 15.1644 1.39141 46.9618
566 1 15.9841 5.30605 45.2498
567 1 18.0061 5.63998 43.0984
568 2 13.5166 0.723997 45.1638
569 1 3.98014 0.584905 53.9884
570 1 18.0694 4.01749 50.9304
571 2 2.42068 2.47763 52.9042
572 1 1.01532 0.17161 49.1307
573 1 1.08246 0.377749 53.0641
574 1 2.97617 1.06019 50.9405
575 2 5.94129 6.83995 46.4817
576 1 0.64938 0.753238 44.0911
577 1 2.04554 2.7808 45.6966
578 1 15.4208 4.0038 47.642
579 1 15.8308 5.28327 41.1423
580 1 13.7876 2.1648 43.1444
581 2 15.6147 0.916902 41.5231
582 1 16.4222 3.40388 43.2547
583 2 14.7512 3.18717 45.2053
584 1 14.5284 3.1471 40.8305
585 1 6.4978 1.98593 47.8314
586 1 3.80406 0.827814 45.073
587 1 5.13856 2.69505 41.0738
588 1 3.00712 1.05952 42.1948
589 2 5.40397 0.888726 43.1066
590 1 13.1631 0.963059 40.8106
591 1 17.034 4.4253 54.6362
592 1 6.37833 4.37299 53.8736
593 2 6.11439 1.88792 54.7208
594 2 4.67031 2.9621 49.7114
595 1 2.91421 4.25765 48.2753
596 1 10.8176 4.08376 55.9285
597 1 8.16031 2.40936 53.167
598 2 9.70055 2.73795 51.1462
599 1 7.09837 3.02913 50.3345
600 1 9.19491 1.94015 48.8392
601 1 5.75226 4.57227 47.8775
602 1 9.46724 4.61464 49.2283
603 2 6.82114 3.27118 43.0159
604 1 4.07951 3.24123 43.6241
605 1 6.49827 1.78067 45.1975
606 1 7.47881 4.0072 40.4532
607 1 10.7886 3.72356 53.0655
608 2 8.83632 4.72924 54.4147
609 2 4.58464 2.98971 46.3811
610 2 2.79251 3.85457 41.1594
611 1 11.7499 3.26503 49.3161
612 1 8.7204 3.22497 44.9028
613 1 9.47654 2.92684 42.3136
614 2 12.1036 3.10426 41.539
615 1 10.2957 4.37922 40.2867
616 2 10.2839 3.67085 46.9969
617 1 11.4581 3.51927 44.2942
618 1 7.24928 1.29126 41.6286
ITEM: TIMESTEP
7000
ITEM: NUMBER OF ATOMS
618
ITEM: BOX BOUNDS xy xz yz pp pp ff
0.0000000000000000e+00 1.9317770367296919e+01 4.0025167278329121e+00
0.0000000000000000e+00 6.6702723500479264e+00 0.0000000000000000e+00
0.0000000000000000e+00 1.0921147561319708e+02 0.0000000000000000e+00
ITEM: ATOMS id type x y z
1 1 4.85267 6.11887 6.13416
2 1 6.53561 6.52594 8.81302
3 1 4.86766 6.27269 13.2829
4 1 5.93511 0.554838 6.26046
5 1 4.01199 0.156937 11.1819
6 1 6.32387 6.54239 15.753
7 1 4.69001 6.00606 20.2981
8 1 12.4572 6.30896 6.12728
9 1 7.38531 0.793029 8.75462
10 1 5.80013 0.54664 13.3768
11 1 4.05291 0.0015071 17.9427
12 1 6.21359 6.3076 22.7047
13 1 4.57473 6.07996 27.2707
14 1 10.5468 1.57966 6.37053
15 1 14.0747 6.48918 8.70479
16 1 9.10471 1.07086 11.1098
17 1 12.5037 6.2071 13.4078
18 1 7.12538 0.738293 15.9016
19 1 5.49193 0.256938 20.4072
20 1 7.97972 6.68786 24.9141
21 1 6.09997 6.5385 29.6101
22 1 4.4318 6.31219 34.2076
23 1 13.5153 0.519536 6.29314
24 1 12.8548 3.41131 6.25062
25 1 12.3051 1.76503 8.65851
26 1 11.8779 0.101852 11.0017
27 1 11.2512 3.09683 11.1361
28 1 10.6081 1.53067 13.4119
29 1 14.0713 6.3101 15.6734
30 1 9.01183 0.926626 18.06
31 1 12.3006 6.0081 20.3728
32 1 7.34481 0.646417 22.8043
33 1 5.43809 0.426998 27.3151
34 1 3.84986 0.209428 31.866
35 1 5.96623 6.80815 36.4259
36 1 15.5347 2.36767 6.14689
37 1 15.0578 0.746774 8.45823
38 1 14.752 3.56247 8.61195
39 1 13.9927 2.14237 11.1436
40 1 13.3306 0.630376 13.279
41 1 12.9029 3.47555 13.3774
42 1 12.2362 1.71347 15.6154
43 1 11.6581 0.16119 17.7851
44 1 11.241 3.01414 18.0658
45 1 10.6109 1.26351 20.4168
46 1 13.8466 6.35178 22.6568
47 1 8.86367 0.834013 25.0503
48 1 12.1982 5.83329 27.3078
49 1 7.09965 0.627873 29.5712
50 1 5.39442 0.427026 34.1907
51 1 7.36795 6.68982 38.8061
52 1 3.00195 1.51617 6.24514
53 1 17.7731 4.27621 6.29749
54 1 2.09265 2.64229 8.52317
55 1 1.30033 1.17752 10.8902
56 1 16.2936 4.02426 10.8109
57 1 15.6411 2.57207 13.1792
58 1 15.108 0.767027 15.5851
59 1 14.7054 3.59506 15.6643
60 1 13.8518 1.91136 18.0074
61 1 13.1431 0.260022 20.3064
62 1 12.6917 3.25557 20.4153
63 1 12.1088 1.43112 22.7072
64 1 11.4835 -0.115225 25.1093
65 1 10.9595 2.79867 24.9477
66 1 10.5276 1.30132 27.354
67 1 13.804 6.48748 29.7947
68 1 8.77049 1.16857 31.9395
69 1 12.167 6.139 34.2269
70 1 6.95611 1.04202 36.4461
71 1 5.49553 3.21244 6.29383
72 1 4.73516 1.68026 8.68912
73 1 4.21236 4.6173 8.62969
74 1 3.64065 3.0322 10.9077
75 1 2.89459 1.49519 13.2871
76 1 17.9212 4.3562 13.1427
77 1 1.98184 2.71041 15.5874
78 1 1.30681 0.979048 17.938
79 1 16.1034 3.89247 17.9808
80 1 15.5036 2.07028 20.3137
81 1 14.7631 0.510269 22.5818
82 1 14.3497 3.35979 22.6312
83 1 13.7063 1.84458 24.8905
84 1 13.1524 0.450589 27.2228
85 1 12.8987 3.25949 27.0913
86 1 12.0751 1.74827 29.4948
87 1 11.3542 0.307971 31.8925
88 1 11.0056 3.06722 31.853
89 1 10.3275 1.40478 34.2736
90 1 13.699 6.52136 36.6959
91 1 8.81127 1.02012 39.2035
92 1 7.99718 2.31024 6.20362
93 1 7.55256 5.21384 6.22484
94 1 7.00415 3.81738 8.82328
95 1 6.38545 2.10104 10.9473
96 1 5.84094 4.93184 11.0596
97 1 5.20346 3.27605 13.1533
98 1 4.66912 1.77447 15.6489
99 1 4.14 4.48949 15.503
100 1 3.53286 2.91844 18.0272
101 1 3.04029 1.22639 20.3086
102 1 17.6844 4.16354 20.1984
103 1 1.93708 2.48547 22.4546
104 1 1.18503 0.973654 24.939
105 1 16.1679 3.78039 25.0449
106 1 15.3895 2.31611 27.313
107 1 14.8059 0.831994 29.5045
108 1 14.2559 3.62238 29.6777
109 1 13.7903 1.86428 31.9618
110 1 12.8119 0.449239 34.1525
111 1 12.4553 3.40306 34.2282
112 1 11.9908 1.63926 36.4754
113 1 15.1997 6.43844 39.0717
114 1 11.2574 2.53672 39.3461
115 1 10.3803 4.29549 6.19276
116 1 9.68662 2.68932 8.75797
117 1 9.22502 5.57739 8.62025
118 1 8.74974 4.03066 11.0338
119 1 7.9701 2.35132 13.4058
120 1 7.43796 5.29461 13.3611
121 1 6.8418 3.74882 15.6085
122 1 6.2463 1.80196 18.2813
123 1 5.68837 4.69926 17.9495
124 1 5.20407 3.26714 20.3879
125 1 4.68082 1.67917 22.7073
126 1 4.05012 4.45537 22.7097
127 1 3.46889 2.93275 25.014
128 1 2.96707 1.47665 27.3664
129 1 17.5624 4.18906 27.3338
130 1 1.72111 2.73047 29.5346
131 1 1.15504 1.11122 31.9179
132 1 16.1659 3.91568 31.6936
133 1 15.3008 2.47 34.2608
134 1 14.5991 0.951814 36.5215
135 1 14.2084 3.75794 36.5413
136 1 13.7725 1.92377 38.6021
137 1 12.0887 4.64322 8.75262
138 1 10.9027 6.08535 11.1329
139 1 10.1889 4.30029 13.4512
140 1 9.59499 2.63464 15.8232
141 1 9.05638 5.5052 15.6762
142 1 8.46863 3.67649 17.9248
143 1 7.94327 2.23432 20.401
144 1 7.34672 5.09973 20.4266
145 1 6.71295 3.51545 22.6767
146 1 6.1694 1.84495 24.969
147 1 5.71597 4.7888 25.0377
148 1 5.1927 3.22639 27.3257
149 1 4.38669 1.63198 29.6093
150 1 3.96621 4.56003 29.5973
151 1 3.3483 3.12831 31.8947
152 1 2.66389 1.56022 34.0489
153 1 17.4583 4.30789 34.2154
154 1 1.75954 2.88744 36.6742
155 1 0.984912 1.20268 39.0443
156 1 15.9245 3.91074 38.9505
157 1 15.0507 5.25866 6.29431
158 1 13.7809 4.77021 11.0606
159 1 11.9012 4.60195 15.6963
160 1 10.8911 5.64317 18.1147
161 1 9.96161 4.22654 20.5122
162 1 9.45293 2.73128 22.8319
163 1 8.90177 5.42788 22.7642
164 1 8.27066 3.87434 24.8583
165 1 7.84715 2.13876 27.1743
166 1 7.31326 5.25414 27.3136
167 1 6.71083 3.52102 29.475
168 1 6.00841 2.05653 31.8079
169 1 5.59698 4.96051 31.8731
170 1 5.07926 3.33519 34.176
171 1 4.33335 1.96189 36.4892
172 1 3.92509 4.77774 36.5325
173 1 3.40164 3.02001 38.8981
174 1 16.8236 5.69687 8.53028
175 1 15.2888 5.42269 13.2852
176 1 13.5516 4.76656 18.1183
177 1 11.6541 4.43493 22.7649
178 1 10.5682 5.62435 24.8586
179 1 9.72033 4.09341 27.2502
180 1 9.36098 2.47411 29.4556
181 1 8.82602 5.43697 29.563
182 1 8.30266 3.9044 31.7191
183 1 7.71266 2.1785 34.1206
184 1 7.17494 5.2536 34.2286
185 1 6.51464 3.76762 36.5675
186 1 6.17487 2.19802 39.0248
187 1 5.33843 5.05781 39.1043
188 1 18.3575 5.90091 10.9794
189 1 16.8353 5.66431 15.4409
190 1 14.9197 5.05511 20.4143
191 1 13.3444 4.77685 24.9003
192 1 11.6334 4.53179 29.6528
193 1 10.4721 5.75325 31.8811
194 1 9.91254 4.31703 34.0413
195 1 9.18457 3.01142 36.1436
196 1 8.69907 5.83971 36.5317
197 1 8.93465 3.73777 38.4784
198 1 18.4051 5.80146 17.8992
199 1 16.5843 5.18183 22.606
200 1 14.8316 5.12884 27.4114
201 1 13.1764 4.84159 31.9542
202 1 11.4011 4.55921 36.7032
203 1 10.4863 6.12522 38.513
204 1 18.1486 5.77539 24.8963
205 1 16.6186 5.54143 29.5976
206 1 14.8286 5.13527 34.0625
207 1 12.9608 4.71143 39.1853
208 1 18.2309 6.00231 32.0302
209 1 16.4088 5.61988 36.4966
210 1 18.0538 5.79464 38.974
211 2 14.5009 1.47916 101.812
212 1 14.9423 1.06733 99.2858
213 1 3.68665 0.2241 102.9
214 1 2.41121 1.31611 98.6298
215 1 1.65846 1.56705 101.219
216 2 0.497029 0.557453 96.692
217 1 14.6555 0.92062 94.3982
218 1 6.0017 1.79394 102.469
219 1 6.87206 1.32929 99.917
220 1 5.58461 6.20999 94.3765
221 1 4.69903 2.58796 98.548
222 2 4.25961 1.27836 100.644
223 1 3.87043 1.06122 93.3896
224 1 1.68041 2.43248 94.9275
225 1 15.6033 0.587152 90.5047
226 1 2.85611 1.65382 90.6122
227 2 1.30503 1.45442 92.5684
228 1 15.6237 0.771265 88.0043
229 1 8.43855 0.665933 95.3521
230 1 6.9735 1.02317 88.8145
231 1 8.59005 6.36383 89.7335
232 1 11.7812 5.08133 103.241
233 1 3.56293 3.23667 102.205
234 1 8.19335 3.31542 101.76
235 1 5.98713 4.69853 102.868
236 2 8.14734 0.684494 101.996
237 2 5.73794 3.73166 100.657
238 1 7.16362 3.90903 98.4945
239 2 6.54844 1.55494 97.2687
240 1 4.53084 2.35953 95.8129
241 1 13.3614 2.74698 103.201
242 1 10.3666 1.62831 101.28
243 1 14.3264 6.03036 98.5099
244 2 11.4891 1.55607 98.7606
245 1 10.3395 3.82996 99.5414
246 1 8.98895 1.97937 97.9077
247 1 11.1634 0.71676 96.3522
248 1 6.95501 3.37608 95.5679
249 1 11.3067 3.34075 96.7645
250 2 9.04541 4.36008 96.9101
251 1 8.08826 3.19617 92.5254
252 2 8.71034 1.58946 90.4799
253 1 10.0785 3.69857 90.59
254 1 5.98401 1.56839 91.4134
255 1 8.44866 0.302076 92.6773
256 1 9.96815 3.38916 94.5075
257 1 7.20921 3.70406 89.8821
258 1 9.30859 2.54883 88.0828
259 1 12.8488 2.60175 100.456
260 2 10.9456 3.50759 102.131
261 1 12.5442 5.40366 100.484
262 2 13.0888 3.94617 98.4877
263 1 15.0918 4.08794 100.292
264 1 11.5839 6.09654 97.8834
265 1 13.524 4.85111 96.0048
266 2 6.4461 1.43973 93.9915
267 2 4.7842 2.36536 89.0393
268 1 10.7578 5.1638 88.4267
269 1 2.45547 3.91224 99.4687
270 1 13.7285 1.97679 96.8215
271 1 10.642 1.67019 92.4038
272 1 11.3566 1.27082 89.7727
273 2 13.9813 1.90779 89.2305
274 1 11.903 2.84316 87.6231
275 2 2.90753 3.8264 96.9604
276 1 15.8215 3.51067 97.8356
277 1 16.2041 5.10665 95.5586
278 2 12.4956 2.16826 94.6042
279 1 13.2476 1.77526 91.9564
280 2 14.2515 6.3131 94.0196
281 1 12.3502 4.1836 92.8602
282 1 12.7821 3.86609 90.0511
283 1 15.0047 3.67968 93.5259
284 1 15.6604 3.27377 90.9141
285 1 13.2293 6.31665 88.8941
286 1 14.4324 5.7243 102.507
287 1 9.84529 6.30273 95.5421
288 2 16.9546 4.56972 102.11
289 1 16.5331 6.6273 100.469
290 1 4.7911 5.34783 98.5427
291 1 4.09175 5.81576 101.237
292 1 17.1275 6.09652 97.8215
293 1 16.5835 6.20465 93.1232
294 1 17.2184 5.78038 90.4443
295 1 14.5162 5.79404 91.3887
296 2 15.3627 4.86587 88.7296
297 1 5.40238 3.55185 93.3123
298 1 3.43193 4.71201 94.7286
299 1 2.53092 3.64644 92.4293
300 1 4.52291 4.32372 90.4661
301 2 3.85733 5.88674 92.5162
302 1 9.95073 5.74621 101.5
303 1 7.0437 6.1846 96.5966
304 1 7.06861 5.82713 100.41
305 1 8.88924 6.33598 98.4859
306 2 7.8728 5.23671 94.1734
307 1 6.63855 5.86044 91.8639
308 1 2.23743 3.62366 88.7529
309 2 6.24945 6.05265 89.3487
310 1 9.78123 5.74194 92.739
311 2 11.2886 5.8354 90.8702
312 1 4.97847 4.67249 87.9019
313 1 3.22958 1.11422 87.7822
314 1 12.9701 0.492096 87.1653
315 2 16.5183 6.2152 84.7519
316 1 18.0753 6.41685 82.5435
317 1 5.77479 2.11586 82.858
318 1 5.9194 6.56216 83.5138
319 2 0.835648 0.630941 81.0627
320 1 3.85585 6.27133 76.8314
321 1 1.90777 0.16457 74.9576
322 1 2.11683 0.285725 78.6933
323 1 14.3345 0.187758 73.9453
324 1 3.9108 1.35841 84.8637
325 2 8.55458 6.54898 82.758
326 1 10.4507 6.54822 84.573
327 1 2.88557 2.09554 81.809
328 1 5.1485 0.852338 80.4745
329 1 2.62197 1.41773 72.4935
330 1 13.2405 6.63138 83.8801
331 2 13.725 6.70357 81.2833
332 1 11.2427 6.2772 81.9461
333 1 7.71805 1.00679 79.7303
334 2 5.6511 2.08393 78.2385
335 1 4.08654 0.75549 76.6157
336 1 4.81125 0.191225 74.0407
337 1 10.9101 6.70107 77.3771
338 1 11.651 6.18229 74.7299
339 1 5.76134 1.92767 86.7182
340 1 16.2328 2.79875 79.7597
341 2 8.07106 0.288189 86.5399
342 2 10.0387 4.19113 86.1212
343 1 7.95057 2.44353 84.8272
344 1 11.6595 1.36662 82.8955
345 1 10.7972 1.69083 85.3822
346 1 10.4016 3.80246 83.6076
347 1 8.64166 2.15097 82.1771
348 1 8.29882 2.53234 77.4604
349 1 9.07121 2.05154 74.9145
350 1 6.43979 1.9708 75.489
351 2 7.42851 1.4617 72.9319
352 1 14.3736 3.197 86.7936
353 1 13.1513 4.05918 82.6632
354 1 12.4425 4.34905 85.2966
355 2 11.1652 3.35902 80.9338
356 1 10.3513 4.15939 78.389
357 1 16.6809 4.44536 86.4612
358 1 2.36234 3.96955 83.9337
359 1 12.6007 0.266021 77.7216
360 1 10.2735 1.35172 79.0683
361 1 12.6155 2.79257 78.575
362 1 9.78492 -0.0215404 76.6096
363 1 11.6665 0.611086 74.7902
364 2 11.0658 2.17988 76.7803
365 1 1.22009 1.8809 85.5268
366 1 15.409 5.44479 82.6586
367 2 15.038 3.97035 84.5623
368 1 13.6278 1.91413 80.8939
369 1 13.7405 1.76826 84.5833
370 1 15.6688 2.62539 82.5985
371 2 14.8468 1.45954 78.4294
372 1 13.78 2.17213 76.0481
373 1 14.9925 4.12915 77.6251
374 1 12.9442 5.39415 79.2314
375 1 9.82097 0.153344 72.9094
376 1 11.3453 3.52779 74.6423
377 2 13.2842 2.44933 73.4934
378 1 14.0071 4.72415 74.7357
379 2 12.4659 4.48053 76.8203
380 1 11.2807 3.20723 72.0451
381 1 3.79709 3.13196 79.4669
382 1 1.42191 2.19944 76.794
383 1 2.88564 4.13122 72.984
384 1 15.8901 2.68373 74.0007
385 2 3.12035 2.36455 74.8266
386 1 12.4276 0.46295 71.8468
387 1 14.4657 5.91145 86.445
388 1 3.69396 5.91133 85.5421
389 2 3.49169 3.24572 86.3909
390 2 17.4192 4.39685 81.2255
391 1 15.5928 5.65809 79.9267
392 1 7.93759 4.809 87.4687
393 1 5.41502 3.9514 84.8115
394 2 7.11824 4.18472 82.778
395 1 4.57692 4.68047 81.8629
396 1 6.71512 3.27059 80.3972
397 1 3.26381 5.95648 79.6824
398 1 6.94912 5.92199 80.8982
399 2 4.63605 4.69713 74.7358
400 1 17.2469 4.72764 75.528
401 1 4.10768 3.34931 76.8728
402 1 4.96659 5.61467 72.2403
403 1 8.15035 5.17827 84.7929
404 2 6.18347 6.19996 86.0865
405 2 17.4936 4.43908 78.1096
406 2 16.0138 5.21399 73.2482
407 1 9.22933 4.5821 81.0533
408 1 6.32115 4.76057 76.8093
409 1 7.1037 4.40246 74.0908
410 2 9.43579 4.34874 73.4368
411 1 7.67201 5.66208 71.6964
412 2 8.22959 5.51652 78.7263
413 1 9.01596 4.89331 76.1008
414 1 5.1328 2.7364 73.0587
415 2 1.81598 0.449107 70.2518
416 1 6.17056 6.44469 67.7027
417 1 10.2596 5.7691 71.338
418 1 8.93502 6.52315 66.8804
419 1 4.23109 0.260434 69.3914
420 2 6.95757 5.95599 64.9569
421 1 1.83331 0.0776914 62.6174
422 1 8.4379 0.626298 70.7225
423 1 13.4794 6.66729 68.0471
424 1 8.15378 5.46274 62.8223
425 1 7.07523 1.33664 66.8746
426 2 10.7949 6.62853 68.8018
427 1 6.46486 0.0533834 61.7435
428 1 4.55007 1.36186 63.3315
429 1 6.69085 6.2367 58.8635
430 1 5.31176 0.650594 58.7555
431 2 3.81846 0.447935 60.8627
432 1 6.66907 5.77788 56.1222
433 1 14.7471 5.56406 63.7591
434 1 13.423 6.66178 57.1117
435 1 11.2166 5.31558 58.1188
436 1 14.1211 4.08474 71.9496
437 1 6.10704 1.91895 70.5176
438 1 10.7895 1.84863 69.6789
439 1 8.5053 3.28166 71.1846
440 2 14.6678 5.97068 70.5312
441 2 8.13411 2.37853 68.9132
442 1 9.71375 2.51071 66.8408
443 2 8.94168 0.237204 65.6357
444 1 7.34071 1.71183 64.1425
445 1 15.3091 1.43533 71.5484
446 1 16.4658 6.61638 69.025
447 1 16.6668 4.68555 67.0334
448 2 14.0701 0.0642611 67.036
449 1 12.8614 2.30762 67.7679
450 1 11.5553 0.521703 66.094
451 1 17.4075 5.83764 64.7482
452 1 10.0921 1.81304 63.9133
453 1 13.7169 1.89686 65.1288
454 2 11.6332 3.1955 65.4166
455 1 10.5059 2.11898 60.9686
456 2 11.2496 0.631542 58.982
457 1 12.4187 2.80582 59.324
458 1 8.5076 0.693476 59.728
459 1 14.7971 6.03671 61.1523
460 1 12.5973 2.71984 62.9607
461 1 9.56477 2.54883 58.0182
462 1 11.7556 1.56776 56.7406
463 1 15.2536 1.07614 68.8928
464 2 13.2873 2.3372 70.2472
465 1 14.8055 4.01075 68.8671
466 2 15.5365 2.45886 66.8588
467 1 2.14349 2.59674 68.6757
468 1 13.945 4.50745 66.1646
469 1 16.1383 3.11242 64.6921
470 2 9.0366 0.298003 62.4427
471 2 7.259 1.19165 57.4197
472 1 13.3696 3.89114 56.7367
473 1 4.80337 2.73253 68.2468
474 1 0.694914 0.43529 65.2374
475 1 13.2044 0.582077 60.9967
476 1 13.8213 0.523412 58.413
477 2 0.84995 0.24814 57.4985
478 1 14.296 1.52258 56.0218
479 2 5.41832 2.421 65.6262
480 1 2.85178 1.96945 66.2875
481 1 3.43742 3.63193 64.1283
482 2 15.0292 1.38944 62.8861
483 1 0.535223 0.871646 60.1568
484 2 16.6506 4.60046 62.4235
485 1 14.6833 3.29562 60.8983
486 1 15.5366 2.83782 58.2054
487 1 2.49247 2.67568 61.4935
488 1 2.90213 2.24843 58.8851
489 1 15.7069 5.41596 57.1933
490 1 16.7911 4.33866 70.7872
491 1 11.6926 5.50268 64.1397
492 2 3.82178 3.22994 70.7726
493 1 3.60796 5.18722 69.0362
494 1 7.26551 4.09606 67.1868
495 1 6.41933 4.46249 69.632
496 1 4.11089 4.59985 66.5348
497 1 3.88695 5.19696 61.7297
498 1 4.47602 4.712 59.1145
499 1 17.0881 4.74327 59.7681
500 2 2.48367 4.10924 57.0104
501 1 8.01074 2.74515 61.6803
502 1 5.95985 4.02507 63.2392
503 1 5.20661 2.61267 60.7892
504 1 7.11279 3.4332 58.8143
505 2 6.54671 4.85399 60.8448
506 1 12.2958 4.58089 69.7745
507 1 9.17954 4.35863 64.9072
508 1 9.60402 4.49597 68.8707
509 1 11.3631 5.09273 66.8448
510 2 10.2273 4.18253 62.5408
511 1 9.04322 4.8621 60.0758
512 1 5.08337 2.95713 57.1273
513 2 8.60768 4.95611 57.5001
514 1 12.199 4.74301 61.2637
515 2 13.8479 4.92847 58.9512
516 1 7.81341 3.14731 55.932
517 1 5.56333 0.0811939 56.0912
518 1 3.87214 5.76418 55.2366
519 2 3.54389 4.88956 53.0836
520 1 4.95654 5.06879 50.9261
521 1 7.93126 0.596533 51.2046
522 1 8.28751 5.02448 51.8287
523 2 7.08381 5.86022 49.4504
524 1 6.16368 4.73742 45.2059
525 1 8.13546 5.43789 43.0824
526 1 8.41891 5.60292 47.1173
527 1 5.35566 5.53525 42.2515
528 1 10.1896 6.54724 53.1419
529 2 10.8677 5.04622 51.0514
530 1 12.8293 5.26035 52.8803
531 1 5.13789 0.460638 50.1221
532 1 11.473 5.71006 48.8271
533 1 5.03504 0.140348 40.8673
534 1 15.4922 5.25093 52.2346
535 2 16.2233 5.27426 49.6543
536 1 13.4803 4.67637 50.3081
537 1 14.1182 6.30258 48.1643
538 2 8.00217 0.586684 46.69
539 1 10.3619 5.96981 45.1124
540 1 11.0347 5.53798 42.7587
541 1 13.2084 5.25803 45.9469
542 1 13.8617 4.86666 43.364
543 1 8.17485 0.298525 54.818
544 1 3.14443 1.29607 48.2145
545 2 14.5424 5.69513 54.9197
546 2 12.4473 2.89642 54.4324
547 1 10.348 1.07224 53.075
548 1 17.9731 6.74527 51.2264
549 1 13.1009 0.401012 53.7578
550 1 12.7311 2.44269 51.8404
551 1 10.9996 0.61865 50.5014
552 1 10.4506 1.17437 45.9627
553 1 11.3473 0.574813 43.428
554 1 8.55795 0.677129 43.9184
555 2 9.64022 0.0211817 41.2921
556 1 1.50119 1.5959 55.3383
557 1 15.4584 2.50384 50.986
558 1 14.7181 2.84185 53.5005
559 2 13.599 1.59191 49.2607
560 1 12.732 2.70427 46.8675
561 1 3.74208 3.23499 54.8534
562 1 4.87077 2.4922 52.3015
563 1 3.64382 5.36872 45.9104
564 1 12.7251 -0.0753721 47.5879
565 1 14.9517 1.34103 47.022
566 1 15.979 5.30953 45.1316
567 1 17.8978 5.87397 43.2914
568 2 13.2109 0.799282 45.3928
569 1 3.59563 0.457732 53.8429
570 1 2.41094 3.95511 50.961
571 2 2.10309 2.55628 53.0332
572 1 0.631101 0.310345 49.1781
573 1 0.891812 0.427704 52.8956
574 1 2.65594 1.09546 50.9708
575 2 5.77067 6.62668 46.7136
576 1 0.549744 0.79156 44.3872
577 1 2.09141 2.73345 46.0455
578 1 15.3806 3.92525 47.6927
579 1 15.7891 5.20224 41.4159
580 1 13.681 2.15827 43.3729
581 2 15.4689 0.795734 41.6053
582 1 16.3831 3.33939 43.2666
583 2 14.7942 3.12397 45.368
584 1 14.3888 2.95049 40.8893
585 1 6.05807 1.55161 47.8229
586 1 3.81675 0.645224 45.1773
587 1 4.9179 2.73736 41.3506
588 1 2.68424 1.2263 42.3169
589 2 5.26476 0.956029 43.3448
590 1 12.8545 0.88867 41.0436
591 1 16.671 4.51549 54.7552
592 1 6.08066 4.61586 53.8143
593 2 5.96779 1.97169 54.6177
594 2 4.41232 2.86079 49.5998
595 1 2.79145 4.22688 48.2662
596 1 10.527 3.89724 55.806
597 1 7.81195 2.55064 53.1352
598 2 9.43949 2.61625 51.149
599 1 6.83445 3.12077 50.3292
600 1 8.79488 1.73865 48.7973
601 1 5.81108 4.44367 48.0276
602 1 9.14501 4.31651 49.2836
603 2 6.72535 3.37132 43.2739
604 1 4.11712 3.36889 43.8604
605 1 6.31936 2.02824 45.2385
606 1 7.42205 4.19905 40.7706
607 1 10.4931 3.80708 53.0893
608 2 8.69975 4.94937 54.3973
609 2 4.43131 2.9543 46.5102
610 2 17.7849 3.85198 41.1149
611 1 11.4827 3.00229 49.3429
612 1 8.59768 3.49974 45.2452
613 1 9.53427 2.98043 42.6948
614 2 11.9485 3.0843 41.8932
615 1 10.3215 4.53473 40.5827
616 2 10.2988 3.83644 47.1628
617 1 11.3472 3.53282 44.6266
618 1 7.37139 1.52275 41.7007
ITEM: TIMESTEP
8000
ITEM: NUMBER OF ATOMS
618
ITEM: BOX BOUNDS xy xz yz pp pp ff
0.0000000000000000e+00 1.9317770367296919e+01 4.0025167278329121e+00
0.0000000000000000e+00 6.6702723500479264e+00 0.0000000000000000e+00
0.0000000000000000e+00 1.0921147561319708e+02 0.0000000000000000e+00
ITEM: ATOMS id type x y z
1 1 4.65888 6.04781 5.91844
2 1 6.57959 6.20755 8.50335
3 1 4.90846 5.96417 12.9682
4 1 5.68399 0.341168 5.7216
5 1 4.37623 -0.0314054 10.6188
6 1 6.61394 6.25532 15.3644
7 1 4.78482 5.89148 19.9695
8 1 12.5191 5.92992 5.76195
9 1 7.42462 0.552746 8.29665
10 1 5.78649 0.123866 13.0022
11 1 4.19871 -0.073749 17.7282
12 1 6.53358 6.39494 22.4354
13 1 4.94056 6.10411 27.0959
14 1 10.8591 1.09887 5.87134
15 1 14.1148 6.38364 8.29268
16 1 9.07627 0.900304 10.5844
17 1 12.3717 5.95801 12.9484
18 1 7.38151 0.404548 15.3008
19 1 5.85945 0.294419 19.9728
20 1 7.99189 6.79011 24.7586
21 1 6.42804 6.57811 29.5186
22 1 4.79262 6.01187 34.0614
23 1 13.3935 0.283659 6.17376
24 1 12.8109 3.07704 5.72615
25 1 12.4529 1.58728 8.41618
26 1 11.7635 -0.0910073 10.7283
27 1 11.2738 2.84373 10.4784
28 1 10.7495 1.18809 13.066
29 1 14.086 6.21729 15.4149
30 1 9.16464 0.733166 17.594
31 1 12.4759 6.05188 19.9717
32 1 7.47971 0.613104 22.3289
33 1 5.82667 0.419048 26.7869
34 1 4.23629 0.0769618 31.7982
35 1 6.32863 6.26642 36.467
36 1 15.4793 2.09319 5.97025
37 1 15.1684 0.45325 8.56351
38 1 14.5592 3.45104 8.52381
39 1 13.9028 1.73451 10.6863
40 1 13.5395 0.416147 13.0366
41 1 12.9493 3.1041 12.9076
42 1 12.2869 1.44063 15.3522
43 1 11.8063 -0.15912 17.6638
44 1 11.2252 2.72007 17.5822
45 1 10.6851 1.20314 19.9431
46 1 14.2234 6.25154 22.2839
47 1 9.2381 1.04597 24.5205
48 1 12.5226 6.23337 26.9207
49 1 7.43665 0.819 29.2773
50 1 5.89953 0.550518 33.9924
51 1 7.78771 6.92255 38.5873
52 1 3.10173 1.36328 5.79091
53 1 17.6817 4.11782 5.98308
54 1 1.99984 2.47961 8.44567
55 1 1.55552 0.724197 10.7806
56 1 16.2361 3.72753 10.6766
57 1 15.7682 2.3012 12.9709
58 1 15.0803 0.673476 15.3903
59 1 14.6209 3.4125 15.2713
60 1 13.9722 1.74084 17.6233
61 1 13.3946 0.217842 20.0083
62 1 12.9062 3.1319 20.0034
63 1 12.2757 1.47207 22.3676
64 1 12.0052 0.118697 24.685
65 1 11.3298 3.01305 24.4934
66 1 10.8096 1.27133 26.9947
67 1 14.1969 6.40531 29.2919
68 1 9.14178 0.977241 31.6941
69 1 12.5312 6.18337 33.895
70 1 7.20116 0.649329 36.3836
71 1 5.1989 3.22293 5.95636
72 1 4.67802 1.6028 8.2198
73 1 4.32859 4.42043 8.4339
74 1 3.72067 2.66187 10.9314
75 1 3.19983 1.03481 13.2083
76 1 17.9253 3.9481 13.0545
77 1 2.12869 2.49335 15.3728
78 1 1.4615 0.814931 17.7252
79 1 16.3392 3.68065 17.6374
80 1 15.6742 2.11257 20.0077
81 1 15.0223 0.612065 22.4115
82 1 14.6405 3.45632 22.1542
83 1 13.9564 2.09923 24.5931
84 1 13.5848 0.420306 27.0885
85 1 12.8458 3.30949 26.997
86 1 12.5219 1.68816 29.3936
87 1 11.8949 0.0199294 31.665
88 1 11.2827 3.10673 31.7876
89 1 10.6271 1.26975 34.069
90 1 13.9038 6.58529 36.5825
91 1 8.77227 1.19059 38.9655
92 1 8.13744 1.98017 5.60233
93 1 7.25616 5.11237 5.82862
94 1 6.91923 3.31545 8.20375
95 1 6.45504 1.72794 10.7345
96 1 6.00013 4.65218 10.7346
97 1 5.38177 3.11248 13.0058
98 1 4.8308 1.20217 15.3601
99 1 4.38888 4.3937 15.4142
100 1 3.72778 2.71004 17.6184
101 1 3.15398 1.19414 20.0786
102 1 17.9774 3.97389 19.9788
103 1 1.91529 2.44875 22.4884
104 1 1.30196 1.12405 24.8357
105 1 16.2835 4.01989 24.7305
106 1 15.4584 2.38911 26.9717
107 1 15.063 0.654402 29.225
108 1 14.6386 3.58112 29.2901
109 1 13.9182 2.24236 31.793
110 1 13.4572 0.4897 33.9314
111 1 12.6838 3.35934 34.1061
112 1 12.2097 1.64099 36.2365
113 1 15.376 6.65163 38.831
114 1 11.4153 2.67134 38.9261
115 1 10.2553 4.16147 5.62359
116 1 9.66045 2.45771 8.17996
117 1 9.14221 5.27349 8.13136
118 1 8.6166 3.6955 10.6895
119 1 7.94998 2.14755 12.9727
120 1 7.66164 5.00224 12.9559
121 1 6.95378 3.40765 15.2973
122 1 6.41862 1.87748 17.6771
123 1 5.92732 4.63588 17.5783
124 1 5.33693 3.25753 20.0552
125 1 4.71496 1.66173 22.2726
126 1 4.40957 4.38194 22.3649
127 1 3.68996 2.90334 24.717
128 1 3.01428 1.45963 27.0054
129 1 17.9576 4.27298 27.0795
130 1 2.08689 2.73542 29.3269
131 1 1.20308 1.02668 31.6058
132 1 16.2152 3.82085 31.6462
133 1 15.6731 2.33421 34.0786
134 1 14.9934 0.780787 36.2518
135 1 14.5812 3.63358 36.4238
136 1 13.9855 1.91159 38.258
137 1 12.0255 4.40073 8.15826
138 1 10.9339 5.55301 10.4992
139 1 10.3401 3.96361 12.9683
140 1 9.48389 2.26569 15.2911
141 1 9.25551 5.06206 15.4821
142 1 8.48728 3.70332 17.6716
143 1 8.00328 2.25376 19.9362
144 1 7.37817 5.06756 19.982
145 1 6.94141 3.5005 22.3845
146 1 6.642 1.88922 24.6249
147 1 5.81635 4.91716 24.7572
148 1 5.36069 3.12843 26.8899
149 1 4.64187 1.76106 29.256
150 1 4.46644 4.60544 29.1977
151 1 3.56196 2.87149 31.7553
152 1 2.94538 1.35901 34.0302
153 1 17.9027 4.06902 33.9749
154 1 2.0374 2.63493 36.5442
155 1 1.30807 1.27321 39.0949
156 1 16.2082 4.09844 38.7029
157 1 14.9953 4.76246 5.81243
158 1 13.6529 4.82484 10.652
159 1 11.9805 4.22355 15.1839
160 1 10.8119 5.64547 17.5819
161 1 10.1844 4.18915 19.9519
162 1 9.6187 2.48099 22.2358
163 1 9.19899 5.53307 22.264
164 1 8.67578 3.92997 24.4568
165 1 8.12953 2.21442 26.9836
166 1 7.63224 5.15146 27.0103
167 1 7.04955 3.7603 29.3289
168 1 6.39703 1.99217 31.6263
169 1 5.81266 4.86265 31.7305
170 1 5.34529 3.17537 34.0971
171 1 4.70277 1.66156 36.3579
172 1 4.01269 4.59824 36.3901
173 1 3.67863 3.29347 38.8411
174 1 16.7655 5.32572 8.35355
175 1 15.1084 5.13455 13.1163
176 1 13.4478 4.57776 17.5296
177 1 12.0835 4.443 22.3139
178 1 10.91 5.81509 24.4898
179 1 10.3005 4.24857 26.7986
180 1 9.70181 2.67813 29.3913
181 1 9.2537 5.55612 29.2635
182 1 8.61086 3.88795 31.6284
183 1 7.997 2.28814 33.9308
184 1 7.3449 5.19538 34
185 1 6.87262 3.60666 36.4462
186 1 6.27373 2.28254 38.7429
187 1 5.55631 5.12771 38.9981
188 1 18.3766 5.60903 10.8499
189 1 16.8044 5.36391 15.1704
190 1 15.1341 5.05698 19.9528
191 1 13.6899 4.8945 24.6434
192 1 12.0241 4.50777 29.377
193 1 10.967 5.85064 31.6868
194 1 10.0959 4.46021 33.8958
195 1 9.49415 2.56552 36.3741
196 1 8.97673 5.33837 36.0831
197 1 8.66173 3.89957 38.348
198 1 18.4163 5.72524 17.6975
199 1 16.9315 5.37038 22.308
200 1 15.2535 5.23439 27.0324
201 1 13.7023 4.88791 31.6836
202 1 11.6663 4.68799 36.2845
203 1 10.6051 6.01417 38.5484
204 1 18.3559 5.85165 24.6713
205 1 16.9446 5.47273 29.329
206 1 15.0848 5.04764 34.1605
207 1 13.3598 4.93491 38.8936
208 1 18.4264 5.90901 31.705
209 1 16.8172 5.57458 36.2595
210 1 18.2356 5.87638 38.8422
211 2 14.3264 1.36675 102.301
212 1 15.0192 1.15669 99.5236
213 1 3.68298 0.628483 103.302
214 1 2.43639 1.39256 99.0068
215 1 1.56398 1.76718 101.671
216 2 0.34469 0.697738 97.0099
217 1 14.3855 1.05648 94.7031
218 1 6.07528 2.00345 102.761
219 1 6.90542 1.48169 100.109
220 1 5.447 6.38337 94.8174
221 1 4.58518 2.87386 98.8036
222 2 4.27209 1.40941 100.87
223 1 3.84264 1.09442 93.9376
224 1 1.46905 2.449 95.2796
225 1 15.5182 0.547993 90.7992
226 1 2.94687 1.68931 90.9279
227 2 1.17852 1.55107 92.9815
228 1 15.629 0.904086 88.1961
229 1 8.21586 0.689233 95.6398
230 1 6.82041 1.12399 89.0947
231 1 8.56687 6.4197 89.9741
232 1 11.5827 5.15156 103.712
233 1 3.66632 3.38952 102.603
234 1 8.27767 3.30973 101.932
235 1 6.23689 4.87886 103.325
236 2 7.97554 0.68671 102.387
237 2 5.74142 3.71167 100.966
238 1 7.15964 3.90225 98.8614
239 2 6.372 1.51796 97.5454
240 1 4.34942 2.52895 96.089
241 1 13.2198 2.97026 103.593
242 1 10.3291 1.60285 101.633
243 1 14.2079 6.11069 99.0648
244 2 11.3386 1.6322 99.2134
245 1 10.2619 3.73467 99.8354
246 1 8.90872 1.92428 98.1344
247 1 10.8554 0.696911 96.7383
248 1 7.04334 3.34279 95.9828
249 1 11.2129 3.25392 97.0968
250 2 9.12554 4.47333 97.3723
251 1 7.8387 3.31587 92.9613
252 2 8.48069 1.62471 90.8297
253 1 9.72292 3.82807 91.1339
254 1 5.79367 1.68843 91.7392
255 1 8.10122 0.364466 92.9509
256 1 9.85721 3.66032 94.8981
257 1 6.87814 3.83623 90.1358
258 1 9.09421 2.53617 88.4966
259 1 12.7768 2.53504 100.966
260 2 10.8708 3.49814 102.602
261 1 12.2731 5.47851 100.906
262 2 12.9451 3.91314 98.8766
263 1 14.9464 3.99631 100.79
264 1 11.4514 5.9137 97.9569
265 1 13.3965 4.6664 96.3822
266 2 6.32942 1.52033 94.3207
267 2 4.83566 2.40597 89.217
268 1 10.5453 5.06364 88.6386
269 1 2.33595 4.06697 99.8937
270 1 13.5066 1.86841 97.2506
271 1 10.3778 1.64189 92.775
272 1 11.2239 1.381 90.1457
273 2 13.944 2.08725 89.4945
274 1 11.7369 2.98927 87.9152
275 2 2.66178 3.68665 97.4554
276 1 15.562 3.67036 98.2189
277 1 15.9941 5.04204 95.946
278 2 12.1713 2.41616 94.8869
279 1 13.1624 1.8587 92.3621
280 2 13.9712 6.2356 94.3464
281 1 11.8832 4.15903 92.967
282 1 12.6848 4.04116 90.3294
283 1 14.7863 3.71994 93.725
284 1 15.54 3.19942 91.1803
285 1 13.048 6.27444 89.1253
286 1 14.3848 5.74683 102.877
287 1 9.62294 6.42555 95.9448
288 2 16.6796 4.56062 102.699
289 1 16.3912 6.57228 100.866
290 1 4.87312 5.54226 98.9762
291 1 4.19793 5.86598 101.617
292 1 16.8705 6.16216 98.2826
293 1 16.4081 6.00225 93.4661
294 1 17.1763 5.80995 90.7522
295 1 14.4467 5.74143 91.5189
296 2 15.3922 5.06891 88.9695
297 1 5.31356 3.78756 93.5955
298 1 3.19054 4.78183 95.1359
299 1 2.38114 3.64281 92.7651
300 1 4.39481 4.4705 90.7025
301 2 3.6457 5.91201 92.8412
302 1 9.596 5.9591 101.725
303 1 6.89405 6.17736 96.9192
304 1 6.94511 5.95938 100.806
305 1 8.89133 6.48405 98.9235
306 2 7.81269 5.16848 94.6897
307 1 6.44603 6.01246 92.2196
308 1 2.40263 3.62258 89.1496
309 2 6.11216 6.15888 89.492
310 1 9.60381 5.83068 93.0711
311 2 11.0434 5.93188 90.9648
312 1 5.04444 4.5911 87.9375
313 1 3.23582 1.09811 87.8827
314 1 12.8579 0.544364 87.4163
315 2 16.4318 6.3101 85.1264
316 1 17.9543 6.52999 82.9898
317 1 5.63588 2.07202 83.0829
318 1 5.88982 6.54265 83.7982
319 2 0.667331 0.538426 81.3484
320 1 3.76168 6.03214 77.035
321 1 1.5396 0.21587 75.0751
322 1 1.75862 0.00511921 78.8816
323 1 14.1336 0.0295332 74.0878
324 1 3.94492 1.26565 85.0282
325 2 8.42824 6.55539 82.9496
326 1 10.4258 6.46094 84.7618
327 1 2.85077 1.92246 82.2138
328 1 5.06864 0.784133 80.6852
329 1 2.48299 1.29426 72.6647
330 1 13.0779 6.78554 84.181
331 2 13.7391 6.64484 81.5253
332 1 11.1251 6.14086 82.0567
333 1 7.68091 1.01967 79.9889
334 2 5.71752 2.17347 78.5431
335 1 3.92532 0.570551 76.8425
336 1 4.54447 0.0461369 74.1813
337 1 10.7696 6.67936 77.5496
338 1 11.2922 6.14118 74.9176
339 1 5.72223 2.01029 86.9106
340 1 16.2694 2.66614 80.009
341 2 8.00108 0.610182 86.7285
342 2 9.83286 4.13774 86.3943
343 1 7.72275 2.52623 84.9272
344 1 11.4945 1.47691 83.1964
345 1 10.6985 1.81427 85.6252
346 1 10.2785 3.81854 83.7567
347 1 8.50102 2.07989 82.4042
348 1 8.13926 2.54681 77.6738
349 1 8.9093 2.01641 75.0951
350 1 6.17381 1.96448 75.8399
351 2 7.10694 1.62411 73.0405
352 1 14.4014 3.11161 87.193
353 1 13.0267 3.98853 83.0034
354 1 12.3596 4.29347 85.6396
355 2 11.1477 3.23033 81.0318
356 1 10.2352 3.98382 78.6794
357 1 16.5989 4.57864 86.862
358 1 2.25827 4.08241 84.2889
359 1 12.5318 0.0143374 77.6301
360 1 10.1933 1.25545 79.2293
361 1 12.4171 2.697 78.8617
362 1 9.68089 -0.091902 76.9831
363 1 11.5045 0.891019 74.7346
364 2 10.8967 2.11678 76.8371
365 1 1.40883 1.96959 85.6953
366 1 15.3686 5.46733 82.9086
367 2 14.8776 4.00189 84.8783
368 1 13.4237 1.73584 81.0386
369 1 13.7728 1.78436 84.8839
370 1 15.6023 2.62974 82.8529
371 2 14.6098 1.53407 78.5734
372 1 13.567 2.23097 76.1082
373 1 14.8161 4.17801 77.8326
374 1 12.621 5.40849 79.288
375 1 9.5066 0.106272 73.0357
376 1 11.1652 3.54671 74.8012
377 2 13.1417 2.3562 73.5567
378 1 13.8662 4.72525 74.8112
379 2 12.265 4.46533 76.9159
380 1 11.2014 3.16907 72.2425
381 1 3.79055 3.10237 79.7789
382 1 1.29099 2.21537 77.0812
383 1 2.5737 3.98425 73.1215
384 1 15.5969 2.75889 74.0458
385 2 2.8402 2.25443 74.9952
386 1 12.3646 0.50181 71.9093
387 1 14.2967 5.96764 86.6316
388 1 3.56782 6.00236 85.8684
389 2 3.41059 3.32229 86.5867
390 2 17.3971 4.20839 81.5445
391 1 15.4806 5.59065 80.2576
392 1 7.89409 5.05945 87.6957
393 1 5.32009 4.03439 85.0049
394 2 7.02647 4.14736 83.1035
395 1 4.42278 4.73208 82.0753
396 1 6.45866 3.20308 80.7809
397 1 2.95786 5.9704 79.9433
398 1 6.79945 5.99502 81.1518
399 2 4.31702 4.65491 74.9774
400 1 16.869 4.54451 75.6706
401 1 3.94288 3.21465 77.0358
402 1 4.82744 5.54594 72.7114
403 1 7.8876 5.10554 85.0275
404 2 6.05471 6.22892 86.469
405 2 17.3591 4.34183 78.3186
406 2 15.7382 5.36721 73.3371
407 1 8.95097 4.57845 81.2176
408 1 6.32203 4.77081 76.8927
409 1 6.83765 4.22931 74.2198
410 2 9.23389 4.21198 73.5204
411 1 7.4101 5.64042 71.9842
412 2 8.15148 5.4523 78.9008
413 1 9.01733 4.71724 76.2042
414 1 4.8981 2.68118 73.1713
415 2 1.42222 0.209929 70.3746
416 1 5.87454 6.54112 67.7363
417 1 9.94531 5.67926 71.4179
418 1 8.53685 6.53886 66.9969
419 1 3.95438 0.257968 69.6036
420 2 6.79611 5.82262 65.0358
421 1 1.92614 0.051591 62.6554
422 1 8.23149 0.616109 70.7804
423 1 13.2118 6.63755 68.1453
424 1 8.14167 5.51479 62.8791
425 1 6.96348 1.49692 66.8819
426 2 10.6428 6.6505 68.9593
427 1 6.43424 0.296647 61.8699
428 1 4.54145 1.40916 63.4204
429 1 6.78935 6.2224 58.8273
430 1 5.41768 0.591144 58.8483
431 2 3.83721 0.452346 60.9525
432 1 6.73808 5.71756 56.2903
433 1 14.647 5.70486 63.8719
434 1 13.5103 6.69867 57.1429
435 1 11.2403 5.39086 58.1669
436 1 13.8876 4.19775 72.0378
437 1 5.78145 1.95723 70.6
438 1 10.4869 1.94988 69.9427
439 1 8.40622 3.13253 71.2462
440 2 14.3314 6.04798 70.5397
441 2 7.92016 2.32842 69.0013
442 1 9.56438 2.45834 66.8969
443 2 8.89991 0.291889 65.5408
444 1 7.33717 1.74447 64.2587
445 1 15.0597 1.50778 71.6477
446 1 16.2947 6.67403 69.174
447 1 16.5081 4.80232 67.095
448 2 13.8685 0.178668 67.0468
449 1 12.6736 2.45712 67.849
450 1 11.3682 0.659086 66.2222
451 1 17.2781 6.11443 64.5892
452 1 10.0462 1.90205 63.8675
453 1 13.4741 2.0695 65.1488
454 2 11.3716 3.39749 65.3439
455 1 10.646 2.14316 61.0366
456 2 11.083 0.771369 58.9748
457 1 12.4653 2.87064 59.0993
458 1 8.5053 0.707916 59.7164
459 1 14.7649 6.07518 61.0885
460 1 12.6499 3.05924 62.9366
461 1 9.83135 2.7194 58.0783
462 1 11.7253 1.68013 56.4826
463 1 14.9721 1.09334 69.0773
464 2 13.0894 2.31616 70.3954
465 1 14.7022 3.97682 69.0797
466 2 15.4205 2.34652 66.9165
467 1 1.88185 2.66798 68.9146
468 1 13.6586 4.59174 66.1895
469 1 15.9087 3.39907 64.6838
470 2 8.91964 0.484705 62.368
471 2 7.43866 1.25933 57.2902
472 1 13.3667 4.04202 56.7784
473 1 4.62306 2.71272 68.2337
474 1 0.441487 0.586868 65.2073
475 1 13.1637 0.785626 61.0214
476 1 13.6726 0.366852 58.3345
477 2 0.757089 0.290043 57.5507
478 1 14.3327 1.6323 55.9971
479 2 5.26485 2.63948 65.5404
480 1 2.68953 2.0332 66.2267
481 1 3.26496 3.82242 63.9731
482 2 14.9978 1.51925 62.9186
483 1 0.630786 0.769139 60.3238
484 2 16.3657 4.72305 62.3958
485 1 14.5859 3.31682 60.8712
486 1 15.4957 2.77118 58.2493
487 1 2.30985 2.60391 61.754
488 1 2.96531 2.30601 59.0337
489 1 15.7964 5.3886 57.3013
490 1 16.6621 4.52746 70.9444
491 1 11.7556 5.56495 64.0835
492 2 3.72106 3.251 70.8374
493 1 3.3839 5.0011 68.8668
494 1 7.05758 4.13689 67.1151
495 1 6.21229 4.4794 69.7403
496 1 4.0088 4.68605 66.3834
497 1 3.70584 5.27527 61.7745
498 1 4.34719 4.89175 59.2462
499 1 16.9513 4.61858 59.7802
500 2 2.64758 4.18941 57.1282
501 1 8.11107 2.86066 61.7302
502 1 5.94847 3.89423 63.1942
503 1 5.1421 2.58098 60.8803
504 1 7.0062 3.41506 58.7997
505 2 6.48452 4.80657 61.0026
506 1 11.9687 4.4849 69.8764
507 1 9.08638 4.49914 65.119
508 1 9.23772 4.50458 68.952
509 1 11.0494 5.1907 66.9325
510 2 10.2655 4.24814 62.637
511 1 9.17586 4.90173 60.2214
512 1 5.1742 2.95564 57.0437
513 2 8.79366 4.9711 57.5639
514 1 12.1688 5.00999 60.9966
515 2 13.8955 4.9833 58.9978
516 1 7.94972 3.1861 55.8952
517 1 5.30225 0.157602 56.0226
518 1 4.06213 5.85736 55.2998
519 2 3.62482 4.94027 52.9771
520 1 5.07691 5.01157 50.8575
521 1 8.11007 0.69722 51.0918
522 1 8.23591 5.08891 51.6927
523 2 7.14168 5.78821 49.3632
524 1 6.16867 4.9046 45.1462
525 1 8.16022 5.60878 43.0518
526 1 8.35697 5.74826 46.9528
527 1 5.44046 5.54339 42.0634
528 1 10.2783 6.52953 53.1471
529 2 10.9283 5.1374 51.0585
530 1 12.837 5.29362 52.9461
531 1 5.33218 0.569659 50.2489
532 1 11.3194 5.94756 48.7501
533 1 5.12095 0.0335862 40.7045
534 1 15.7269 5.45739 52.4248
535 2 16.2529 5.3741 49.6369
536 1 13.6566 4.73327 50.3833
537 1 14.0654 6.24473 48.0985
538 2 8.01264 0.644486 46.4924
539 1 10.3004 6.06598 44.8757
540 1 11.0791 5.4829 42.4588
541 1 13.2764 5.26915 45.6652
542 1 13.8682 4.88266 43.1146
543 1 8.19469 0.427072 54.9284
544 1 3.18949 1.48599 48.1951
545 2 14.6325 5.7561 54.9569
546 2 12.5642 3.13268 54.5132
547 1 10.4917 1.0219 53.0502
548 1 18.022 6.78074 51.1517
549 1 13.3142 0.498319 53.7111
550 1 12.8364 2.47011 51.7754
551 1 11.0191 0.738218 50.3675
552 1 10.6641 1.29184 45.8144
553 1 11.3599 0.603564 43.1502
554 1 8.81373 0.651673 43.5723
555 2 9.79539 0.168153 40.9861
556 1 1.68974 1.69244 55.3589
557 1 15.4773 2.42629 51.0449
558 1 14.9088 2.9372 53.6834
559 2 13.7549 1.91053 49.1887
560 1 12.6582 2.84266 46.7503
561 1 3.91422 3.19374 54.7933
562 1 4.82717 2.50679 52.2373
563 1 3.62987 5.37088 45.8425
564 1 12.7515 0.0144924 47.3843
565 1 14.9722 1.41653 46.8654
566 1 16.001 5.35427 45.0179
567 1 18.0771 5.913 43.0626
568 2 13.4154 0.814735 45.0837
569 1 3.67469 0.505533 53.8172
570 1 2.38912 3.96102 51.027
571 2 2.24435 2.52568 52.9683
572 1 0.668893 0.409713 49.1362
573 1 0.917648 0.385572 52.8129
574 1 2.76324 1.03519 50.9719
575 2 5.73869 6.86401 46.633
576 1 0.627859 0.90489 44.0474
577 1 2.01269 2.84405 45.852
578 1 15.4113 3.99758 47.5246
579 1 15.8646 5.4277 41.1607
580 1 13.6826 2.25502 42.9971
581 2 15.495 0.943812 41.4167
582 1 16.5408 3.5178 43.0163
583 2 14.7987 3.10555 45.0952
584 1 14.5566 3.05196 40.7136
585 1 6.08252 1.65944 47.8377
586 1 3.75866 0.927218 45.111
587 1 4.93784 2.92348 41.2446
588 1 2.89403 1.30464 42.0415
589 2 5.44989 1.04602 43.1191
590 1 13.1507 0.98929 40.7193
591 1 16.95 4.49312 54.747
592 1 6.19291 4.60791 53.8066
593 2 5.96712 1.99428 54.6033
594 2 4.42377 2.89697 49.699
595 1 2.72755 4.29124 48.2511
596 1 10.6397 4.31467 55.8009
597 1 7.98061 2.48427 53.0474
598 2 9.52766 2.804 51.0428
599 1 6.90237 3.03034 50.15
600 1 8.92156 1.89248 48.5988
601 1 5.55557 4.49909 47.8963
602 1 9.23231 4.52426 49.1543
603 2 6.83341 3.47288 43.1876
604 1 4.25278 3.34402 43.8089
605 1 6.59573 2.11167 45.207
606 1 7.38517 4.28793 40.7037
607 1 10.6301 3.74557 53.1155
608 2 8.66103 4.89789 54.3165
609 2 4.46793 2.93916 46.3397
610 2 17.9829 4.04646 40.9298
611 1 11.5215 3.18514 49.3223
612 1 8.91341 3.5098 45.0506
613 1 9.54274 3.12914 42.4975
614 2 11.963 3.16915 41.5331
615 1 10.1385 4.31975 40.3346
616 2 10.5711 4.26533 46.8385
617 1 11.4621 3.4943 44.2792
618 1 7.45602 1.58166 41.5081
ITEM: TIMESTEP
9000
ITEM: NUMBER OF ATOMS
618
ITEM: BOX BOUNDS xy xz yz pp pp ff
0.0000000000000000e+00 1.9317770367296919e+01 4.0025167278329121e+00
0.0000000000000000e+00 6.6702723500479264e+00 0.0000000000000000e+00
0.0000000000000000e+00 1.0921147561319708e+02 0.0000000000000000e+00
ITEM: ATOMS id type x y z
1 1 4.68096 5.93324 5.71696
2 1 6.4454 6.28733 8.20205
3 1 4.70196 6.11834 12.742
4 1 5.70384 0.325607 5.96194
5 1 4.0219 0.0617977 10.4498
6 1 6.07187 6.42805 15.2179
7 1 4.48162 6.00193 19.9205
8 1 12.388 5.93883 5.70035
9 1 7.38206 0.639878 8.06501
10 1 5.46998 0.519259 12.9687
11 1 7.82163 6.78289 17.6488
12 1 6.05294 6.10589 22.1815
13 1 4.61657 5.94886 26.9734
14 1 10.745 1.31163 5.64351
15 1 14.112 6.42329 8.23993
16 1 8.90386 0.992647 10.7165
17 1 12.0108 6.21585 12.9932
18 1 7.18622 0.750755 15.4526
19 1 5.52555 0.299598 19.8575
20 1 7.74484 6.50909 24.5195
21 1 6.21747 6.28384 29.2237
22 1 4.50255 6.18443 33.891
23 1 13.2359 0.369209 5.55287
24 1 12.8798 3.34564 5.59901
25 1 12.3461 1.60755 8.1811
26 1 11.6306 0.131694 10.6571
27 1 11.11 2.77823 10.7899
28 1 10.5513 1.35927 13.027
29 1 14.0038 6.44418 15.2553
30 1 8.87389 0.992187 17.6222
31 1 12.1819 5.95635 19.8652
32 1 7.07989 0.601804 22.1322
33 1 5.54048 0.223212 26.792
34 1 7.88863 6.57519 31.586
35 1 6.27618 6.369 36.3072
36 1 15.6241 2.30893 5.5804
37 1 15.0661 0.683495 8.08509
38 1 14.5488 3.50883 8.17821
39 1 14.0883 1.97866 10.5066
40 1 13.3201 0.369136 12.7875
41 1 12.8936 3.44232 12.996
42 1 12.2191 1.74791 15.2501
43 1 15.4734 6.76345 17.6154
44 1 11.022 3.04814 17.6429
45 1 10.3996 1.24913 20.0514
46 1 14.0275 6.4246 22.262
47 1 8.85781 0.884748 24.5971
48 1 12.2711 5.92227 26.8367
49 1 7.05197 0.467482 29.2666
50 1 5.50374 0.0998743 33.7873
51 1 7.82563 6.65971 38.5966
52 1 2.92936 1.15892 5.6504
53 1 2.46368 4.0637 5.63684
54 1 1.71529 2.8397 8.11939
55 1 1.37856 0.811559 10.5383
56 1 15.9928 4.00199 10.4716
57 1 15.4272 2.25197 12.8811
58 1 14.8656 0.666427 15.1242
59 1 14.5616 3.78167 15.2684
60 1 13.6896 1.96473 17.5341
61 1 13.0256 0.266645 19.9826
62 1 12.594 3.10614 19.8493
63 1 12.1999 1.64083 22.2347
64 1 15.5475 6.58497 24.5709
65 1 10.9506 2.88098 24.5343
66 1 10.5284 1.08606 26.8591
67 1 13.8981 6.33773 29.2856
68 1 8.84907 0.977835 31.5782
69 1 12.2098 6.13364 33.9629
70 1 7.05975 0.602165 36.3128
71 1 5.21071 3.26447 5.67115
72 1 4.46815 1.66219 8.14259
73 1 4.20739 4.57222 8.16158
74 1 3.49156 2.88822 10.3758
75 1 2.87664 1.52428 12.8517
76 1 17.8137 4.21311 12.705
77 1 1.76213 2.67564 15.1076
78 1 1.19572 0.960221 17.5849
79 1 16.0257 3.79223 17.6896
80 1 15.3168 2.18785 19.8384
81 1 14.812 0.552777 22.2952
82 1 14.2542 3.39603 22.2674
83 1 13.7424 1.82537 24.6455
84 1 13.1904 0.205198 26.7408
85 1 12.7358 3.02227 26.8659
86 1 11.9996 1.42273 29.2031
87 1 15.4523 6.74505 31.6456
88 1 11.0088 2.78037 31.7132
89 1 10.5525 1.21805 34.0522
90 1 13.9356 6.43894 36.3852
91 1 8.75713 0.910034 38.882
92 1 8.07582 2.05122 5.79316
93 1 7.50516 4.88163 5.78874
94 1 6.73922 3.45882 8.24749
95 1 6.31945 1.82279 10.4348
96 1 5.93557 4.76486 10.499
97 1 5.12881 3.40866 12.8004
98 1 4.45016 1.75857 15.2379
99 1 4.02395 4.44533 15.1362
100 1 3.35442 2.92813 17.4645
101 1 2.73566 1.21835 19.8871
102 1 17.7732 4.01233 19.9425
103 1 1.68105 2.52317 22.2058
104 1 1.06539 0.814936 24.4581
105 1 15.9163 3.79163 24.6234
106 1 15.4387 2.16957 26.9369
107 1 14.7901 0.687795 29.4158
108 1 14.3252 3.52795 29.3974
109 1 13.6807 1.83798 31.6922
110 1 13.2125 0.288024 33.9429
111 1 12.5644 3.06013 33.9635
112 1 12.1629 1.4818 36.3491
113 1 15.0793 6.46291 38.8766
114 1 11.2697 2.425 39.1015
115 1 10.04 4.05081 5.84884
116 1 9.74778 2.59247 8.29933
117 1 9.0586 5.41985 8.2
118 1 8.55607 3.94947 10.7836
119 1 7.76018 2.46529 12.9981
120 1 7.38068 5.2535 13.0214
121 1 6.69522 3.45354 15.2471
122 1 6.20113 2.03355 17.633
123 1 5.51849 4.70531 17.4857
124 1 4.98876 3.13635 19.8454
125 1 4.46012 1.5875 22.1018
126 1 3.93654 4.30316 22.1231
127 1 3.38488 2.63221 24.5236
128 1 2.74152 1.09806 26.8856
129 1 17.81 4.12449 26.9351
130 1 1.77259 2.50034 29.376
131 1 1.23115 0.977824 31.5559
132 1 15.9821 3.88828 31.7029
133 1 15.3651 2.32071 33.8829
134 1 14.9916 0.829916 36.3566
135 1 14.2496 3.5581 36.1134
136 1 13.7721 2.10206 38.4502
137 1 11.9247 4.53176 8.16965
138 1 10.7414 5.67447 10.4662
139 1 10.0794 4.22443 13.0715
140 1 9.47869 2.54246 15.3301
141 1 8.852 5.49471 15.3717
142 1 8.42071 3.78175 17.5131
143 1 7.61362 2.11361 19.841
144 1 7.23244 4.97901 19.651
145 1 6.50345 3.39424 22.1987
146 1 6.05359 1.78666 24.4794
147 1 5.58941 4.63982 24.6338
148 1 5.12932 2.87451 26.9058
149 1 4.47617 1.47896 29.1585
150 1 4.01223 4.33396 29.1987
151 1 3.53179 2.75519 31.6794
152 1 2.91212 1.15589 34.0202
153 1 17.6437 4.25534 33.9097
154 1 1.79434 2.59928 36.2727
155 1 1.12936 0.948437 38.8988
156 1 15.8459 3.87184 38.6187
157 1 15.0689 5.02513 5.55316
158 1 13.2902 4.82685 10.6344
159 1 11.6391 4.51629 15.2817
160 1 10.5824 5.83774 17.54
161 1 10.0375 4.23421 19.7862
162 1 9.23652 2.32864 22.1902
163 1 8.72698 5.34184 22.1092
164 1 8.38353 3.7463 24.5232
165 1 7.78944 1.94491 26.9993
166 1 7.22572 4.90248 26.9205
167 1 6.67892 3.29311 29.1642
168 1 6.07232 1.80396 31.5764
169 1 5.51453 4.64833 31.559
170 1 5.0496 3.02795 34.0586
171 1 4.41978 1.56437 36.3224
172 1 3.87335 4.48821 36.2979
173 1 3.46668 2.98504 38.7532
174 1 16.7561 5.52934 8.18738
175 1 15.0898 5.1789 12.8937
176 1 13.3288 4.87463 17.6678
177 1 11.4394 4.27254 22.1362
178 1 10.5492 5.64463 24.4536
179 1 9.99965 4.08839 26.8738
180 1 9.4022 2.39595 29.1316
181 1 8.86191 5.21346 29.1467
182 1 8.36638 3.81697 31.5652
183 1 7.84912 2.13771 33.9386
184 1 7.1266 4.95081 33.9647
185 1 6.57095 3.43755 36.3919
186 1 6.34413 2.0389 38.8675
187 1 5.51523 4.7161 38.854
188 1 18.3875 5.71215 10.4342
189 1 16.7424 5.46649 15.074
190 1 14.8611 4.94677 19.8891
191 1 13.1527 4.62731 24.4578
192 1 11.778 4.31866 29.2414
193 1 10.5629 5.66392 31.5041
194 1 9.80221 4.07809 33.9326
195 1 9.46993 2.48935 36.3323
196 1 8.71693 5.07955 36.1336
197 1 8.59329 3.92219 38.4966
198 1 18.1691 5.80145 17.6323
199 1 16.5485 5.22132 22.2897
200 1 14.8794 5.04052 26.8828
201 1 13.2757 4.73475 31.5939
202 1 11.621 4.51949 36.6008
203 1 10.5386 6.03118 38.5654
204 1 18.2754 5.61244 24.6049
205 1 16.583 5.20068 29.2267
206 1 14.8367 5.07205 33.8505
207 1 12.9156 4.7498 39.2003
208 1 18.0666 5.66387 31.5051
209 1 16.5162 5.47584 36.2888
210 1 18.0054 5.76016 38.7782
211 2 14.2987 1.61659 102.347
212 1 14.7157 1.17044 99.5966
213 1 3.36254 0.674084 103.3
214 1 2.1579 1.25036 99.0156
215 1 1.40053 1.76986 101.669
216 2 0.443451 0.705305 97.0295
217 1 14.4978 1.18742 94.8066
218 1 5.91076 1.96483 102.854
219 1 6.70606 1.54064 100.292
220 1 5.36322 6.60892 94.9709
221 1 4.41735 2.76032 98.9893
222 2 4.11884 1.27414 101.065
223 1 3.64513 1.26607 93.7834
224 1 1.61516 2.6814 95.3037
225 1 15.5956 0.640025 90.7978
226 1 2.80774 1.78034 90.8511
227 2 1.09677 1.53545 92.9109
228 1 15.7866 0.820811 88.1611
229 1 8.35795 0.731221 95.659
230 1 7.04151 1.05111 89.0773
231 1 8.56571 6.39939 90.1735
232 1 11.7513 5.17272 103.453
233 1 3.48071 3.57587 102.574
234 1 8.15813 3.26934 102.102
235 1 5.94215 4.82154 103.323
236 2 7.98663 0.727723 102.477
237 2 5.49691 3.73742 101.007
238 1 7.10461 3.93973 98.8706
239 2 6.29104 1.67175 97.5996
240 1 4.51056 2.6976 96.1416
241 1 12.8923 2.72854 103.449
242 1 10.1535 1.6847 101.352
243 1 14.0536 6.23297 98.6748
244 2 11.3882 1.64689 99.0646
245 1 10.3207 4.00674 99.7649
246 1 8.81622 2.02365 98.0828
247 1 11.0852 0.74837 96.6434
248 1 7.29571 3.41483 95.9212
249 1 11.2036 3.39535 97.0242
250 2 9.13893 4.52966 97.3259
251 1 7.94919 3.21717 93.1318
252 2 8.70959 1.7995 90.9416
253 1 9.96629 3.97212 91.0918
254 1 5.87176 1.87697 91.7949
255 1 8.3385 0.320321 92.9435
256 1 9.91847 3.80551 94.8207
257 1 7.08919 3.88898 90.1964
258 1 9.27901 2.64728 88.7023
259 1 12.6127 2.69407 100.758
260 2 10.8241 3.6734 102.367
261 1 12.356 5.63036 100.679
262 2 12.9001 4.02491 98.6315
263 1 14.8976 4.04356 100.599
264 1 11.2271 6.04678 97.8736
265 1 13.4292 4.83922 96.2496
266 2 6.35467 1.65252 94.3816
267 2 4.90403 2.38264 89.3257
268 1 10.5762 5.13009 88.7224
269 1 17.5101 4.11009 99.8944
270 1 13.5423 1.97324 97.1927
271 1 10.5969 1.88083 92.8457
272 1 11.4289 1.49968 90.2706
273 2 13.9848 1.98705 89.5239
274 1 11.8677 3.02213 88.0035
275 2 2.75264 3.77634 97.4619
276 1 15.4622 3.54256 98.0692
277 1 16.1139 5.07587 95.9016
278 2 12.2033 2.48713 94.78
279 1 13.289 1.90751 92.2826
280 2 14.1978 6.38577 94.3229
281 1 12.0987 4.22382 93.0232
282 1 12.8384 4.0959 90.357
283 1 15.0091 3.72766 93.7068
284 1 15.6655 3.25334 91.0554
285 1 13.3135 6.51566 89.1805
286 1 14.4483 5.87152 102.875
287 1 9.34986 6.6869 95.896
288 2 16.5915 4.61554 102.612
289 1 16.3411 6.63597 100.919
290 1 4.56523 5.40073 98.9744
291 1 3.96123 5.9932 101.583
292 1 16.9376 6.19371 98.2733
293 1 16.7301 6.24138 93.5243
294 1 17.3053 5.79727 90.9295
295 1 14.641 5.73855 91.6501
296 2 15.4529 5.16709 88.9241
297 1 5.48928 3.84819 93.7916
298 1 3.38522 5.02477 95.3066
299 1 2.55911 3.6582 92.8738
300 1 4.3852 4.42017 90.9464
301 2 3.87024 5.97737 92.9675
302 1 9.65792 5.95101 102.052
303 1 6.67827 5.99517 97.0473
304 1 6.93221 5.74324 100.873
305 1 8.78753 6.52426 98.9293
306 2 7.5913 5.34607 94.4975
307 1 6.34186 5.96472 92.1358
308 1 2.20173 3.56035 88.9933
309 2 6.2195 6.16594 89.5399
310 1 9.54242 5.87971 93.1013
311 2 11.2519 6.05811 90.99
312 1 4.87889 4.7653 88.0754
313 1 3.3535 1.14414 87.8522
314 1 12.9613 0.580778 87.5324
315 2 16.4117 6.36632 85.0561
316 1 14.0904 -0.060392 83.0466
317 1 5.89192 2.09027 83.055
318 1 5.92345 6.51576 83.8453
319 2 0.647774 0.698921 81.5335
320 1 3.81378 6.30984 77.0815
321 1 1.68816 0.220273 75.0124
322 1 1.95121 0.447796 78.8206
323 1 14.0876 0.288736 73.8619
324 1 3.94036 1.42005 85.1262
325 2 8.49049 6.70383 83.0591
326 1 6.49137 0.0133549 84.8642
327 1 2.87338 1.98343 82.0931
328 1 5.11078 0.739018 80.6296
329 1 2.48357 1.66009 72.6711
330 1 9.0872 0.158067 84.2627
331 2 13.8637 6.8896 81.4989
332 1 11.2529 6.2002 82.2289
333 1 7.70765 1.10555 79.9226
334 2 5.60146 2.11373 78.4451
335 1 3.97838 0.803033 76.8506
336 1 4.59887 0.439578 74.2044
337 1 6.83682 -0.0599517 77.6672
338 1 11.5206 6.33113 74.9892
339 1 5.96158 2.2596 86.884
340 1 16.0554 2.83617 80.033
341 2 8.23072 0.54502 86.8461
342 2 9.74601 3.96893 86.5283
343 1 8.05205 2.64735 84.8581
344 1 11.5063 1.56005 83.1463
345 1 11.0066 1.84582 85.6589
346 1 10.2895 3.93894 83.6621
347 1 8.62212 2.23416 82.3212
348 1 8.21667 2.7167 77.7851
349 1 8.98127 2.23085 75.1466
350 1 6.3389 2.04724 75.767
351 2 7.15454 1.40198 73.0806
352 1 14.5003 3.3341 87.2077
353 1 12.8889 3.85878 83.0289
354 1 12.2985 4.39905 85.6926
355 2 11.2939 3.33081 81.128
356 1 10.437 4.2491 78.7711
357 1 16.739 4.68829 86.8065
358 1 17.7228 4.01676 84.2774
359 1 12.4954 0.175821 77.8272
360 1 10.3093 1.62316 79.3453
361 1 12.5875 2.85374 78.7644
362 1 13.5455 6.83395 76.8677
363 1 11.5187 0.819766 74.8811
364 2 10.793 2.3375 77.0402
365 1 1.22204 1.84758 85.7618
366 1 15.3448 5.40215 82.9362
367 2 15.0848 4.01651 84.947
368 1 13.4781 1.77158 80.9137
369 1 13.7929 1.78402 84.9301
370 1 15.4941 2.6055 82.803
371 2 14.7335 1.57939 78.5135
372 1 13.5435 2.29674 76.1633
373 1 14.8997 4.25121 77.8016
374 1 12.8965 5.36946 79.4372
375 1 9.53479 0.274954 73.0832
376 1 11.3723 3.75318 74.8876
377 2 13.1455 2.58163 73.532
378 1 14.0182 4.8749 74.9813
379 2 12.4815 4.62965 76.9307
380 1 11.1016 3.33345 72.1718
381 1 3.66442 3.06757 79.7248
382 1 16.7059 2.27342 76.9775
383 1 2.8172 4.24171 73.1126
384 1 15.6828 2.8077 74.1259
385 2 2.98129 2.34719 74.9845
386 1 12.2241 0.762383 71.879
387 1 14.4289 6.03753 86.5716
388 1 3.56026 5.92993 85.8974
389 2 3.50012 3.35292 86.7338
390 2 17.4218 4.33375 81.5854
391 1 15.7694 5.8266 80.3191
392 1 7.75082 4.83216 87.7494
393 1 5.40358 3.99982 85.056
394 2 6.98105 4.31959 82.9741
395 1 4.53684 4.60463 82.2018
396 1 6.55144 3.4032 80.4475
397 1 18.6944 5.98259 79.946
398 1 6.5891 6.05475 80.9894
399 2 4.40941 4.8052 74.9357
400 1 17.1435 4.72374 75.641
401 1 3.98629 3.52466 77.1145
402 1 4.94832 5.82906 72.544
403 1 8.06742 5.21825 85.0963
404 2 6.16291 6.30002 86.349
405 2 17.3942 4.52573 78.2937
406 2 15.8669 5.39525 73.3644
407 1 9.07782 4.72202 81.2209
408 1 6.32203 5.07271 76.9942
409 1 7.04806 4.51828 74.4012
410 2 9.37222 4.64219 73.5802
411 1 7.57988 5.86665 71.9734
412 2 8.29865 5.60007 78.8139
413 1 8.97517 4.91566 76.0925
414 1 5.07759 2.97561 73.2456
415 2 1.6808 0.467149 70.4653
416 1 5.93847 6.52587 67.784
417 1 10.1324 5.74218 71.2841
418 1 8.7216 6.59922 67.0489
419 1 4.0581 0.197144 69.6409
420 2 6.896 5.92972 65.1213
421 1 2.1901 0.0795986 62.7404
422 1 8.23653 0.700873 70.8855
423 1 13.5641 6.57542 68.1736
424 1 8.41039 5.42485 62.8786
425 1 7.07939 1.3651 67.0492
426 2 10.6368 6.67256 68.9291
427 1 6.57972 0.0555417 61.8932
428 1 4.64915 1.42615 63.4276
429 1 6.87911 6.06854 58.9408
430 1 5.60371 0.579718 58.9089
431 2 4.05698 0.396525 61.0661
432 1 6.94696 5.71235 56.2525
433 1 14.7098 5.53507 63.7706
434 1 13.7449 6.80133 57.2154
435 1 11.408 5.41661 58.1859
436 1 13.9782 4.24709 72.0128
437 1 6.04025 1.87673 70.7705
438 1 10.6814 1.9909 69.8423
439 1 8.34688 3.41389 71.3946
440 2 14.4436 6.1689 70.7284
441 2 8.03974 2.40318 69.1454
442 1 9.78533 2.45039 67.0184
443 2 9.02264 0.236988 65.6164
444 1 7.3562 1.68686 64.1894
445 1 15.1996 1.60585 71.6483
446 1 12.4625 -0.0476219 69.1281
447 1 16.7166 4.54188 67.1928
448 2 14.1007 0.0992272 67.0858
449 1 12.6985 2.4512 67.7756
450 1 11.5277 0.523217 66.2286
451 1 17.4058 5.81129 64.7684
452 1 10.2566 1.80879 64.0776
453 1 13.7885 1.8202 65.1691
454 2 11.7409 3.32161 65.479
455 1 10.6999 1.84564 61.2948
456 2 11.4319 0.619499 59.0351
457 1 12.4405 2.84613 59.2683
458 1 8.74407 0.710842 59.8326
459 1 15.1426 5.73766 61.1619
460 1 12.9376 2.94254 62.9704
461 1 9.85994 2.63172 58.1408
462 1 12.0169 1.49244 56.7213
463 1 15.0638 1.18244 69.1684
464 2 13.1199 2.41347 70.3409
465 1 14.8407 4.1199 69.0914
466 2 15.4922 2.34025 66.9899
467 1 2.06263 2.48273 68.8394
468 1 13.7546 4.47123 66.0174
469 1 16.113 3.23993 64.7462
470 2 9.07787 0.384864 62.4235
471 2 7.55388 1.14223 57.4811
472 1 13.514 4.15383 56.6605
473 1 4.81438 2.6324 68.1916
474 1 0.754102 0.434451 65.1969
475 1 13.2952 0.816327 61.0682
476 1 13.9937 0.321188 58.5223
477 2 1.12351 0.43714 57.5885
478 1 14.5711 1.59213 56.0861
479 2 5.43293 2.61338 65.5225
480 1 2.84198 1.93258 66.1127
481 1 3.52418 3.67279 63.9932
482 2 15.0689 1.20572 62.955
483 1 0.724159 0.674525 60.2043
484 2 16.6719 4.54507 62.6129
485 1 14.8929 3.0598 60.9456
486 1 15.5862 2.88601 58.2894
487 1 2.54189 2.55343 61.7022
488 1 3.26534 2.16796 59.1327
489 1 16.1074 5.4464 57.4413
490 1 16.695 4.4122 71.0526
491 1 11.7202 5.52222 64.0296
492 2 3.93535 3.26211 70.8806
493 1 3.37017 5.09433 69.2487
494 1 7.21808 4.08421 67.1385
495 1 6.11263 4.52077 69.9019
496 1 4.24592 4.65184 66.4581
497 1 4.12685 5.37719 61.8372
498 1 4.61829 4.74978 59.2108
499 1 17.3513 4.48563 59.9796
500 2 2.80885 4.05423 57.197
501 1 8.2459 2.84606 61.899
502 1 6.14153 3.97316 63.281
503 1 5.52623 2.55434 60.9748
504 1 7.33138 3.33326 59.023
505 2 6.54981 4.80586 61.0135
506 1 12.2574 4.71929 69.8509
507 1 9.18985 4.37543 65.1927
508 1 9.39421 4.46981 68.9282
509 1 11.2815 5.34329 66.8391
510 2 10.4223 4.0167 62.5153
511 1 9.28789 4.76362 60.2558
512 1 5.3123 2.72848 57.1927
513 2 8.8908 4.9401 57.584
514 1 12.4064 4.9466 61.1527
515 2 13.9695 4.93313 59.0911
516 1 7.97669 3.05453 56.0311
517 1 5.68815 0.145378 56.1555
518 1 4.12825 5.88801 55.4494
519 2 3.65039 4.87167 53.1503
520 1 5.25099 5.03031 51.0217
521 1 8.31246 0.568587 51.29
522 1 8.35624 5.16675 51.9083
523 2 7.29764 5.82092 49.5644
524 1 6.38372 4.78819 45.1415
525 1 8.31044 5.54559 42.9612
526 1 8.34429 5.40253 47.1726
527 1 5.43768 5.66286 42.3319
528 1 10.4433 6.6393 53.0415
529 2 11.0727 5.01265 51.1282
530 1 13.1274 5.08081 52.8682
531 1 5.53983 0.457076 50.1225
532 1 11.7305 5.93901 48.8884
533 1 5.22934 0.228028 40.7926
534 1 15.7769 5.32053 52.3494
535 2 16.3527 5.26172 49.626
536 1 13.7582 4.62735 50.2916
537 1 14.2807 6.35278 48.1241
538 2 8.29101 0.635787 46.7509
539 1 10.3974 5.88465 45.0611
540 1 11.2254 5.46974 42.5194
541 1 13.2377 5.10152 45.7703
542 1 14.1417 4.57956 43.1968
543 1 8.36209 0.406448 54.9601
544 1 3.32826 1.34661 48.1889
545 2 14.7864 5.76908 55.0183
546 2 12.6596 2.85961 54.5293
547 1 10.467 1.02234 53.1282
548 1 14.2091 -0.0765183 51.2559
549 1 13.3105 0.30167 53.8111
550 1 13.06 2.37449 51.8833
551 1 11.1981 0.680392 50.4683
552 1 10.8118 0.946187 45.6891
553 1 11.569 0.455809 43.2904
554 1 8.90131 0.35858 44.0384
555 2 13.7791 6.62201 41.2078
556 1 1.78237 1.58248 55.382
557 1 15.6174 2.6171 51.078
558 1 15.1593 2.82887 53.7744
559 2 13.8296 1.69238 49.1428
560 1 12.8876 2.61153 46.8761
561 1 4.06033 3.12569 54.9091
562 1 5.01782 2.59726 52.3333
563 1 3.77898 5.28917 45.8251
564 1 16.8715 6.51986 47.3147
565 1 15.1717 1.32129 46.9241
566 1 16.1561 5.11223 45.0319
567 1 18.1904 5.52856 43.1853
568 2 13.5064 0.671623 45.096
569 1 3.92116 0.552374 53.9332
570 1 2.68746 3.91562 50.8816
571 2 2.35521 2.48029 52.9447
572 1 0.886097 0.387932 49.1837
573 1 1.04268 0.447345 52.9419
574 1 3.02666 1.15181 50.9962
575 2 6.03104 6.62594 46.7432
576 1 0.740185 0.786996 44.1477
577 1 2.1811 2.77084 46.0412
578 1 15.3844 3.98782 47.4796
579 1 15.8931 5.23438 41.1921
580 1 13.7753 1.93777 43.042
581 2 0.259682 0.745738 41.4954
582 1 16.4943 3.27606 43.0792
583 2 14.7335 2.93046 45.046
584 1 14.4664 3.03897 40.8812
585 1 6.32768 1.63349 47.7096
586 1 3.94933 0.72337 45.2439
587 1 5.03334 3.01207 41.3177
588 1 2.93809 1.45331 42.0072
589 2 5.4429 1.06172 43.25
590 1 13.0305 0.818591 40.7843
591 1 17.0336 4.39866 54.891
592 1 6.34715 4.61202 53.8207
593 2 6.15558 2.00409 54.7505
594 2 4.61662 2.82189 49.6324
595 1 2.90619 4.23777 48.3986
596 1 10.738 4.15243 55.7817
597 1 8.12364 2.59546 53.2911
598 2 9.58412 2.69679 51.2516
599 1 6.94526 3.08739 50.3998
600 1 8.83138 1.92211 48.9885
601 1 5.81576 4.39069 48.0612
602 1 9.35733 4.4858 49.3148
603 2 7.00467 3.43914 43.0681
604 1 4.23884 3.29286 43.8804
605 1 6.66799 1.84355 45.1042
606 1 7.28748 4.52379 40.6853
607 1 10.7278 3.78619 53.176
608 2 8.92834 5.01481 54.4939
609 2 4.72139 2.94668 46.4906
610 2 2.47828 3.83774 40.7908
611 1 11.5792 3.15357 49.3151
612 1 8.84441 3.41225 45.1141
613 1 9.59115 2.88082 42.6699
614 2 12.0237 3.03753 41.6601
615 1 10.1228 4.23381 40.512
616 2 10.6354 4.01372 47.0634
617 1 11.5669 3.37279 44.5765
618 1 7.63687 1.30713 41.4568
ITEM: TIMESTEP
10000
ITEM: NUMBER OF ATOMS
618
ITEM: BOX BOUNDS xy xz yz pp pp ff
0.0000000000000000e+00 1.9317770367296919e+01 4.0025167278329121e+00
0.0000000000000000e+00 6.6702723500479264e+00 0.0000000000000000e+00
0.0000000000000000e+00 1.0921147561319708e+02 0.0000000000000000e+00
ITEM: ATOMS id type x y z
1 1 4.21294 5.98254 6.30226
2 1 6.02429 6.37958 8.65551
3 1 4.06935 6.00095 13.3537
4 1 5.14128 0.423922 6.06152
5 1 7.67776 6.49213 11.0581
6 1 5.75471 6.28414 15.5728
7 1 4.25939 6.0327 20.336
8 1 12.0556 6.15543 6.17167
9 1 6.86606 0.656622 8.61819
10 1 5.23594 0.114202 13.4656
11 1 7.56325 6.6703 17.977
12 1 6.02918 6.31958 22.5931
13 1 4.33503 6.1468 27.3559
14 1 10.1473 1.35799 5.96912
15 1 13.5374 6.35881 8.57606
16 1 8.55445 0.965719 11.1143
17 1 11.9448 5.75496 13.3353
18 1 6.99655 0.450354 15.7061
19 1 5.16943 0.493849 20.3509
20 1 7.71812 6.7769 25.0794
21 1 5.90549 6.24057 29.5211
22 1 4.51208 6.09639 34.1061
23 1 12.9513 0.361999 6.29178
24 1 12.3202 3.15681 6.16515
25 1 11.6572 1.58938 8.69213
26 1 11.0209 -0.110216 11.1007
27 1 10.6814 2.92296 10.9213
28 1 10.1709 1.04954 13.377
29 1 13.6795 6.25219 15.6965
30 1 8.38364 0.863729 17.9695
31 1 11.9537 6.1715 20.4042
32 1 6.80154 0.69913 22.5874
33 1 5.2571 0.429251 27.3704
34 1 7.63634 6.76944 31.9005
35 1 5.89001 6.43633 36.6468
36 1 15.0447 2.3391 6.21515
37 1 14.4904 0.64764 8.6514
38 1 13.9536 3.51154 8.72201
39 1 13.2556 1.82527 11.0178
40 1 12.8241 0.146612 13.3446
41 1 12.4465 3.06057 13.3695
42 1 11.7101 1.51475 15.6695
43 1 11.1018 -0.0295886 18.033
44 1 10.6193 2.92368 18.133
45 1 10.1636 1.32987 20.4186
46 1 13.6213 6.29683 22.65
47 1 8.59201 1.06772 24.9086
48 1 12.0825 6.27957 27.2093
49 1 7.19412 0.672792 29.5413
50 1 5.45682 0.414758 34.263
51 1 3.12003 -0.241386 39.1954
52 1 2.4871 1.26767 6.03409
53 1 17.495 4.06341 6.29367
54 1 1.48177 2.48127 8.56032
55 1 0.787182 1.03273 11.0014
56 1 15.6412 3.67103 11.0477
57 1 14.9572 2.15256 13.4153
58 1 14.3994 0.624768 15.7469
59 1 13.8854 3.38367 15.6955
60 1 13.0797 1.79719 18.1024
61 1 12.8868 0.24732 20.2945
62 1 12.2226 3.30853 20.445
63 1 11.7568 1.48009 22.6386
64 1 11.2334 0.0241769 24.93
65 1 10.936 3.04932 24.9049
66 1 10.3931 1.23486 27.2935
67 1 13.7224 6.36791 29.6106
68 1 8.63533 1.01702 31.9742
69 1 12.0668 5.9779 34.2796
70 1 6.95797 0.671556 36.5523
71 1 4.79775 3.17633 6.31187
72 1 4.05063 1.59569 8.62685
73 1 3.66994 4.40925 8.70444
74 1 3.11409 2.87967 11.0621
75 1 2.41991 1.2088 13.4061
76 1 17.3917 4.10223 13.354
77 1 1.579 2.5812 15.6037
78 1 0.797372 0.945087 18.0448
79 1 15.4211 3.76217 17.881
80 1 15.0283 2.27286 20.2823
81 1 14.5957 0.67968 22.5795
82 1 14.16 3.47647 22.7321
83 1 13.4876 2.00144 24.8863
84 1 12.9455 0.204341 27.258
85 1 12.5659 3.17583 27.1457
86 1 12.0047 1.51686 29.5651
87 1 15.3038 6.42709 31.8351
88 1 10.9566 2.89182 31.9353
89 1 10.2454 1.30188 34.2227
90 1 13.6983 6.33296 36.5644
91 1 8.76581 0.946439 39.0907
92 1 7.43662 2.23094 6.09082
93 1 6.97483 4.97242 6.23636
94 1 6.27054 3.61695 8.77335
95 1 5.85022 1.85107 11.0208
96 1 5.41728 4.78646 11.0649
97 1 4.82345 3.0422 13.3134
98 1 4.0768 1.53506 15.6974
99 1 3.73993 4.33752 15.7149
100 1 3.012 2.84522 18.0349
101 1 2.49097 1.43123 20.409
102 1 17.2747 4.22216 20.1735
103 1 1.50579 2.57606 22.6805
104 1 0.896398 1.02791 24.8
105 1 15.6853 3.71999 24.9627
106 1 15.1465 2.22398 27.1268
107 1 14.7287 0.749007 29.6218
108 1 14.2511 3.51788 29.4024
109 1 13.611 1.91979 31.8889
110 1 12.8902 0.219962 34.0222
111 1 12.4853 3.08722 34.1479
112 1 12.0652 1.42053 36.4743
113 1 15.0012 6.52335 38.9791
114 1 11.1392 2.49788 38.9478
115 1 9.728 4.12625 5.89492
116 1 9.18229 2.66357 8.54625
117 1 8.60549 5.409 8.44411
118 1 7.99321 3.66787 11.1408
119 1 7.368 2.03621 13.4783
120 1 6.84006 4.98536 13.4544
121 1 6.39433 3.37745 15.759
122 1 5.67292 1.91328 17.9877
123 1 5.35003 4.73466 17.8641
124 1 4.71568 3.46777 20.355
125 1 4.22979 1.6374 22.6151
126 1 3.71966 4.46596 22.7267
127 1 3.25807 2.90199 25.1025
128 1 2.65128 1.30619 27.3483
129 1 17.4738 3.96962 27.3254
130 1 1.61618 2.45544 29.4613
131 1 0.973608 1.09825 31.9038
132 1 15.9472 3.75129 31.8401
133 1 15.3682 2.29707 34.279
134 1 14.6934 0.5362 36.3965
135 1 14.3023 3.38564 36.4361
136 1 13.7965 2.17038 38.5843
137 1 11.2154 4.42927 8.55395
138 1 10.2795 5.71431 11.0165
139 1 9.6788 3.86736 13.4359
140 1 9.08969 2.41029 15.6288
141 1 8.54918 5.42991 15.6194
142 1 8.18912 3.88183 17.9306
143 1 7.40538 2.29722 20.0491
144 1 7.00152 5.26955 20.2172
145 1 6.34972 3.53083 22.5693
146 1 5.91756 2.02171 25.0443
147 1 5.50705 4.97478 24.94
148 1 4.88143 3.3105 27.3869
149 1 4.2386 1.57096 29.5929
150 1 3.79302 4.48832 29.6836
151 1 3.21118 2.78838 31.9662
152 1 2.74477 1.22948 34.2408
153 1 17.6672 4.19812 34.2648
154 1 1.77929 2.53143 36.6472
155 1 0.872195 1.06293 39.2386
156 1 15.8252 3.94414 38.866
157 1 14.8294 5.16308 6.14145
158 1 12.8965 4.8666 10.9859
159 1 11.2119 4.31179 15.7521
160 1 10.2681 5.67376 18.1849
161 1 9.53274 4.30959 20.5267
162 1 9.09271 2.56751 22.7016
163 1 8.55948 5.28453 22.9105
164 1 8.04658 3.65929 25.1353
165 1 7.52538 2.4518 27.4702
166 1 7.18391 5.24944 27.3152
167 1 6.4331 3.48172 29.8131
168 1 5.94671 1.82861 31.9497
169 1 5.37246 4.9744 31.921
170 1 4.87293 3.15754 34.2526
171 1 4.25168 1.62334 36.6491
172 1 3.84428 4.61023 36.6403
173 1 3.12449 2.78854 39.1455
174 1 16.1758 5.50594 8.73288
175 1 14.6918 4.89211 13.3266
176 1 12.9071 4.75238 17.9932
177 1 11.4548 4.74705 22.7114
178 1 10.226 5.79602 24.9253
179 1 9.97369 4.24844 27.4003
180 1 9.29061 2.50763 29.6613
181 1 8.76438 5.34826 29.7062
182 1 8.19493 3.84805 31.8994
183 1 7.54731 2.17585 34.1316
184 1 7.14871 5.01353 34.1916
185 1 6.53781 3.47889 36.63
186 1 6.15691 2.1069 38.8958
187 1 4.97084 4.82876 39.2889
188 1 17.8648 5.5571 10.9751
189 1 16.3245 5.29598 15.6395
190 1 14.4525 5.0269 20.2179
191 1 13.126 5.06917 25.0844
192 1 11.5399 4.41839 29.5057
193 1 10.4295 5.68106 31.8899
194 1 9.91584 4.24392 34.1556
195 1 9.16419 2.51206 36.4398
196 1 8.63781 5.52642 36.3102
197 1 8.69442 3.7198 38.5444
198 1 17.8963 5.76144 17.9713
199 1 16.3518 5.36947 22.6469
200 1 14.8089 5.20913 27.2726
201 1 13.1432 4.72383 31.7667
202 1 11.6689 4.37222 36.6651
203 1 10.3488 6.00516 38.6457
204 1 17.9702 5.57226 24.9603
205 1 16.401 5.44713 29.5762
206 1 14.761 5.02805 34.1822
207 1 12.7575 4.79119 39.3221
208 1 18.1161 5.72786 31.8983
209 1 16.3962 5.20975 36.5657
210 1 17.8384 5.64742 38.9423
211 2 14.812 1.3117 101.797
212 1 15.3199 1.22185 98.994
213 1 3.81267 0.493802 102.756
214 1 2.61798 1.20365 98.5589
215 1 1.84939 1.82566 101.068
216 2 0.961302 0.63085 96.5419
217 1 15.1652 1.36202 94.3402
218 1 6.34552 1.84069 102.57
219 1 7.17977 1.42148 99.8504
220 1 6.16258 6.73404 94.4303
221 1 4.92349 2.80137 98.4375
222 2 4.54135 1.424 100.628
223 1 4.40559 1.39407 93.4084
224 1 2.34321 2.71823 94.8091
225 1 15.8974 0.929532 90.4834
226 1 3.47931 2.00087 90.7216
227 2 1.59396 1.82079 92.5981
228 1 0.625905 0.84884 87.9368
229 1 8.67717 0.644309 95.3955
230 1 7.37472 1.4234 88.8828
231 1 9.05682 6.66628 89.7862
232 1 12.1866 5.01599 103.164
233 1 4.02908 3.34352 102.043
234 1 8.62983 3.30197 101.662
235 1 6.41229 4.56422 102.9
236 2 8.41355 0.653888 102.009
237 2 6.11725 3.75731 100.542
238 1 7.42022 3.8704 98.4749
239 2 6.76095 1.64258 97.2545
240 1 5.00586 2.82688 95.7888
241 1 13.7175 2.71983 102.94
242 1 10.6263 1.57623 101.399
243 1 14.5357 5.93076 98.5754
244 2 11.5511 1.53708 98.792
245 1 10.7318 3.69562 99.4984
246 1 9.23308 1.86454 97.798
247 1 11.3416 0.569425 96.3757
248 1 7.88975 3.30317 95.5908
249 1 11.5515 3.20435 96.7769
250 2 9.47561 4.46164 97.0235
251 1 8.51929 3.59464 92.679
252 2 9.14001 1.99811 90.5411
253 1 10.4441 4.12304 90.8007
254 1 6.38617 1.86416 91.396
255 1 8.80012 0.639549 92.6789
256 1 10.5236 4.10333 94.4862
257 1 7.56304 4.12814 89.7577
258 1 9.63286 2.81301 88.2615
259 1 13.0259 2.3359 100.412
260 2 11.2417 3.55579 102.1
261 1 12.8367 5.28256 100.419
262 2 13.3067 3.75831 98.3459
263 1 15.1719 3.79792 100.416
264 1 11.7494 5.87165 97.702
265 1 13.7301 4.61787 95.8424
266 2 6.83492 1.75165 93.9254
267 2 5.12981 2.60069 89.1243
268 1 11.0418 5.3714 88.4931
269 1 18.0052 4.06508 99.631
270 1 13.9109 1.78861 96.6785
271 1 11.1241 2.10417 92.5997
272 1 11.7285 1.64885 89.896
273 2 14.1674 2.07571 89.1454
274 1 12.1423 3.15845 87.5299
275 2 3.25738 4.02054 96.9977
276 1 15.9023 3.68471 97.7388
277 1 16.5937 5.05711 95.5777
278 2 12.7489 2.35483 94.4621
279 1 13.8161 2.20722 91.8259
280 2 14.7075 6.44532 94.0968
281 1 12.6175 4.51429 92.712
282 1 13.1937 4.27965 90.0678
283 1 15.4466 4.13869 93.3092
284 1 16.0803 3.56787 90.6647
285 1 13.5358 6.65325 88.8825
286 1 14.6308 5.7787 102.653
287 1 9.79641 6.65485 95.5731
288 2 16.9028 4.42822 102.316
289 1 16.4386 6.30937 100.538
290 1 5.03879 5.49065 98.5935
291 1 4.68318 6.00742 101.168
292 1 17.4687 6.20479 97.9926
293 1 17.1415 6.61749 93.272
294 1 17.58 6.11483 90.6029
295 1 14.8952 6.04394 91.3096
296 2 15.7003 5.22235 88.6908
297 1 5.97763 4.0588 93.3946
298 1 3.91264 5.25927 94.8058
299 1 2.98126 3.9661 92.4925
300 1 4.83996 4.73702 90.4564
301 2 4.27593 6.22143 92.4355
302 1 10.2428 5.99971 101.603
303 1 7.2419 5.88455 96.6055
304 1 7.50522 5.81792 100.414
305 1 9.11906 6.7163 98.3261
306 2 8.23453 5.46377 94.1433
307 1 6.7638 6.28308 91.8318
308 1 2.81555 3.94487 88.8474
309 2 6.51161 6.45939 89.3102
310 1 10.0973 6.05326 92.7093
311 2 11.7 6.30732 90.8125
312 1 5.44658 4.70473 87.7708
313 1 3.39949 1.3375 87.8821
314 1 13.3026 0.730612 87.0474
315 2 16.7304 6.38493 84.7913
316 1 18.4533 6.61873 82.8119
317 1 5.9656 1.86195 82.9017
318 1 6.05365 6.47172 83.5835
319 2 0.904244 0.505137 81.1054
320 1 3.90603 6.10488 76.9043
321 1 1.81725 0.217321 74.9048
322 1 1.98917 0.114079 78.8026
323 1 14.3157 -0.158278 73.8543
324 1 4.14397 1.34508 84.8664
325 2 8.68785 6.51308 82.8249
326 1 6.72918 -0.19564 84.6253
327 1 3.13632 1.86873 81.9051
328 1 5.36282 0.570142 80.5473
329 1 2.74572 1.30736 72.5159
330 1 9.43374 0.0937542 83.8607
331 2 10.052 0.0154549 81.2728
332 1 11.4141 6.02659 82.0793
333 1 7.96501 0.96142 79.7822
334 2 5.79387 1.76335 78.3345
335 1 4.07387 0.639559 76.7954
336 1 4.6391 0.0980864 74.152
337 1 7.13841 -0.165252 77.4946
338 1 11.5974 6.11831 74.9457
339 1 6.1353 1.92547 86.7292
340 1 16.4991 2.73811 79.8091
341 2 8.42283 0.655128 86.5873
342 2 10.2373 4.27029 86.1777
343 1 8.29915 2.47592 84.5873
344 1 11.7548 1.4927 82.9052
345 1 11.0904 1.85592 85.353
346 1 10.572 3.77549 83.4425
347 1 8.78866 2.01955 82.0748
348 1 8.45035 2.33344 77.4331
349 1 9.0505 1.82512 74.8108
350 1 6.34424 1.83957 75.7104
351 2 7.23073 1.37043 72.9687
352 1 14.8131 3.13871 87.0111
353 1 13.277 3.88663 82.5657
354 1 12.7399 4.40443 85.198
355 2 11.4336 3.22647 80.8067
356 1 10.6118 4.00666 78.4191
357 1 17.0189 4.59547 86.5055
358 1 2.69878 4.04327 83.9039
359 1 12.6148 -0.0607885 77.5642
360 1 10.5377 1.32017 79.0348
361 1 12.8553 2.69744 78.5549
362 1 9.94318 -0.162951 76.5927
363 1 11.7224 0.56569 74.6709
364 2 11.0317 2.04426 76.8103
365 1 1.46209 1.95648 85.5094
366 1 15.6664 5.37096 82.6663
367 2 15.2914 4.06471 84.6274
368 1 13.7646 1.68135 80.6967
369 1 13.929 1.8888 84.498
370 1 15.8878 2.55369 82.5103
371 2 14.9673 1.40516 78.4269
372 1 13.651 1.97711 76.0243
373 1 15.1149 4.0486 77.6689
374 1 13.1936 5.35266 79.2421
375 1 9.64121 0.007364 72.9572
376 1 11.3977 3.37608 74.6696
377 2 13.278 2.27745 73.5052
378 1 14.0542 4.45705 74.7853
379 2 12.6277 4.39078 76.8667
380 1 11.3372 3.13385 72.0504
381 1 4.1111 3.03793 79.5967
382 1 1.56686 2.14099 76.9414
383 1 2.83412 3.91606 73.0155
384 1 15.8472 2.62229 74.1215
385 2 3.31738 2.30454 74.9229
386 1 12.2944 0.496406 71.8112
387 1 14.8012 6.01312 86.4123
388 1 4.04841 6.06846 85.4738
389 2 3.81789 3.2817 86.3259
390 2 17.5424 4.29613 81.3767
391 1 15.9996 5.65583 80.0056
392 1 8.46348 5.3603 87.4473
393 1 5.77965 3.93331 84.8139
394 2 7.29487 4.04208 82.7516
395 1 4.78367 4.4811 81.9188
396 1 6.74272 3.16654 80.3503
397 1 18.7812 5.81965 79.7985
398 1 7.05299 5.90429 80.9778
399 2 4.53681 4.6563 74.8081
400 1 17.1914 4.65089 75.4219
401 1 4.22379 3.315 76.8802
402 1 5.13816 5.42791 72.4143
403 1 8.46817 5.10404 84.8082
404 2 6.45937 6.28748 86.2326
405 2 17.5722 4.35643 78.1618
406 2 15.9885 5.11668 73.208
407 1 9.26941 4.53579 81.0297
408 1 6.46815 4.85024 76.7974
409 1 7.18376 4.2296 74.2079
410 2 9.6255 4.30385 73.3466
411 1 7.64725 5.63246 71.8776
412 2 8.2154 5.39927 78.7148
413 1 9.25792 4.73068 76.0838
414 1 5.24235 2.70054 72.9859
415 2 1.70508 0.178631 70.2894
416 1 5.99679 6.51552 67.6808
417 1 10.1473 5.61184 71.1392
418 1 8.68588 6.48326 66.8952
419 1 4.14307 0.0493635 69.5195
420 2 7.02902 5.94473 65.0327
421 1 1.80947 -0.0409026 62.5144
422 1 8.35351 0.476705 70.7317
423 1 13.3855 6.54559 68.2142
424 1 8.15209 5.27707 62.7561
425 1 7.0103 1.24146 66.8381
426 2 10.7046 6.54001 68.8484
427 1 6.46271 0.214825 61.7357
428 1 4.42611 1.33832 63.2035
429 1 6.7291 6.09597 58.9105
430 1 5.53434 0.623821 58.8225
431 2 3.96639 0.562033 60.904
432 1 6.72728 5.96786 56.2372
433 1 14.6722 5.63093 63.6392
434 1 9.61765 0.0790361 57.1213
435 1 11.4014 5.26911 58.2786
436 1 14.1809 3.96657 71.9441
437 1 6.01226 1.72446 70.6213
438 1 10.6402 1.88188 69.7414
439 1 8.4346 3.33057 71.1109
440 2 14.4754 5.92155 70.4294
441 2 7.90936 2.29133 68.773
442 1 9.74236 2.34966 66.864
443 2 8.91807 0.210463 65.6149
444 1 7.20138 1.54196 63.9225
445 1 15.1844 1.42024 71.6738
446 1 12.5232 -0.0529105 69.1134
447 1 16.8166 4.67798 67.0681
448 2 14.1534 0.12735 66.9338
449 1 13.0214 2.35464 67.6847
450 1 11.4998 0.362871 66.0033
451 1 17.4826 5.83608 64.6081
452 1 10.1357 1.94496 63.8504
453 1 13.7649 1.76991 65.0148
454 2 11.7445 3.15888 65.4723
455 1 10.6908 2.11892 61.0564
456 2 11.2274 0.649097 59.0082
457 1 12.4661 2.76881 59.15
458 1 8.65803 0.585353 59.7193
459 1 14.7903 5.88345 61.015
460 1 12.7338 2.83721 62.8486
461 1 9.70165 2.7285 58.1342
462 1 11.7829 1.64686 56.5836
463 1 15.153 1.01959 69.0082
464 2 13.244 2.27299 70.2431
465 1 14.8895 3.8613 69.0251
466 2 15.5478 2.52511 66.9272
467 1 2.12604 2.44776 68.8302
468 1 13.9181 4.47015 66.1269
469 1 16.0162 3.28712 64.6543
470 2 8.97725 0.435751 62.3186
471 2 7.45931 1.24182 57.4118
472 1 13.4147 4.0458 56.852
473 1 4.74751 2.65388 68.1776
474 1 0.898744 0.616272 65.1381
475 1 13.2209 0.710743 60.995
476 1 13.8043 0.292386 58.3887
477 2 1.00913 0.360296 57.6475
478 1 14.4258 1.65645 56.1401
479 2 5.40475 2.52401 65.3596
480 1 2.90265 2.17331 66.1357
481 1 3.28371 3.57083 63.9254
482 2 15.0533 1.43329 62.8432
483 1 0.5961 0.836937 60.2719
484 2 16.506 4.64049 62.4105
485 1 14.7665 3.24334 60.998
486 1 15.3755 2.74906 58.3756
487 1 2.33066 2.57592 61.5257
488 1 3.0878 2.25222 59.0586
489 1 15.9047 5.46747 57.192
490 1 16.7707 4.52592 70.7435
491 1 11.8281 5.44067 64.0048
492 2 3.8676 3.14971 70.796
493 1 3.54338 4.97748 68.9193
494 1 7.13869 4.04456 67.0144
495 1 6.38326 4.41709 69.722
496 1 4.29149 4.80778 66.2393
497 1 3.7393 5.02413 61.6874
498 1 4.43292 4.66492 59.086
499 1 17.0587 4.61166 59.7203
500 2 2.75687 4.12329 57.2088
501 1 8.19979 2.81296 61.825
502 1 5.87532 3.98095 63.2651
503 1 5.28387 2.65967 60.8556
504 1 7.07568 3.14216 58.8585
505 2 6.44224 4.86761 60.9171
506 1 12.3016 4.43001 69.5952
507 1 9.14645 4.2956 65.0575
508 1 9.4107 4.3479 68.8467
509 1 11.2544 5.21444 66.7788
510 2 10.3443 4.19084 62.5912
511 1 9.16878 4.8815 60.1244
512 1 5.15325 2.71295 56.9711
513 2 8.75021 4.92956 57.5636
514 1 12.1765 4.89826 61.0939
515 2 13.9322 4.91637 59.0443
516 1 7.78359 3.25349 56.004
517 1 5.68113 0.0691329 56.0534
518 1 4.09139 5.87569 55.4055
519 2 3.54221 5.00584 52.9864
520 1 5.21433 5.22377 51.0035
521 1 8.14186 0.67456 51.2328
522 1 8.30639 5.17566 51.9236
523 2 7.20942 5.91033 49.4661
524 1 6.19047 4.84074 45.1804
525 1 8.07928 5.4698 43.0039
526 1 8.23106 5.64545 46.9959
527 1 5.42819 5.44652 42.2535
528 1 10.2611 6.60824 53.1621
529 2 10.9124 5.23377 51.0324
530 1 13.046 5.28314 52.9598
531 1 5.26314 0.515763 50.2423
532 1 11.4848 5.95394 48.8947
533 1 5.07683 0.233102 40.8196
534 1 15.82 5.29008 52.3466
535 2 16.2296 5.46668 49.6216
536 1 13.6483 4.77582 50.3484
537 1 14.1343 6.44129 48.2653
538 2 8.1437 0.877858 46.6773
539 1 10.1519 5.88182 45.0863
540 1 11.1609 5.56336 42.6552
541 1 13.1136 5.30643 45.7969
542 1 13.9067 4.86454 43.3294
543 1 8.22909 0.229944 54.9589
544 1 3.30563 1.47261 48.2231
545 2 14.6867 5.81491 55.0138
546 2 12.6355 3.14148 54.5642
547 1 10.5587 1.0627 53.1659
548 1 14.0735 0.116847 51.1366
549 1 13.3344 0.585964 53.7875
550 1 12.7989 2.53954 51.721
551 1 11.0693 0.807999 50.5884
552 1 10.5573 1.09255 45.8932
553 1 11.3296 0.673288 43.2901
554 1 8.74595 0.678627 43.9359
555 2 13.6306 6.71167 41.3167
556 1 1.58341 1.80937 55.4662
557 1 15.5628 2.65896 51.0189
558 1 14.8294 3.0234 53.5764
559 2 13.6407 1.91007 49.1599
560 1 12.7107 2.77759 46.9883
561 1 3.80319 3.21053 54.8991
562 1 4.78722 2.67254 52.3081
563 1 3.75523 5.50173 46.0271
564 1 16.7868 6.6643 47.4525
565 1 15.0433 1.41174 47.0404
566 1 15.9865 5.32213 45.2058
567 1 17.9131 5.73318 43.1882
568 2 13.3032 0.755069 45.163
569 1 3.67665 0.611751 53.8631
570 1 2.53555 4.0341 50.9007
571 2 2.13767 2.70406 53.0639
572 1 0.637621 0.462335 49.2209
573 1 0.823345 0.571171 53.0677
574 1 2.7123 1.25491 51.0023
575 2 5.87055 6.75351 46.7707
576 1 0.509007 0.839019 44.1905
577 1 2.00551 2.77668 45.9982
578 1 15.3427 4.11512 47.5625
579 1 15.9131 5.36182 41.3497
580 1 13.5665 2.08999 43.2054
581 2 15.3107 0.689686 41.665
582 1 16.4271 3.31052 43.231
583 2 14.7624 3.06519 45.2445
584 1 14.4132 3.13641 41.0105
585 1 6.2104 1.56946 47.8533
586 1 3.70004 0.89282 45.115
587 1 4.8936 2.93916 41.2478
588 1 2.80247 1.29189 41.8959
589 2 5.37225 0.954593 43.1789
590 1 13.0087 1.00634 40.8177
591 1 16.9539 4.6161 54.8882
592 1 6.18955 4.59031 53.7344
593 2 6.10376 1.96783 54.6048
594 2 4.51724 3.02305 49.629
595 1 2.76443 4.39724 48.2791
596 1 10.6365 4.22862 55.8291
597 1 8.03993 2.54237 53.2082
598 2 9.39467 2.82101 51.2794
599 1 6.91043 3.27516 50.2529
600 1 8.88212 2.00125 48.881
601 1 5.69507 4.6137 48.0729
602 1 9.13661 4.60075 49.2251
603 2 6.69909 3.35473 43.1899
604 1 4.15056 3.35793 43.841
605 1 6.421 2.02891 45.2227
606 1 7.29756 4.03308 40.8721
607 1 10.6744 3.91218 53.2299
608 2 8.71022 5.1155 54.4788
609 2 4.4533 3.02458 46.5634
610 2 2.41964 3.97271 41.0404
611 1 11.4743 3.22198 49.4383
612 1 8.66544 3.54122 45.0731
613 1 9.39725 2.93175 42.6644
614 2 11.8241 3.17965 41.6814
615 1 9.98576 4.39939 40.577
616 2 10.4182 4.00196 47.119
617 1 11.4295 3.51264 44.552
618 1 7.41902 1.39276 41.5239
ITEM: TIMESTEP
11000
ITEM: NUMBER OF ATOMS
618
ITEM: BOX BOUNDS xy xz yz pp pp ff
0.0000000000000000e+00 1.9317770367296919e+01 4.0025167278329121e+00
0.0000000000000000e+00 6.6702723500479264e+00 0.0000000000000000e+00
0.0000000000000000e+00 1.0921147561319708e+02 0.0000000000000000e+00
ITEM: ATOMS id type x y z
1 1 4.05143 6.06675 5.95675
2 1 5.63142 6.31829 8.29558
3 1 4.23836 6.20081 13.2041
4 1 5.07913 0.351836 5.94308
5 1 3.41096 -0.121032 10.7432
6 1 5.74834 6.28334 15.3953
7 1 4.09703 6.18419 20.0657
8 1 11.8266 6.02106 5.84898
9 1 6.74849 0.551211 8.27935
10 1 4.96729 0.363065 12.9283
11 1 7.66819 6.73578 17.6944
12 1 5.67941 6.51038 22.3321
13 1 4.07365 5.96512 26.9725
14 1 9.82541 1.28472 6.09332
15 1 13.4823 6.2691 8.3718
16 1 8.46826 0.795688 10.5867
17 1 11.6735 6.02399 13.0765
18 1 6.68896 0.651841 15.407
19 1 4.89763 0.311367 20.0546
20 1 3.3702 -0.0321763 24.7255
21 1 5.69613 6.23425 29.2938
22 1 4.35556 6.28605 34.0925
23 1 12.5839 0.262002 5.88388
24 1 12.167 3.24609 5.80425
25 1 11.6662 1.50455 8.53882
26 1 11.0308 -0.162066 10.8132
27 1 10.5634 2.81212 10.7517
28 1 10.0284 1.30984 13.0588
29 1 13.3693 6.45112 15.4293
30 1 8.39489 0.912977 17.6913
31 1 11.661 6.14546 20.0317
32 1 6.56662 0.783194 22.2687
33 1 4.95476 0.305161 27.0522
34 1 3.39227 0.0306539 31.4949
35 1 5.97484 6.5255 36.4832
36 1 14.7915 2.10054 5.65197
37 1 14.2729 0.582727 8.37066
38 1 13.8237 3.39101 8.16235
39 1 13.3429 1.907 10.8002
40 1 12.7754 0.360481 13.0714
41 1 12.1514 3.22651 12.953
42 1 11.6033 1.6284 15.4109
43 1 15.008 6.71628 17.7541
44 1 10.4581 2.94378 17.6369
45 1 9.93167 1.2693 20.034
46 1 13.4273 6.36728 22.3347
47 1 8.40227 0.998022 24.4984
48 1 11.7813 5.90629 27.0475
49 1 6.78053 0.657848 29.2668
50 1 5.24633 0.262922 34.0065
51 1 7.30144 6.36544 38.8426
52 1 2.0966 1.34817 6.01496
53 1 17.2745 4.22476 5.96144
54 1 16.5932 2.58753 8.55144
55 1 0.6994 0.989627 10.6855
56 1 15.4733 3.68858 10.8626
57 1 14.9578 2.29419 13.056
58 1 14.4129 0.724366 15.2994
59 1 14.0739 3.57283 15.3197
60 1 13.3339 2.07291 17.6632
61 1 12.6008 0.45432 20.0526
62 1 12.0298 3.34522 19.9558
63 1 11.6455 1.97663 22.2642
64 1 11.1304 0.208914 24.6217
65 1 10.6044 2.97976 24.6531
66 1 10.0278 1.36016 26.8061
67 1 13.6184 6.41408 29.2708
68 1 8.41802 0.968327 31.5649
69 1 12.0537 5.92738 34.1939
70 1 6.90512 0.594563 36.1488
71 1 4.61002 3.17716 5.8297
72 1 3.95601 1.54845 8.43831
73 1 3.43545 4.31418 8.37903
74 1 3.16958 2.68735 10.8666
75 1 2.42379 1.32956 12.978
76 1 17.1905 4.12322 13.1907
77 1 16.6346 2.52152 15.4593
78 1 0.547569 1.06224 17.6702
79 1 15.6137 3.96872 17.6561
80 1 14.9485 2.44442 19.9599
81 1 14.3423 0.690943 22.3489
82 1 14.0915 3.56126 22.3367
83 1 13.3182 1.97073 24.797
84 1 12.5729 0.416219 26.9721
85 1 12.3356 3.39937 26.9813
86 1 11.633 1.62307 29.2843
87 1 11.252 0.166592 31.7601
88 1 10.7137 2.94599 31.5716
89 1 10.2695 1.34233 34.0632
90 1 13.6358 6.33582 36.4243
91 1 8.55541 0.690448 38.8886
92 1 7.12453 2.24348 5.77911
93 1 6.87485 5.02919 5.94543
94 1 6.16712 3.4676 8.50954
95 1 5.91447 1.75754 10.695
96 1 5.01693 4.85507 10.8471
97 1 4.66395 3.21378 12.8776
98 1 3.99547 1.67736 15.3928
99 1 3.48443 4.59722 15.4001
100 1 2.67977 2.91341 17.7244
101 1 2.23224 1.45749 20.0127
102 1 17.1839 4.40088 20.2539
103 1 16.6557 2.64835 22.3226
104 1 15.934 0.989399 24.6847
105 1 15.5442 3.95412 24.7493
106 1 14.8911 2.13972 27.056
107 1 14.4932 0.523194 29.4371
108 1 13.9496 3.48822 29.2396
109 1 13.3098 2.09328 31.7138
110 1 12.7632 0.293677 34.0876
111 1 12.4133 3.21266 33.9898
112 1 11.783 1.49552 36.4295
113 1 14.9655 6.25632 38.7809
114 1 11.1613 2.36656 39.1338
115 1 9.5757 4.03435 5.88808
116 1 8.82677 2.5962 8.47068
117 1 8.29126 5.26585 8.27369
118 1 7.87411 3.78751 10.7259
119 1 7.29864 2.1236 13.0927
120 1 6.86017 5.01062 12.8964
121 1 6.11759 3.46847 15.3817
122 1 5.65056 2.03508 17.7928
123 1 5.07983 4.85437 17.7061
124 1 4.46517 3.29105 20.0662
125 1 3.8297 1.65608 22.3229
126 1 3.51916 4.5279 22.459
127 1 2.86256 2.925 24.6848
128 1 2.34233 1.36749 26.9901
129 1 17.2228 4.07057 27.0369
130 1 16.5485 2.47431 29.3692
131 1 0.808671 0.981725 31.7384
132 1 15.5942 3.90326 31.7929
133 1 15.0472 2.33405 34.0362
134 1 14.8023 0.551413 36.4774
135 1 14.1112 3.36289 36.3176
136 1 13.6595 1.90292 38.4949
137 1 11.1705 4.30394 8.30492
138 1 10.2222 5.54929 10.5841
139 1 9.46376 4.18924 13.0104
140 1 8.85744 2.55679 15.3619
141 1 8.37018 5.52983 15.1508
142 1 7.96824 3.92804 17.6826
143 1 7.27378 2.24689 19.9187
144 1 6.70637 5.09493 20.0842
145 1 6.15961 3.45694 22.458
146 1 5.58483 1.82926 24.6305
147 1 5.20144 4.80715 24.586
148 1 4.61232 3.11144 27.0848
149 1 4.02826 1.51982 29.3732
150 1 3.51342 4.30826 29.42
151 1 2.92063 2.82802 31.6711
152 1 2.42528 1.38033 34.1533
153 1 17.4852 4.23058 34.1533
154 1 16.931 2.64715 36.2255
155 1 0.756169 0.934977 39.0547
156 1 15.9954 3.58325 38.5635
157 1 14.5898 5.04237 5.82007
158 1 12.877 4.7216 10.7812
159 1 11.1973 4.44514 15.3259
160 1 10.1897 5.83081 17.5722
161 1 9.33453 4.11609 20.1482
162 1 8.86595 2.54232 22.3157
163 1 8.36021 5.63266 22.3066
164 1 8.01556 3.88792 24.5183
165 1 7.33574 2.13145 26.6435
166 1 6.80839 5.03736 27.0592
167 1 6.2222 3.43618 29.2206
168 1 5.6461 1.96196 31.6514
169 1 5.22697 4.68491 31.7796
170 1 4.60944 3.25716 34.1466
171 1 4.26762 1.51995 36.3759
172 1 3.77246 4.32671 36.5537
173 1 3.35268 2.54606 39.0392
174 1 15.9215 5.21209 8.39821
175 1 14.5204 5.10014 13.1167
176 1 12.8081 4.93976 17.7245
177 1 11.1693 4.7023 22.391
178 1 10.2908 5.77335 24.6821
179 1 9.56417 4.26007 26.9966
180 1 8.95073 2.55104 29.1078
181 1 8.60731 5.44967 29.3252
182 1 7.94477 3.84421 31.474
183 1 7.45278 2.11514 33.7496
184 1 6.91163 5.30401 34.0179
185 1 6.52106 3.31095 36.3095
186 1 6.29265 2.11543 38.6725
187 1 5.2399 4.88101 38.7971
188 1 17.7099 5.62663 10.6902
189 1 16.2196 5.56232 15.5131
190 1 14.4595 5.10572 19.9512
191 1 12.9595 4.74459 24.6346
192 1 11.3052 4.49885 29.3131
193 1 10.2122 5.70972 31.5374
194 1 9.64321 4.09351 33.8392
195 1 9.13545 2.52055 36.0381
196 1 8.55673 5.37105 36.0746
197 1 8.93304 3.59401 38.1598
198 1 17.8116 5.89649 17.8526
199 1 16.0674 5.75744 22.3966
200 1 14.6305 5.14165 27.0315
201 1 12.8869 4.85419 31.6018
202 1 11.3403 4.23228 36.402
203 1 10.3287 6.02023 38.1414
204 1 17.7316 5.70918 24.5868
205 1 16.2549 5.41808 29.4065
206 1 14.6001 5.01948 34.0601
207 1 12.7864 4.59676 38.9712
208 1 17.8581 5.85553 31.7955
209 1 16.5758 5.43211 36.3047
210 1 17.7449 5.54306 38.904
211 2 14.6946 1.3753 102.26
212 1 15.3134 1.07814 99.4897
213 1 3.89095 0.316442 103.371
214 1 2.55366 1.22573 99.0202
215 1 1.8983 1.66918 101.743
216 2 0.823822 0.532977 96.869
217 1 15.1021 1.3707 94.5012
218 1 6.41062 1.69552 102.848
219 1 7.07909 1.34817 100.323
220 1 6.03449 6.66026 94.7226
221 1 4.88733 2.63044 98.8813
222 2 4.50042 1.25908 101.076
223 1 4.28887 1.21838 93.8216
224 1 2.37091 2.72129 95.1862
225 1 0.686541 0.789675 90.9125
226 1 3.39411 1.82695 90.7987
227 2 1.92654 1.67994 92.9221
228 1 0.901109 0.986143 88.2805
229 1 8.62724 0.694488 95.7371
230 1 7.39683 1.27959 89.07
231 1 8.94772 6.48855 90.0863
232 1 11.8941 5.01008 103.489
233 1 3.98902 3.23759 102.632
234 1 8.62729 3.21251 102.171
235 1 6.25789 4.58603 103.208
236 2 8.58504 0.551534 102.596
237 2 5.98924 3.68647 100.988
238 1 7.47631 3.71392 98.8817
239 2 6.74031 1.55902 97.4572
240 1 4.94034 2.5163 96.1544
241 1 13.6674 2.99143 103.396
242 1 10.6117 1.55543 101.402
243 1 14.4323 6.0062 98.9598
244 2 11.8167 1.43358 98.9158
245 1 10.5673 3.73403 99.7322
246 1 9.29357 1.92706 98.0045
247 1 11.3698 0.649634 96.6816
248 1 7.57485 3.4323 95.8967
249 1 11.651 3.31706 97.0757
250 2 9.42514 4.52414 97.3874
251 1 8.44873 3.28792 92.956
252 2 8.95594 1.84905 90.8551
253 1 10.2888 3.98539 90.9594
254 1 6.25016 1.69508 91.715
255 1 8.71694 0.492509 92.9965
256 1 10.2143 3.76073 94.8352
257 1 7.44986 3.98083 90.1258
258 1 9.65405 2.70931 88.5727
259 1 13.0683 2.3342 100.685
260 2 11.2699 3.42942 102.311
261 1 12.6577 5.25173 100.845
262 2 13.3324 3.82523 98.6877
263 1 15.2789 3.83407 100.527
264 1 11.7253 5.88224 98.0037
265 1 13.8647 4.75924 96.349
266 2 6.78534 1.54097 94.3181
267 2 5.20579 2.48127 89.3166
268 1 10.9658 5.27475 88.753
269 1 2.66352 3.96118 99.8862
270 1 13.8225 1.8362 97.0575
271 1 11.0548 1.93046 92.7452
272 1 11.7365 1.55655 90.1988
273 2 14.4833 2.04628 89.4217
274 1 12.3246 3.15191 88.066
275 2 3.2688 4.03082 97.2877
276 1 15.892 3.21342 97.783
277 1 16.6045 5.15145 95.7721
278 2 12.6564 2.2586 94.7604
279 1 13.841 2.15627 92.0527
280 2 14.5901 6.33969 94.3883
281 1 12.5624 4.40748 93.0682
282 1 13.2289 4.24266 90.3111
283 1 15.6186 3.95031 93.6559
284 1 16.145 3.39467 91.135
285 1 13.653 6.68885 89.1166
286 1 14.6399 5.70408 102.721
287 1 9.86727 6.51296 95.8355
288 2 17.0452 4.35501 102.351
289 1 16.7467 6.3353 100.732
290 1 4.99129 5.4258 98.9674
291 1 4.34939 5.85265 101.637
292 1 17.3498 5.85773 98.2188
293 1 17.0915 6.50026 93.427
294 1 17.6129 5.91279 90.7234
295 1 15.0016 5.91884 91.5338
296 2 15.7979 5.17866 88.9412
297 1 5.77683 3.70064 93.6627
298 1 3.86007 5.21421 95.0451
299 1 3.07625 3.93234 92.6535
300 1 4.94318 4.49663 90.7707
301 2 4.29909 6.02399 92.8254
302 1 9.9467 5.68807 101.886
303 1 7.23233 5.87015 96.9782
304 1 7.25541 5.81564 100.801
305 1 9.15245 6.46763 98.9083
306 2 7.96927 5.29421 94.503
307 1 6.88301 5.99914 92.1609
308 1 2.78086 3.6584 89.0802
309 2 6.55728 6.23276 89.5189
310 1 10.0656 5.78037 92.9472
311 2 11.6164 6.07892 90.9703
312 1 5.36376 4.64599 88.1078
313 1 3.61294 1.23528 87.8747
314 1 13.3967 0.873953 87.3612
315 2 16.8544 6.37348 84.9239
316 1 18.398 6.41466 82.9617
317 1 5.9118 2.05025 83.0934
318 1 6.10997 6.60705 83.7587
319 2 1.04615 0.68762 81.3551
320 1 4.11431 6.20543 76.9532
321 1 2.14167 0.192722 75.2139
322 1 2.24533 0.517951 78.9499
323 1 14.6031 0.218596 74.1479
324 1 4.28057 1.32713 85.1134
325 2 8.85737 6.46505 83.0763
326 1 10.7714 6.50991 84.9164
327 1 3.20667 2.128 82.1843
328 1 5.52184 0.769282 80.6674
329 1 3.04679 1.61276 72.8041
330 1 9.4065 0.0427579 84.351
331 2 10.0784 0.0656733 81.4827
332 1 11.4935 6.3388 82.2618
333 1 8.0986 1.06456 79.8933
334 2 5.91048 2.06553 78.432
335 1 4.22732 0.714942 76.9515
336 1 5.036 0.330244 74.1588
337 1 7.25783 0.0359989 77.5704
338 1 11.7949 6.35478 74.8582
339 1 6.33437 2.32343 86.7695
340 1 16.394 2.90851 80.1187
341 2 8.62473 0.704627 86.8158
342 2 10.3261 4.20291 86.5397
343 1 8.05167 2.42887 84.7766
344 1 11.7984 1.38121 83.0561
345 1 11.348 1.78765 85.6247
346 1 10.6583 3.85901 83.7426
347 1 8.99068 2.22022 82.3343
348 1 8.51152 2.87738 77.7547
349 1 9.29694 2.22204 75.2327
350 1 6.6405 2.06533 75.797
351 2 7.69557 1.74868 73.1175
352 1 15.0018 3.29282 87.1811
353 1 13.3545 3.86335 82.9237
354 1 12.7598 4.31584 85.5467
355 2 11.5332 3.21122 81.0435
356 1 10.7041 4.3613 78.6698
357 1 17.0614 4.72414 86.8409
358 1 2.64359 4.08616 84.2609
359 1 12.7917 0.106553 77.6982
360 1 10.6334 1.4691 79.2222
361 1 12.8634 2.79153 78.6212
362 1 9.95344 0.106236 76.8277
363 1 11.9482 0.707796 74.9458
364 2 11.1886 2.2362 76.9286
365 1 1.63755 1.95339 85.8242
366 1 15.69 5.42678 82.8329
367 2 15.3777 4.12904 84.918
368 1 13.9722 1.56679 80.997
369 1 14.1171 1.95044 84.7915
370 1 15.9426 2.56323 82.8453
371 2 15.0286 1.41354 78.5796
372 1 13.8829 2.329 76.1296
373 1 15.2939 4.24969 77.7502
374 1 13.3426 5.55249 79.2112
375 1 10.0679 0.416129 72.9512
376 1 11.6767 3.51424 74.8645
377 2 13.5775 2.42202 73.474
378 1 14.3287 4.78606 74.9046
379 2 12.6904 4.71274 76.9032
380 1 11.6457 3.26409 72.202
381 1 3.94388 2.94445 79.6852
382 1 1.72412 2.27789 77.0128
383 1 3.17565 4.23892 73.1494
384 1 16.0598 2.65347 74.2017
385 2 3.56813 2.37465 74.9996
386 1 12.8099 0.651322 71.8903
387 1 14.8319 6.04248 86.5273
388 1 4.00224 6.01357 85.8399
389 2 3.78276 3.42991 86.5008
390 2 17.6395 4.43359 81.5721
391 1 16.3073 5.81779 80.1064
392 1 8.25456 5.0301 87.7729
393 1 5.70013 4.16997 84.9595
394 2 7.29755 4.15182 82.8481
395 1 4.92604 4.64077 82.0059
396 1 6.864 3.36173 80.3862
397 1 3.68474 5.81448 79.9367
398 1 7.2015 6.07144 81.0981
399 2 4.91985 4.76426 74.9946
400 1 17.4792 4.68226 75.5963
401 1 4.3435 3.40877 76.9948
402 1 5.27243 5.77817 72.6126
403 1 8.41975 5.0546 85.1429
404 2 6.47864 6.3191 86.3046
405 2 17.7444 4.35763 78.3851
406 2 16.1896 5.37433 73.3387
407 1 9.53509 4.6812 81.2402
408 1 6.68937 4.79316 77.0309
409 1 7.39768 4.46005 74.4272
410 2 9.78568 4.40832 73.5796
411 1 7.90613 5.86793 72.065
412 2 8.49461 5.63947 78.9152
413 1 9.31019 5.06069 76.2596
414 1 5.5022 2.92143 73.0904
415 2 2.03642 0.49709 70.3733
416 1 6.46417 6.6106 67.6147
417 1 10.5144 5.9316 71.3061
418 1 8.9892 6.7404 66.966
419 1 4.44217 0.452736 69.6356
420 2 7.29005 6.04696 65.0478
421 1 6.10014 6.72158 62.7442
422 1 8.75014 0.77453 70.7853
423 1 9.73982 0.050704 68.223
424 1 8.34901 5.54035 62.8167
425 1 7.3834 1.39278 66.9697
426 2 6.90652 0.0541825 69.0219
427 1 6.58128 0.237564 61.8826
428 1 4.48689 1.45579 63.427
429 1 7.06231 6.29397 58.8214
430 1 5.75908 0.682208 58.8438
431 2 3.95061 0.54198 60.9811
432 1 6.72433 5.69969 56.1456
433 1 14.9352 5.85944 63.876
434 1 9.64888 0.0257374 57.213
435 1 11.2708 5.21375 58.1348
436 1 14.3012 4.2737 72.0788
437 1 6.4655 1.97818 70.6729
438 1 11.042 2.12577 69.6555
439 1 8.89272 3.35897 71.3382
440 2 14.8745 6.26281 70.6663
441 2 8.38509 2.47459 68.9679
442 1 10.0091 2.65022 66.8775
443 2 9.31286 0.291907 65.6534
444 1 7.44022 1.50021 64.284
445 1 15.5744 1.60292 71.7458
446 1 16.6863 6.78752 69.0085
447 1 16.9231 4.84107 66.9595
448 2 14.3532 0.23682 67.0788
449 1 13.204 2.67259 67.7221
450 1 11.7828 0.69921 66.0916
451 1 17.7151 6.01611 64.6272
452 1 10.2413 2.04812 64.0677
453 1 14.1302 2.00026 65.215
454 2 11.9303 3.30984 65.3692
455 1 10.764 2.20302 61.0913
456 2 11.2979 0.626561 58.9873
457 1 12.8377 2.77611 59.3294
458 1 8.81929 0.646198 59.715
459 1 15.0398 5.95384 61.2614
460 1 12.7483 2.84424 62.9566
461 1 9.69815 2.65551 58.1205
462 1 11.8399 1.7241 56.7311
463 1 15.3886 1.2233 69.0892
464 2 13.5316 2.37432 70.375
465 1 15.1099 4.17888 69.0782
466 2 15.6976 2.54828 67.1149
467 1 2.45394 2.7031 68.9142
468 1 14.197 4.71626 66.1906
469 1 16.4014 3.52346 64.6252
470 2 9.19872 0.456259 62.3426
471 2 7.48048 1.14697 57.2578
472 1 13.4537 4.0721 56.7464
473 1 5.20026 2.88584 68.2469
474 1 1.1527 0.659941 65.2663
475 1 13.2797 0.585559 60.9684
476 1 13.908 0.369696 58.3773
477 2 1.02674 0.332873 57.5714
478 1 14.4382 1.84224 55.9989
479 2 5.57953 2.75144 65.5132
480 1 3.13918 2.44234 66.2863
481 1 3.53176 3.80652 63.8781
482 2 15.1139 1.26597 63.0173
483 1 0.660117 0.802833 60.4117
484 2 16.867 5.05991 62.4746
485 1 14.9105 3.21609 61.0335
486 1 15.6742 2.84317 58.3073
487 1 2.36246 2.58119 61.8025
488 1 3.22721 2.24787 59.0609
489 1 16.038 5.48172 57.1906
490 1 17.0535 4.61363 70.83
491 1 12.1312 5.47999 64.1866
492 2 4.17936 3.29613 70.8845
493 1 3.90055 5.19766 68.9779
494 1 7.37057 4.00009 67.0663
495 1 6.80961 4.59236 69.8246
496 1 4.44126 4.92924 66.3529
497 1 4.0543 5.16568 61.7141
498 1 4.74524 4.88415 59.1991
499 1 17.2928 4.51587 59.6995
500 2 2.88039 4.00807 57.1537
501 1 8.24715 2.64922 61.7862
502 1 6.23847 3.89025 63.3373
503 1 5.36358 2.60335 60.9521
504 1 7.2113 3.18635 58.9396
505 2 6.62256 4.735 61.007
506 1 12.625 4.72748 69.8685
507 1 9.38774 4.60442 65.0473
508 1 9.60771 4.57869 68.9333
509 1 11.5962 5.22494 67.0025
510 2 10.4487 4.3174 62.5633
511 1 9.34732 4.88779 60.2925
512 1 5.19822 2.89906 57.0481
513 2 8.87828 4.97151 57.6592
514 1 12.3789 4.94719 60.9919
515 2 14.1526 4.86107 59.0784
516 1 8.08396 3.19398 55.8841
517 1 9.5804 6.69554 56.0557
518 1 3.83607 5.91211 55.4393
519 2 3.47951 4.88415 53.0109
520 1 5.12745 5.09265 50.9798
521 1 8.19343 0.648882 51.0677
522 1 8.19085 5.04943 51.9014
523 2 7.12192 5.80234 49.3534
524 1 6.21573 4.50674 44.9295
525 1 8.05963 5.30587 42.8756
526 1 8.11651 5.47878 46.9434
527 1 5.16868 5.20443 42.2744
528 1 6.31768 -0.0129794 53.0551
529 2 10.8634 5.14718 51.1872
530 1 12.882 5.16677 52.922
531 1 5.28268 0.509718 50.2022
532 1 11.5904 5.82013 48.8434
533 1 5.08398 0.046652 40.5141
534 1 15.5417 5.278 52.1684
535 2 16.1961 5.22872 49.6758
536 1 13.5551 4.43507 50.3142
537 1 14.1017 6.19666 48.1183
538 2 7.94767 0.475693 46.5114
539 1 10.0438 5.73089 44.9188
540 1 10.788 5.2259 42.3254
541 1 12.9955 4.98864 45.6967
542 1 13.7557 4.56207 43.0815
543 1 8.30007 0.451993 54.9049
544 1 3.01374 1.34807 48.1831
545 2 14.7313 5.87117 54.9907
546 2 12.3513 2.93145 54.5575
547 1 10.2999 1.14237 53.0402
548 1 17.985 6.62388 51.1668
549 1 13.0159 0.399753 53.8209
550 1 12.7794 2.38506 51.8658
551 1 10.856 0.670815 50.4628
552 1 10.569 0.797815 45.7817
553 1 11.2821 0.458951 43.1702
554 1 8.58769 0.348109 43.858
555 2 13.4614 6.34953 41.163
556 1 1.67027 1.67925 55.3939
557 1 15.29 2.42074 51.1812
558 1 14.8356 2.91119 53.6659
559 2 13.5161 1.6308 49.1209
560 1 12.6912 2.52276 46.742
561 1 3.91367 3.2729 54.7994
562 1 4.84196 2.6019 52.2249
563 1 3.57131 5.24872 45.7964
564 1 16.7729 6.52432 47.3491
565 1 14.9954 1.28943 46.7456
566 1 15.8178 5.01851 45.0742
567 1 17.7681 5.72155 43.023
568 2 13.2915 0.517093 45.1163
569 1 3.73475 0.504879 53.7986
570 1 2.55992 3.93839 50.9167
571 2 2.20356 2.46177 52.9523
572 1 0.544326 0.318163 49.0532
573 1 0.77496 0.312863 53.1384
574 1 2.73714 0.950392 51.084
575 2 5.70767 6.59834 46.5714
576 1 0.515789 0.639313 44.1247
577 1 1.90705 2.54746 45.7658
578 1 15.1343 3.92899 47.5281
579 1 15.7691 5.03686 41.2271
580 1 13.5034 1.93534 43.083
581 2 15.3145 0.617748 41.4615
582 1 16.2712 3.2681 43.0742
583 2 14.6175 2.95971 45.0501
584 1 14.3455 2.87979 40.7004
585 1 6.01135 1.48983 47.7676
586 1 3.57818 0.60197 44.9467
587 1 4.93215 2.80098 41.0985
588 1 2.63648 0.982558 41.9294
589 2 5.17543 0.900747 42.9121
590 1 12.8303 0.749797 40.6339
591 1 16.8858 4.38355 54.6746
592 1 6.13479 4.56698 53.8349
593 2 5.96355 1.95242 54.66
594 2 4.3789 2.84481 49.6699
595 1 2.56622 4.06546 48.2383
596 1 10.6965 4.03045 55.778
597 1 7.83382 2.57316 53.0455
598 2 9.40362 2.80517 51.0449
599 1 6.94935 3.1096 50.1022
600 1 8.78641 1.90228 48.5802
601 1 5.60179 4.39429 47.9053
602 1 9.12924 4.57646 49.1689
603 2 6.76498 3.12332 43.0037
604 1 3.95175 3.20159 43.6386
605 1 6.23207 1.91522 45.0871
606 1 7.32191 4.11666 40.5717
607 1 10.5667 3.77367 53.1157
608 2 8.69969 5.02423 54.3638
609 2 4.33794 2.85409 46.3827
610 2 17.7528 3.78213 40.9831
611 1 11.2081 3.10327 49.3772
612 1 8.66616 3.04872 45.043
613 1 9.27506 2.81274 42.4287
614 2 11.7672 2.89573 41.5117
615 1 10.096 4.3201 40.1663
616 2 10.56 4.06226 47.0061
617 1 11.3141 3.1533 44.3343
618 1 7.36427 1.14837 41.4293
ITEM: TIMESTEP
12000
ITEM: NUMBER OF ATOMS
618
ITEM: BOX BOUNDS xy xz yz pp pp ff
0.0000000000000000e+00 1.9317770367296919e+01 4.0025167278329121e+00
0.0000000000000000e+00 6.6702723500479264e+00 0.0000000000000000e+00
0.0000000000000000e+00 1.0921147561319708e+02 0.0000000000000000e+00
ITEM: ATOMS id type x y z
1 1 4.30584 5.94197 5.60653
2 1 5.8391 6.37699 8.06285
3 1 4.29101 5.98242 12.7935
4 1 5.37286 0.123389 5.68008
5 1 3.58861 -0.256669 10.5102
6 1 5.9071 6.32597 15.2762
7 1 4.13084 6.13993 19.8884
8 1 11.9926 5.949 5.86752
9 1 6.90729 0.50394 8.31976
10 1 5.02673 0.238632 12.8887
11 1 7.53473 6.86869 17.604
12 1 5.8668 6.40985 22.257
13 1 4.22626 6.0367 26.9096
14 1 10.1756 1.29915 5.77508
15 1 13.5064 6.31085 8.21144
16 1 8.55524 0.787986 10.5769
17 1 11.7518 5.92672 13.0502
18 1 6.80049 0.73511 15.2682
19 1 5.25147 0.402311 19.9121
20 1 3.55759 0.0345519 24.3961
21 1 5.99019 6.24704 28.9887
22 1 4.39687 5.92248 34.0144
23 1 12.8665 0.285667 5.6221
24 1 12.7157 3.03962 5.63094
25 1 11.9563 1.58127 8.14246
26 1 11.2724 -0.0807304 10.5049
27 1 10.9012 2.74291 10.5247
28 1 10.125 1.16121 12.907
29 1 13.4034 6.37955 15.2001
30 1 8.44088 1.07682 17.5316
31 1 11.9411 6.07826 19.8769
32 1 7.02128 0.733466 22.1361
33 1 5.45703 0.227744 26.8846
34 1 3.53711 -0.138615 31.313
35 1 6.08381 6.21498 36.0654
36 1 15.0789 2.12245 5.64026
37 1 14.56 0.526467 8.20588
38 1 14.2407 3.36485 8.02592
39 1 13.533 1.80665 10.5658
40 1 12.8622 0.323332 12.8717
41 1 12.5076 3.13732 12.9656
42 1 11.7613 1.53929 15.2443
43 1 15.2101 6.64272 17.4271
44 1 10.4109 2.9119 17.4526
45 1 10.1639 1.18909 19.9226
46 1 13.541 6.40104 22.2814
47 1 8.62172 1.0507 24.6603
48 1 12.1082 5.94577 26.7088
49 1 7.08777 0.575514 29.2618
50 1 5.18226 0.19038 33.9253
51 1 7.27671 6.15619 38.4736
52 1 2.56463 1.11248 5.70831
53 1 17.5096 4.05218 5.63902
54 1 16.8272 2.50776 8.06398
55 1 0.795495 0.966774 10.3882
56 1 15.6181 3.72319 10.531
57 1 15.1846 2.18297 12.8082
58 1 14.6065 0.723555 15.2367
59 1 14.0224 3.49372 15.1664
60 1 13.3749 1.87285 17.5095
61 1 12.877 0.335872 19.8928
62 1 12.2912 3.23549 19.8862
63 1 11.8199 1.38685 22.2001
64 1 11.3397 -0.0353239 24.6039
65 1 11.0674 2.74247 24.4715
66 1 10.3039 1.15468 26.886
67 1 13.5697 6.22659 29.2629
68 1 8.50122 0.728802 31.6167
69 1 12.0011 6.03475 34.0046
70 1 7.06478 0.614858 36.3598
71 1 4.80394 3.12147 5.79953
72 1 4.13758 1.33341 8.06664
73 1 3.75114 4.39105 8.17065
74 1 3.06161 2.77258 10.4567
75 1 2.49465 1.33313 12.6343
76 1 17.4063 4.02559 12.8768
77 1 16.7711 2.54189 15.1558
78 1 0.947215 1.01153 17.4842
79 1 15.6395 4.03195 17.4455
80 1 14.9075 2.4035 19.7187
81 1 14.4178 0.655829 22.1401
82 1 14.2234 3.41617 22.1453
83 1 13.5977 1.92815 24.5555
84 1 13.055 0.207635 26.9218
85 1 12.3272 3.14242 26.9737
86 1 11.8849 1.41319 29.3162
87 1 11.2585 -0.285609 31.6326
88 1 10.7988 2.79894 31.6504
89 1 10.2562 1.21957 33.9563
90 1 13.8363 6.33269 36.3193
91 1 8.6441 0.636028 38.8505
92 1 7.38115 2.26708 5.73474
93 1 7.18097 5.00472 5.83329
94 1 6.25761 3.49987 8.17046
95 1 5.62483 1.73156 10.3892
96 1 5.26654 4.79584 10.4221
97 1 4.6979 3.09579 12.9501
98 1 4.06608 1.63086 15.1565
99 1 3.65397 4.53464 15.3295
100 1 3.01622 3.02206 17.5838
101 1 2.2911 1.34212 19.8644
102 1 17.2145 4.11228 19.8941
103 1 16.7531 2.57242 22.1754
104 1 16.2328 0.914045 24.6064
105 1 15.766 3.75989 24.4656
106 1 15.1766 2.26015 26.7558
107 1 14.6481 0.584937 29.2632
108 1 14.1237 3.35836 29.3036
109 1 13.4504 1.82482 31.4787
110 1 12.8927 0.140602 33.8807
111 1 12.5135 2.9938 33.8315
112 1 11.9271 1.39438 36.4977
113 1 15.2041 6.47675 38.9916
114 1 11.3647 2.65944 38.9595
115 1 10.0491 4.10062 5.82667
116 1 9.1597 2.61268 8.17442
117 1 8.60572 5.30829 8.2285
118 1 8.07312 3.68665 10.5051
119 1 7.39566 2.17582 12.7885
120 1 6.91403 5.05272 12.9084
121 1 6.34446 3.6764 15.1654
122 1 5.66532 1.99996 17.5804
123 1 5.22592 4.63093 17.7659
124 1 4.69506 3.04775 19.9501
125 1 4.3247 1.68101 22.2255
126 1 3.6261 4.40731 22.1534
127 1 3.16582 2.89528 24.3648
128 1 2.59977 1.22903 26.8016
129 1 17.5679 4.07812 26.8972
130 1 16.9509 2.34661 29.1977
131 1 0.875894 0.85185 31.5882
132 1 15.6656 3.80068 31.6454
133 1 15.1802 2.08423 33.881
134 1 14.5665 0.400329 36.1757
135 1 13.9944 3.40092 36.1768
136 1 13.6468 1.60251 38.5223
137 1 11.4298 4.36724 8.29086
138 1 10.4309 5.70455 10.7325
139 1 9.63133 3.96521 12.7128
140 1 8.97281 2.62968 15.219
141 1 8.71875 5.46997 15.2751
142 1 7.85176 3.96517 17.5827
143 1 7.57286 2.27849 19.8808
144 1 6.88275 5.40803 19.9414
145 1 6.48812 3.62025 22.1628
146 1 5.92333 1.95912 24.3985
147 1 5.38085 4.78107 24.5884
148 1 4.85722 2.96658 26.7379
149 1 4.41122 1.4057 29.2066
150 1 3.94942 4.20566 29.2122
151 1 3.07646 2.68441 31.6127
152 1 2.65787 1.23537 33.8874
153 1 17.3233 3.96338 33.8963
154 1 16.7995 2.25412 36.4351
155 1 0.812479 0.694517 38.7139
156 1 15.7348 3.62385 38.645
157 1 14.8161 5.05319 5.73888
158 1 13.0176 4.66712 10.5347
159 1 11.202 4.37721 15.2021
160 1 10.2686 5.86776 17.71
161 1 9.65567 4.24343 19.8747
162 1 9.233 2.66044 22.4966
163 1 8.77213 5.49824 22.2473
164 1 8.08648 3.82533 24.6398
165 1 7.6758 2.13825 26.953
166 1 7.07619 4.96912 26.8018
167 1 6.42926 3.40017 29.1675
168 1 5.75085 1.6411 31.4774
169 1 5.24306 4.66841 31.5515
170 1 4.86136 3.00894 33.9417
171 1 4.27649 1.47199 36.3438
172 1 3.75752 4.44273 36.3683
173 1 3.12632 2.41416 39.0446
174 1 16.29 5.42259 8.10799
175 1 14.7305 5.04412 12.9567
176 1 12.7477 4.79722 17.5138
177 1 11.548 4.31751 22.2818
178 1 10.2819 5.60819 24.4737
179 1 9.72788 4.04179 26.7906
180 1 9.15713 2.46538 29.4651
181 1 8.7927 5.37671 29.1351
182 1 8.06906 3.71057 31.602
183 1 7.3832 1.97978 33.8014
184 1 7.13704 4.92214 33.9096
185 1 6.43561 3.40197 36.3739
186 1 6.05104 1.91362 38.7485
187 1 4.85298 4.55813 39.0157
188 1 17.9476 5.56113 10.45
189 1 16.3576 5.47314 15.2283
190 1 14.6475 5.0592 19.8316
191 1 13.1245 4.80648 24.5313
192 1 11.4008 4.33554 29.171
193 1 10.3612 5.53551 31.5932
194 1 9.79821 4.04469 33.7428
195 1 9.14263 2.32149 36.1052
196 1 8.74261 5.21037 36.0492
197 1 8.58514 3.48341 38.2254
198 1 18.0011 5.82725 17.6482
199 1 16.3138 5.30064 22.1503
200 1 14.6472 4.98703 26.8803
201 1 12.9064 4.61721 31.6451
202 1 11.4326 4.41824 36.272
203 1 10.2699 5.68718 38.3159
204 1 17.9333 5.80574 24.4647
205 1 16.3494 5.17316 29.1491
206 1 14.6647 4.89955 34.0826
207 1 13.2416 4.75704 39.2773
208 1 17.9388 5.56377 31.5118
209 1 16.3768 5.107 36.231
210 1 17.7715 5.36759 38.8254
211 2 14.5247 1.22285 102.376
212 1 14.8918 0.946751 99.6472
213 1 3.68468 0.418439 103.272
214 1 2.43535 1.1409 98.8513
215 1 1.59935 1.47192 101.496
216 2 0.434526 0.465553 96.9913
217 1 14.721 1.20026 94.6855
218 1 5.97866 1.77572 102.903
219 1 6.9339 1.22575 100.265
220 1 5.76815 6.66297 94.9014
221 1 4.79213 2.6745 98.8779
222 2 4.44194 1.35246 100.887
223 1 4.01182 1.27522 93.9632
224 1 2.0275 2.61097 95.4454
225 1 0.442338 0.754822 90.9035
226 1 3.14117 1.88308 90.9269
227 2 1.3094 1.65671 92.9913
228 1 0.765628 1.00482 88.2289
229 1 8.3995 0.343644 95.7394
230 1 7.16506 1.32283 89.159
231 1 9.08032 6.73981 90.137
232 1 11.8402 4.92831 103.535
233 1 3.59779 3.16974 102.526
234 1 8.31091 3.30822 102.033
235 1 6.27423 4.6802 103.271
236 2 8.32571 0.592556 102.382
237 2 5.89897 3.56978 101.034
238 1 7.39254 3.75309 98.9388
239 2 6.75356 1.58393 97.5764
240 1 4.85546 2.80136 96.2016
241 1 13.1668 2.48534 103.679
242 1 10.339 1.57145 101.492
243 1 14.1716 5.91796 99.09
244 2 11.5792 1.37206 99.1588
245 1 10.3555 3.68721 99.8271
246 1 9.13199 1.82982 98.2144
247 1 11.0164 0.471305 96.9073
248 1 7.72261 3.21646 95.9766
249 1 11.3908 3.07786 97.1169
250 2 9.29113 4.46095 97.4241
251 1 8.24486 3.36341 93.2247
252 2 9.00835 1.82144 91.0147
253 1 10.0728 4.14181 91.3318
254 1 6.35941 1.91668 91.7321
255 1 8.41816 0.463723 93.0181
256 1 10.4053 4.16155 94.8626
257 1 7.35933 4.17272 90.2134
258 1 9.49038 2.80676 88.8112
259 1 12.7839 2.29835 100.919
260 2 10.9172 3.44492 102.435
261 1 12.5275 5.11727 100.966
262 2 13.1573 3.554 98.8088
263 1 14.9829 3.75367 100.698
264 1 11.4509 5.69969 98.0662
265 1 13.5773 4.50877 96.475
266 2 6.40785 1.63791 94.5038
267 2 5.13925 2.6873 89.3455
268 1 10.9754 5.30204 88.7112
269 1 2.47396 3.92712 99.989
270 1 13.5682 1.6789 97.1422
271 1 10.7297 1.90106 92.9263
272 1 11.482 1.47064 90.1578
273 2 14.2956 2.04723 89.4478
274 1 12.1194 3.17217 87.9968
275 2 3.15157 3.87705 97.4691
276 1 15.7973 3.11274 98.1159
277 1 16.2668 4.95998 96.0685
278 2 12.5744 2.52743 94.7838
279 1 13.3935 2.00605 92.1291
280 2 14.3442 6.20801 94.4402
281 1 12.2528 4.45985 92.9006
282 1 13.0603 4.12312 90.3708
283 1 15.2058 3.82053 93.7441
284 1 15.9034 3.36628 91.225
285 1 13.4932 6.65447 89.1687
286 1 14.5535 5.61225 102.913
287 1 9.48082 6.61911 96.1795
288 2 16.8552 4.41916 102.552
289 1 16.4035 6.32221 101.001
290 1 4.95438 5.34204 99.0306
291 1 4.04665 5.73419 101.576
292 1 17.2331 5.97366 98.3888
293 1 16.7236 6.2713 93.6083
294 1 17.3455 5.86886 91.0601
295 1 14.5815 5.8356 91.863
296 2 15.6131 5.43802 89.1556
297 1 5.49927 3.93676 93.7979
298 1 3.49368 5.17156 95.2116
299 1 2.80388 3.72224 92.9209
300 1 4.66842 4.68265 90.8094
301 2 4.03269 6.04038 92.9538
302 1 9.89527 5.81197 101.819
303 1 6.80149 5.74926 97.074
304 1 7.00104 5.82273 100.861
305 1 8.87852 6.45634 98.9838
306 2 7.79628 5.37216 94.6643
307 1 6.78885 5.9406 92.2735
308 1 2.51793 3.89729 89.0293
309 2 6.51465 6.40527 89.6413
310 1 9.7116 6.0942 93.0589
311 2 11.5226 6.22445 91.0399
312 1 5.19162 4.95389 88.0868
313 1 3.54052 1.42494 87.8743
314 1 13.2198 0.80775 87.3621
315 2 16.8489 6.56405 84.99
316 1 18.338 6.68836 82.882
317 1 6.16876 2.40487 83.0179
318 1 6.17517 6.56625 83.7086
319 2 1.06331 0.901662 81.3345
320 1 4.05756 6.36908 77.2641
321 1 1.96907 0.406269 75.2593
322 1 2.04587 0.588188 78.8802
323 1 14.4284 0.192547 74.2978
324 1 4.19166 1.68778 85.0234
325 2 8.85482 6.89638 83.0123
326 1 10.8721 6.96353 84.9154
327 1 3.31456 2.17382 82.1181
328 1 5.43102 0.904841 80.7156
329 1 3.02714 1.585 72.7111
330 1 9.51411 0.529171 84.1145
331 2 10.1193 0.305611 81.5466
332 1 11.5933 6.41075 82.2684
333 1 7.90222 1.16618 79.9022
334 2 5.92576 2.2094 78.4136
335 1 4.30307 0.841332 76.8596
336 1 4.89898 0.245123 74.2688
337 1 7.17856 0.085339 77.4695
338 1 11.8083 6.56103 74.8041
339 1 6.32232 2.36411 86.8605
340 1 16.4871 3.11254 80.1024
341 2 8.53516 0.927774 86.8885
342 2 10.0875 4.18587 86.4577
343 1 8.38026 2.87095 84.9248
344 1 11.799 1.68301 83.0859
345 1 11.3517 2.10931 85.6432
346 1 10.6462 4.07491 83.7789
347 1 8.95553 2.46868 82.1902
348 1 8.40146 2.90423 77.9055
349 1 9.3652 2.27399 75.1069
350 1 6.61232 2.34141 75.6626
351 2 7.54074 1.89651 73.1349
352 1 14.8395 3.36012 87.2377
353 1 13.3582 4.33121 83.109
354 1 12.811 4.6788 85.7293
355 2 11.7436 3.60054 81.0947
356 1 10.6855 4.52475 78.7594
357 1 16.9405 4.9094 86.6898
358 1 2.77511 4.31804 84.2174
359 1 12.7499 0.385132 77.779
360 1 10.5073 1.83401 79.3239
361 1 12.8716 2.9984 78.8671
362 1 10.0036 0.267877 76.9351
363 1 11.8964 0.77919 74.9622
364 2 11.118 2.49682 77.0275
365 1 1.67449 2.28336 85.643
366 1 15.6704 5.64319 82.8049
367 2 15.3101 4.24771 84.8856
368 1 13.9122 2.09708 81.0836
369 1 14.0801 2.05662 84.6869
370 1 15.9741 2.84196 82.8592
371 2 14.9615 1.83372 78.6051
372 1 13.8346 2.42656 76.262
373 1 15.1959 4.41174 77.9159
374 1 13.29 5.737 79.2555
375 1 10.1013 0.562624 73.0671
376 1 11.6821 3.69247 74.9531
377 2 13.4819 2.46732 73.6134
378 1 14.2495 4.89378 74.8431
379 2 12.5352 4.74578 76.9118
380 1 11.5703 3.33862 72.228
381 1 4.0938 3.41317 79.6586
382 1 1.51183 2.46095 77.0588
383 1 3.04822 4.20985 73.1493
384 1 15.9847 2.81083 74.1626
385 2 3.37379 2.56951 74.9834
386 1 12.8038 0.634346 71.9031
387 1 14.7052 6.26579 86.6649
388 1 4.00818 6.32762 85.7931
389 2 3.81274 3.57139 86.6311
390 2 17.7501 4.5712 81.6185
391 1 15.9538 6.06692 80.2245
392 1 8.05794 5.13908 87.7287
393 1 5.69506 4.23666 85.1033
394 2 7.40918 4.47645 82.969
395 1 4.847 4.87095 82.0282
396 1 6.80247 3.46048 80.3505
397 1 3.47563 6.25865 80.0256
398 1 7.17208 6.2328 81.0702
399 2 4.71118 4.91989 75.1162
400 1 17.2741 4.70386 75.7452
401 1 4.2322 3.59956 77.034
402 1 5.16833 6.02698 72.8434
403 1 8.47774 5.52172 85.1065
404 2 6.50845 6.4834 86.3069
405 2 17.6492 4.67552 78.2814
406 2 16.187 5.40753 73.4426
407 1 9.46762 4.80257 81.1749
408 1 6.62945 5.08691 77.203
409 1 7.21703 4.61699 74.4845
410 2 9.73457 4.52718 73.6769
411 1 7.65511 5.70979 72.0379
412 2 8.45531 5.81083 78.8194
413 1 9.37443 4.99952 76.2697
414 1 5.32934 3.02494 73.1859
415 2 1.92109 0.483261 70.6288
416 1 6.28056 6.70397 67.9258
417 1 10.3463 5.94468 71.4472
418 1 9.0765 6.87965 67.2541
419 1 4.26584 0.809449 69.6727
420 2 7.25697 6.31569 65.1555
421 1 5.83296 6.5782 62.8604
422 1 8.64916 0.746809 70.8205
423 1 9.64936 0.295658 68.2949
424 1 8.17237 5.25405 62.9442
425 1 7.38734 1.56713 66.9549
426 2 6.95869 0.22838 69.0613
427 1 6.47342 0.0226596 61.8412
428 1 4.41961 1.25242 63.2968
429 1 6.87179 6.08043 58.9926
430 1 5.39889 0.592648 58.6542
431 2 3.90839 0.328628 61.1212
432 1 6.61442 5.455 56.3431
433 1 15.1306 6.24929 63.9193
434 1 9.59334 0.225488 57.2367
435 1 11.3602 5.29448 58.3094
436 1 14.3171 4.29336 72.1143
437 1 6.37796 2.1537 70.7364
438 1 10.9978 2.23304 69.8164
439 1 8.875 3.41391 71.3643
440 2 14.7739 6.3272 70.6313
441 2 8.52948 2.64073 68.9805
442 1 9.87825 2.67191 66.9523
443 2 9.09722 0.388237 65.608
444 1 7.1125 1.16879 64.2077
445 1 15.5222 1.70026 71.8476
446 1 16.6469 6.99885 69.1603
447 1 16.9314 5.02322 67.2621
448 2 14.3076 0.384193 67.0151
449 1 12.9988 2.76009 67.7137
450 1 11.6648 0.847308 66.1783
451 1 17.8845 6.24084 64.7586
452 1 9.97375 2.20195 64.1562
453 1 14.028 2.25031 65.1801
454 2 11.7595 3.27765 65.3931
455 1 10.7001 2.16393 61.2593
456 2 11.3857 0.602472 59.1469
457 1 12.6745 2.78587 59.3403
458 1 8.78144 0.632321 59.8661
459 1 14.981 5.80088 61.205
460 1 12.6869 2.61344 63.0184
461 1 9.90664 2.74358 58.4071
462 1 11.9079 1.53808 56.7835
463 1 15.303 1.29427 69.1198
464 2 13.4294 2.52369 70.3906
465 1 14.9612 4.1818 69.0597
466 2 15.5732 2.94068 66.9904
467 1 2.30799 2.74724 68.906
468 1 14.0258 4.87334 66.2591
469 1 16.1812 3.92925 64.7736
470 2 9.18946 0.473057 62.417
471 2 7.32868 1.00373 57.4148
472 1 13.3944 4.16632 56.7553
473 1 5.04275 3.01081 68.3962
474 1 1.07365 0.895218 65.3629
475 1 13.1642 0.689119 61.1108
476 1 13.7511 0.200614 58.4265
477 2 0.851561 0.130137 57.4706
478 1 14.373 1.56814 56.0343
479 2 5.40554 2.33756 65.5778
480 1 2.90656 2.43824 66.3892
481 1 3.405 3.74418 64.0399
482 2 15.0132 1.38035 63.0314
483 1 0.619513 0.786153 60.3103
484 2 16.823 5.01585 62.6277
485 1 14.8399 3.20474 60.879
486 1 15.576 2.7899 58.2989
487 1 2.36605 2.47965 61.8391
488 1 3.11612 2.07072 59.1787
489 1 15.8652 5.18888 57.1639
490 1 16.8508 4.64206 70.9744
491 1 12.2396 5.25589 63.9944
492 2 4.03842 3.49739 70.9122
493 1 3.77237 5.31207 69.0405
494 1 7.34975 4.29786 67.0377
495 1 6.80736 4.77032 69.7105
496 1 4.69902 4.83853 66.2721
497 1 3.847 5.08417 61.6946
498 1 4.60379 4.77212 59.059
499 1 17.1991 4.53066 59.8529
500 2 2.72797 3.76795 57.2138
501 1 8.15046 2.68563 61.993
502 1 6.00776 3.764 63.3716
503 1 5.40737 2.52471 60.9036
504 1 7.24509 3.1093 59.0327
505 2 6.50567 4.77116 61.0126
506 1 12.4918 4.87096 69.9174
507 1 9.6113 4.91583 65.1999
508 1 9.66592 4.73278 69.0011
509 1 11.5424 5.4321 66.9887
510 2 10.4257 4.14735 62.6326
511 1 9.13575 4.81273 60.3646
512 1 5.40389 2.75035 57.1616
513 2 8.73804 4.92678 57.6086
514 1 12.347 4.76384 61.1332
515 2 13.9352 5.03058 59.0619
516 1 8.33931 2.87285 56.2317
517 1 9.26157 6.74348 56.0475
518 1 3.91043 5.55595 55.359
519 2 3.52697 4.67447 53.1118
520 1 5.1592 4.941 51.1309
521 1 8.23572 0.41222 51.2614
522 1 8.24186 4.94302 51.7511
523 2 7.20622 5.60339 49.4143
524 1 6.21524 4.63915 45.0121
525 1 8.29709 5.22158 42.9696
526 1 8.29758 5.21724 47.0006
527 1 5.51939 5.32469 42.177
528 1 6.24961 -0.254329 53.0848
529 2 10.9628 4.9608 50.8848
530 1 12.9143 4.95185 52.8718
531 1 5.4845 0.413636 50.2625
532 1 11.5709 5.75061 48.6385
533 1 5.03756 0.0445125 40.6903
534 1 15.6744 5.24998 52.3173
535 2 16.2742 5.18952 49.5755
536 1 13.6788 4.59762 50.2686
537 1 14.1893 6.15326 47.9971
538 2 8.15949 0.691657 46.6246
539 1 10.2056 5.79718 45.1527
540 1 10.9991 5.25759 42.5255
541 1 13.1562 5.05665 45.7628
542 1 13.8934 4.69385 43.2272
543 1 8.18745 0.105801 54.9127
544 1 3.19454 1.24558 48.1393
545 2 14.737 5.90179 54.9109
546 2 12.5005 2.82278 54.5714
547 1 10.4301 0.956021 53.0658
548 1 18.0496 6.45626 51.1778
549 1 13.2776 0.135738 53.8455
550 1 12.7756 2.23284 51.7779
551 1 10.9736 0.417218 50.4593
552 1 10.6609 1.02309 45.6814
553 1 11.4957 0.41977 43.23
554 1 8.62164 0.450358 43.857
555 2 13.6188 6.73247 41.2651
556 1 1.64282 1.44711 55.366
557 1 15.5012 2.41472 51.0971
558 1 14.8611 2.63901 53.6494
559 2 13.7031 1.55379 49.1975
560 1 12.7471 2.58284 46.8598
561 1 3.90947 2.88655 54.9769
562 1 4.73123 2.45146 52.3585
563 1 3.77717 5.40373 45.849
564 1 16.7299 6.48214 47.3718
565 1 14.9644 1.1831 46.9807
566 1 15.9418 5.00126 45.0954
567 1 17.939 5.63706 43.1169
568 2 13.3462 0.541171 45.0535
569 1 3.5515 0.170412 53.7874
570 1 2.60794 3.74782 50.9661
571 2 2.19792 2.35683 53.0141
572 1 0.688444 0.0916397 49.1301
573 1 0.753571 0.25217 52.9689
574 1 2.70337 0.898074 50.9566
575 2 5.69472 6.56782 46.7231
576 1 0.695547 0.568367 44.1659
577 1 1.98243 2.42151 46.0307
578 1 15.2728 3.78395 47.5451
579 1 15.6897 5.11519 41.2451
580 1 13.6093 1.9021 43.166
581 2 15.518 0.727646 41.6334
582 1 16.4154 3.09831 43.2184
583 2 14.7794 2.77397 45.179
584 1 14.3212 2.88365 40.8974
585 1 5.91571 1.28286 47.7496
586 1 3.75329 0.552634 45.1076
587 1 4.78332 2.6076 41.2883
588 1 2.77784 1.10214 42.1526
589 2 5.27761 0.825186 43.1824
590 1 13.0879 0.678949 40.89
591 1 16.7503 4.31091 54.6582
592 1 6.08303 4.54989 53.9322
593 2 6.24445 1.92416 54.7125
594 2 4.45874 2.79451 49.5232
595 1 2.72711 4.14531 48.2104
596 1 10.7169 4.08032 55.8987
597 1 7.98782 2.55358 53.2825
598 2 9.4809 2.60065 51.193
599 1 6.83818 2.95664 50.1575
600 1 8.80846 1.53949 48.8109
601 1 5.71078 4.28423 47.8696
602 1 9.19232 4.30426 49.2235
603 2 6.78218 3.27003 43.024
604 1 4.1068 3.21895 43.8626
605 1 6.39761 1.83764 45.0782
606 1 7.2939 3.96288 40.6542
607 1 10.691 3.61459 53.1116
608 2 8.69774 4.77101 54.5295
609 2 4.39032 2.85935 46.3714
610 2 17.59 3.65446 40.8683
611 1 11.5844 2.99743 49.2528
612 1 8.75542 3.25295 45.1357
613 1 9.48703 2.6528 42.5884
614 2 11.909 2.90239 41.5585
615 1 10.0113 4.17409 40.4108
616 2 10.4998 3.82433 46.879
617 1 11.4595 3.36375 44.3099
618 1 7.34214 1.09339 41.5117
ITEM: TIMESTEP
13000
ITEM: NUMBER OF ATOMS
618
ITEM: BOX BOUNDS xy xz yz pp pp ff
0.0000000000000000e+00 1.9317770367296919e+01 4.0025167278329121e+00
0.0000000000000000e+00 6.6702723500479264e+00 0.0000000000000000e+00
0.0000000000000000e+00 1.0921147561319708e+02 0.0000000000000000e+00
ITEM: ATOMS id type x y z
1 1 4.62725 5.65227 6.40241
2 1 6.13996 6.11839 8.68892
3 1 4.73206 5.75094 13.4019
4 1 5.67095 0.267534 6.24344
5 1 7.89664 6.3798 11.064
6 1 6.40768 6.14121 15.7134
7 1 4.54401 5.92406 20.2217
8 1 12.2429 5.93193 6.02568
9 1 7.18083 0.460311 8.61171
10 1 9.6107 6.77323 13.2532
11 1 7.89855 6.50271 18.0581
12 1 6.1497 6.24686 22.7578
13 1 4.58067 5.829 27.3323
14 1 10.4659 1.07752 6.23499
15 1 13.7311 6.12387 8.5117
16 1 8.95032 0.787977 11.0089
17 1 12.3144 5.6645 13.1686
18 1 7.35395 0.36573 15.7844
19 1 5.63998 0.203641 20.3953
20 1 7.89296 6.66236 24.8715
21 1 6.23174 6.13638 29.4381
22 1 4.64849 5.95108 34.2667
23 1 13.1683 -0.230909 6.38287
24 1 12.8249 2.82622 6.29915
25 1 12.0911 1.10934 8.71877
26 1 15.6461 6.24002 11.1265
27 1 11.1384 2.5486 11.128
28 1 10.5922 0.88631 13.4001
29 1 13.9729 6.14705 15.5832
30 1 8.98846 0.810015 17.9426
31 1 12.3833 5.90311 20.3857
32 1 7.2593 0.540343 22.5324
33 1 5.70595 0.139822 27.1919
34 1 7.89345 6.47095 31.7943
35 1 6.15697 6.28881 36.67
36 1 15.4766 1.8285 6.55558
37 1 14.7281 0.442379 8.82339
38 1 14.1519 3.25066 8.7807
39 1 13.9455 1.61659 11.2048
40 1 13.3488 0.164808 13.5974
41 1 12.6395 3.01283 13.1935
42 1 12.1833 1.49343 15.6172
43 1 15.5361 6.40024 17.8007
44 1 11.3063 2.70376 17.9304
45 1 10.5025 1.21131 20.4009
46 1 14.0217 6.27583 22.5739
47 1 8.76878 0.716133 24.859
48 1 12.2316 5.66296 27.3022
49 1 7.25445 0.494094 29.3681
50 1 5.4562 0.151673 34.0554
51 1 7.20182 6.6477 39.0163
52 1 2.92939 1.12895 6.38211
53 1 2.33897 3.84058 6.3478
54 1 1.82407 2.17053 8.9824
55 1 1.31094 0.730221 11.1466
56 1 16.1398 3.62334 11.0868
57 1 15.4757 1.95479 13.437
58 1 14.9342 0.482946 15.8787
59 1 14.4842 3.18361 15.7231
60 1 13.8649 1.67922 18.0415
61 1 13.0925 0.0665233 20.165
62 1 12.7925 2.93507 20.3445
63 1 12.2819 1.39242 22.6761
64 1 15.4858 6.5308 25.0285
65 1 11.086 2.72062 24.8929
66 1 10.4721 0.891986 27.2022
67 1 14.0408 6.1798 29.5513
68 1 8.9997 0.74247 31.9288
69 1 12.2494 5.87773 34.0505
70 1 7.0627 0.57199 36.4564
71 1 4.96078 2.98554 6.19808
72 1 4.57018 1.25933 8.78368
73 1 4.01586 4.20831 8.72744
74 1 3.41891 2.72746 11.0546
75 1 2.87381 0.956046 13.3303
76 1 2.41647 3.85694 13.4742
77 1 1.93546 2.27085 15.5505
78 1 1.30874 0.662986 18.0947
79 1 16.1641 3.66354 18.2964
80 1 15.5289 2.05784 20.3253
81 1 14.8835 0.521971 22.5874
82 1 14.3492 3.40117 22.5213
83 1 13.8005 1.79492 24.9684
84 1 17.303 6.91218 27.1434
85 1 12.7763 3.15572 27.1746
86 1 12.2036 1.28126 29.503
87 1 15.7534 6.51728 31.8821
88 1 11.2336 2.75112 31.8807
89 1 10.6788 1.0745 34.2402
90 1 13.8005 6.12856 36.4787
91 1 8.71934 1.20669 39.0176
92 1 7.80521 2.12498 6.12163
93 1 7.44156 4.87469 6.21845
94 1 6.70191 3.14469 8.6683
95 1 6.05785 1.63514 11.1829
96 1 5.72908 4.43298 11.1178
97 1 5.2267 2.97547 13.4156
98 1 4.61429 1.39937 15.6297
99 1 4.13443 4.27986 15.7771
100 1 3.35503 2.55075 18.0342
101 1 2.82607 0.952632 20.434
102 1 17.737 3.77448 20.4701
103 1 1.80188 2.41992 22.7108
104 1 1.03357 0.817822 24.953
105 1 15.8541 3.64926 24.9143
106 1 15.4085 2.13603 27.4384
107 1 15.009 0.472104 29.6701
108 1 14.4225 3.26613 29.5913
109 1 13.7589 1.78764 31.8821
110 1 13.2817 0.304697 34.2853
111 1 12.762 3.04789 34.1596
112 1 12.036 1.60645 36.6126
113 1 11.1698 0.0569239 39.0168
114 1 11.3631 2.60738 39.1181
115 1 9.9947 3.79276 6.24394
116 1 9.43084 2.31295 8.74865
117 1 8.90878 5.17289 8.7008
118 1 8.39167 3.58439 11.0503
119 1 8.02445 1.95427 13.5248
120 1 7.48809 4.90509 13.4771
121 1 6.90438 3.17567 15.767
122 1 6.23548 1.86424 18.0148
123 1 5.7285 4.43929 18.0238
124 1 4.90113 2.9278 20.2793
125 1 4.43395 1.49487 22.7051
126 1 3.95806 4.25652 22.6077
127 1 3.34982 2.7813 24.9768
128 1 2.74058 1.0423 27.1756
129 1 17.6693 3.93813 27.2507
130 1 1.95142 2.47157 29.8129
131 1 1.38016 0.753421 31.8251
132 1 15.921 3.6257 31.8187
133 1 15.5774 2.05851 34.1138
134 1 14.9475 0.585044 36.427
135 1 14.4352 3.3533 36.3526
136 1 13.8385 1.99504 38.5393
137 1 11.6588 4.19556 8.60983
138 1 10.584 5.48239 10.854
139 1 10.0226 3.91132 13.3103
140 1 9.48532 2.2491 15.7251
141 1 9.12186 5.30993 15.6726
142 1 8.50993 3.70233 18.0839
143 1 7.71749 1.99065 20.3021
144 1 7.31861 4.80399 20.2741
145 1 6.64593 3.31896 22.5203
146 1 6.18279 1.81142 25.0691
147 1 5.56688 4.51375 24.94
148 1 5.11205 2.93292 27.2115
149 1 4.58594 1.38409 29.5243
150 1 4.12543 4.26652 29.4783
151 1 3.40677 2.68637 32.0058
152 1 2.93667 1.0416 34.1906
153 1 2.36922 3.99845 34.3086
154 1 1.78816 2.54159 36.6112
155 1 0.891579 1.09058 39.1758
156 1 16.0994 4.07502 38.7443
157 1 14.9472 4.80198 6.19733
158 1 13.4088 4.46667 10.9273
159 1 11.8846 4.3915 15.8201
160 1 10.7094 5.64886 18.1676
161 1 10.0981 4.11496 20.1611
162 1 9.27521 2.49334 22.5594
163 1 8.82705 5.18708 22.6403
164 1 8.3515 3.79263 24.943
165 1 7.97759 2.0647 27.4406
166 1 7.40565 4.86471 27.204
167 1 6.73458 3.32184 29.5944
168 1 6.26636 1.80151 31.7816
169 1 5.6172 4.45986 31.9477
170 1 5.08748 3.16071 34.2382
171 1 4.24954 1.51955 36.5719
172 1 4.08954 4.40179 36.6566
173 1 3.34483 2.77148 39.0271
174 1 16.5099 4.97424 8.6407
175 1 15.0261 4.7716 13.4997
176 1 13.5555 4.60565 18.1365
177 1 11.6334 4.30543 22.6129
178 1 10.549 5.66001 24.6549
179 1 10.0696 3.9339 27.1834
180 1 9.46047 2.41282 29.624
181 1 8.84312 5.19143 29.5355
182 1 8.49172 3.62701 31.9105
183 1 7.87148 1.99276 34.1446
184 1 7.34811 4.90019 34.1424
185 1 6.6679 3.39913 36.5964
186 1 6.04587 1.99669 39.064
187 1 5.2858 4.77989 39.0772
188 1 18.3165 5.4663 11.2642
189 1 16.6037 4.96289 15.8241
190 1 15.0223 5.04124 20.4802
191 1 13.1928 4.54307 24.9232
192 1 11.6937 4.1926 29.7446
193 1 10.4549 5.61464 31.8526
194 1 10.0642 3.92256 34.2453
195 1 9.33271 2.29561 36.2845
196 1 8.85867 5.47754 36.293
197 1 8.47483 3.77261 38.4534
198 1 18.344 5.46332 18.0538
199 1 16.6913 5.30653 22.5554
200 1 15.1022 4.86827 27.2651
201 1 13.2223 4.64565 31.8553
202 1 11.6374 4.465 36.7343
203 1 10.4469 5.99018 38.5906
204 1 18.1154 5.65136 24.815
205 1 16.6803 5.22704 29.5482
206 1 15.003 4.96633 34.1784
207 1 13.2796 4.88654 39.1292
208 1 18.3979 5.50129 31.831
209 1 16.5479 5.40928 36.4556
210 1 18.1352 5.74756 38.8075
211 2 14.5299 1.92106 101.834
212 1 15.2391 1.43979 99.274
213 1 3.74714 0.752951 103.234
214 1 2.56157 1.75942 98.9267
215 1 1.82444 2.01643 101.663
216 2 0.832107 0.915279 96.6082
217 1 14.8263 1.39355 94.3228
218 1 6.21355 2.1603 102.589
219 1 7.23733 1.81158 100.022
220 1 1.91862 0.233891 94.463
221 1 4.88869 2.99919 98.6942
222 2 4.45881 1.63486 100.804
223 1 4.14137 1.50051 93.3553
224 1 2.00275 2.85628 94.8485
225 1 0.414845 0.790443 90.6469
226 1 3.06223 2.14863 90.651
227 2 1.54091 1.85809 92.6228
228 1 0.618702 1.00803 87.9517
229 1 8.72862 1.06546 95.4214
230 1 7.20562 1.40121 88.7979
231 1 8.75103 6.79528 89.8759
232 1 11.9464 5.4659 103.13
233 1 3.9058 3.6621 102.279
234 1 8.5289 3.67589 101.88
235 1 6.16606 5.04162 103.002
236 2 8.38993 1.08459 102.289
237 2 5.89582 3.99064 100.713
238 1 7.39444 4.14337 98.5662
239 2 6.7555 1.8197 97.2894
240 1 4.63512 2.78704 95.8386
241 1 13.5339 3.34863 103.245
242 1 10.4616 1.97795 101.071
243 1 14.4035 6.40912 98.7681
244 2 11.752 1.92406 98.7275
245 1 10.4518 4.23557 99.4903
246 1 9.19548 2.22299 98.0008
247 1 11.3145 1.019 96.445
248 1 7.52474 3.69404 95.7635
249 1 11.4486 3.68635 96.7474
250 2 9.40432 4.85302 97.0428
251 1 8.18473 3.5661 92.5978
252 2 8.6847 1.91336 90.6177
253 1 10.0207 4.06917 90.7182
254 1 6.07162 1.85315 91.3452
255 1 8.36648 0.565752 92.8341
256 1 9.98389 3.82069 94.5911
257 1 7.25681 4.12887 89.7126
258 1 9.39376 2.9401 88.2312
259 1 12.9258 2.93251 100.501
260 2 11.1583 3.85899 102.14
261 1 12.4686 5.80221 100.513
262 2 13.1504 4.35684 98.4462
263 1 15.0127 4.34619 100.474
264 1 11.5949 6.19582 97.631
265 1 13.7652 4.98109 96.0343
266 2 6.65986 1.88192 94.0275
267 2 5.10755 2.73958 89.0879
268 1 10.9417 5.4248 88.4432
269 1 2.66256 4.46568 99.7442
270 1 13.8294 2.26784 96.8171
271 1 10.7842 2.03626 92.5509
272 1 11.4243 1.69188 89.8718
273 2 14.0961 2.21092 89.1764
274 1 12.0187 3.16354 87.6882
275 2 2.94859 3.87368 97.1666
276 1 15.9006 3.98896 97.95
277 1 16.3539 5.32121 95.6866
278 2 12.5817 2.59852 94.5217
279 1 13.4811 2.18527 91.8783
280 2 14.4788 6.6295 94.0512
281 1 12.2147 4.59638 92.7236
282 1 12.9196 4.19919 90.0624
283 1 15.1949 4.04211 93.425
284 1 16.0089 3.471 90.6992
285 1 13.4028 6.64711 88.9653
286 1 14.6112 6.20642 102.562
287 1 10.0027 6.66499 95.5266
288 2 16.9751 4.74788 102.277
289 1 12.6618 0.238995 100.676
290 1 5.2263 5.75343 98.6906
291 1 4.26305 6.24033 101.34
292 1 17.54 6.40191 97.9045
293 1 16.8267 6.51527 93.2667
294 1 17.4549 6.05035 90.6556
295 1 14.7038 5.95484 91.282
296 2 15.7036 5.34845 88.6399
297 1 5.71885 4.10681 93.4398
298 1 3.59811 5.27823 94.9525
299 1 2.8801 4.07478 92.4867
300 1 4.86336 4.65563 90.602
301 2 4.12381 6.10287 92.6372
302 1 9.88992 6.13713 101.477
303 1 7.2106 6.46635 96.7066
304 1 7.22865 6.1154 100.516
305 1 5.1456 0.141482 98.7545
306 2 8.00402 5.65856 94.2713
307 1 6.91283 6.17679 91.8346
308 1 2.73361 4.14495 88.8314
309 2 6.34404 6.51905 89.3006
310 1 9.78522 6.11722 92.7544
311 2 11.3876 6.31803 90.7345
312 1 5.41572 4.80168 87.6434
313 1 3.31268 1.53108 87.7978
314 1 13.2268 0.894149 87.1734
315 2 16.7416 6.58153 84.8169
316 1 18.2777 6.65802 82.8068
317 1 5.95136 2.16283 82.8278
318 1 5.85993 6.81195 83.4856
319 2 0.808814 0.744559 81.0799
320 1 3.73872 6.17909 76.8791
321 1 1.82682 0.164261 74.9586
322 1 1.85841 0.517086 78.6368
323 1 14.3011 0.286668 73.9706
324 1 4.03898 1.35002 84.7574
325 2 4.6404 -0.0711276 82.7254
326 1 10.6182 6.78554 84.553
327 1 3.18076 2.02875 81.841
328 1 5.26048 0.70216 80.5257
329 1 2.38809 1.55548 72.583
330 1 9.30808 0.175033 84.0202
331 2 9.97413 0.0871355 81.3343
332 1 11.3327 6.23993 81.9953
333 1 7.86733 1.25851 79.8247
334 2 5.5213 1.87138 78.3253
335 1 3.87268 0.659536 76.6564
336 1 4.4478 0.287682 73.9992
337 1 10.7991 6.62057 77.5212
338 1 11.3871 6.353 74.8812
339 1 5.8637 1.95802 86.6045
340 1 16.3488 3.00971 79.7054
341 2 8.15617 0.435579 86.6539
342 2 10.2207 4.52823 86.2105
343 1 8.05127 2.67598 84.8652
344 1 11.6952 1.50544 82.8989
345 1 11.0449 2.03901 85.4791
346 1 10.3811 3.95827 83.4731
347 1 8.76558 2.18149 82.1901
348 1 8.27998 2.51852 77.5599
349 1 9.01971 2.21159 74.9068
350 1 6.1492 2.0372 75.576
351 2 7.36896 1.72842 73.0123
352 1 14.5486 3.44682 86.8243
353 1 13.1806 4.01517 82.6133
354 1 12.5243 4.55109 85.2029
355 2 11.3011 3.1802 80.7695
356 1 10.445 4.16734 78.4083
357 1 16.9304 4.7555 86.5389
358 1 18.0412 4.30408 83.9511
359 1 12.5459 0.169389 77.5627
360 1 10.3266 1.46349 79.0288
361 1 12.6616 2.792 78.6601
362 1 9.7686 0.120282 76.6664
363 1 11.7566 0.721752 74.7337
364 2 11.0248 2.32793 76.7278
365 1 1.56059 2.29096 85.5371
366 1 15.6383 5.5157 82.6724
367 2 15.2624 4.20537 84.637
368 1 13.6372 1.77455 80.728
369 1 13.9406 2.00737 84.7028
370 1 15.8834 2.7641 82.6255
371 2 14.8158 1.61605 78.3792
372 1 13.6125 2.51174 75.9935
373 1 14.9479 4.3618 77.5663
374 1 12.927 5.59488 79.163
375 1 9.7501 0.344326 72.8367
376 1 11.2234 3.54384 74.8075
377 2 13.178 2.6057 73.3789
378 1 13.8498 4.89058 74.6044
379 2 12.3547 4.61228 76.8285
380 1 11.1106 3.16795 72.0255
381 1 3.82828 3.14074 79.5583
382 1 1.33482 2.41453 76.7959
383 1 2.71677 4.19229 72.932
384 1 15.6283 2.87718 74.1064
385 2 2.95223 2.41379 74.8351
386 1 12.573 0.630643 71.742
387 1 14.5473 6.17286 86.5004
388 1 3.88861 6.2065 85.7117
389 2 3.72574 3.56816 86.3178
390 2 17.4759 4.45488 81.2604
391 1 15.7802 5.96089 79.9953
392 1 8.318 5.51293 87.4056
393 1 5.57746 4.17204 84.8056
394 2 7.06548 4.29363 82.7817
395 1 4.65001 4.70685 81.9448
396 1 6.52302 3.4976 80.3074
397 1 18.6892 6.05381 79.8107
398 1 6.85097 5.9873 80.9117
399 2 4.50704 4.76189 74.9399
400 1 17.0701 4.88015 75.4464
401 1 4.00252 3.28744 76.8458
402 1 4.93072 5.69789 72.4625
403 1 8.18543 5.35601 84.7853
404 2 6.42819 6.42638 86.0673
405 2 17.3836 4.56604 78.1657
406 2 15.9392 5.35663 73.1397
407 1 9.08543 4.68969 81.121
408 1 6.30175 4.73841 77.0959
409 1 6.84173 4.30547 74.3069
410 2 9.21114 4.33894 73.3634
411 1 7.34083 5.84603 71.8125
412 2 8.28127 5.44692 78.6682
413 1 9.0928 4.89711 76.131
414 1 5.01465 2.85355 73.0252
415 2 1.5095 0.435887 70.3369
416 1 1.94528 -0.0435765 67.6546
417 1 10.0215 5.82003 71.1498
418 1 4.69817 0.0650101 67.0351
419 1 3.8862 0.376027 69.5049
420 2 7.04049 6.02684 64.9904
421 1 5.72576 6.39986 62.7652
422 1 8.23395 0.64424 70.6118
423 1 9.40747 0.12767 68.0216
424 1 8.07391 5.14618 62.6753
425 1 6.99946 1.54471 66.71
426 2 6.55562 0.0979782 68.7297
427 1 10.3947 6.48543 61.746
428 1 4.23637 1.10129 63.0991
429 1 6.69056 5.98265 58.8704
430 1 5.26471 0.33867 58.8852
431 2 3.55517 0.160028 60.8297
432 1 6.56784 5.64789 56.1781
433 1 14.9989 6.18391 63.7402
434 1 13.4651 6.63943 57.1713
435 1 11.1864 5.18317 58.2081
436 1 13.9138 4.37645 71.8121
437 1 6.05434 2.04876 70.4963
438 1 10.5598 2.09136 69.5869
439 1 8.44085 3.33849 71.1082
440 2 14.51 6.26636 70.4754
441 2 7.97381 2.52205 68.9567
442 1 9.58567 2.61378 66.6617
443 2 9.05263 0.281522 65.4757
444 1 6.84648 0.765085 64.2408
445 1 15.183 1.94234 71.7244
446 1 12.3289 0.112246 68.8109
447 1 16.7292 4.73268 66.9499
448 2 13.9686 0.374155 66.9292
449 1 12.7593 2.621 67.5833
450 1 11.4374 0.753295 66.0905
451 1 17.5824 6.06623 64.525
452 1 9.71958 1.99543 63.9434
453 1 13.8647 1.99992 65.0297
454 2 11.6922 3.2096 65.2436
455 1 10.4353 1.92637 61.0315
456 2 11.0032 0.673197 58.9756
457 1 12.3832 2.69661 59.0952
458 1 8.36949 0.533864 59.6508
459 1 14.8007 5.74619 61.0039
460 1 12.4496 2.32465 62.8533
461 1 9.64687 2.47335 57.9805
462 1 11.7475 1.42659 56.6571
463 1 15.057 1.27422 69.0676
464 2 13.1305 2.44974 70.2083
465 1 14.6544 4.20088 68.8376
466 2 15.3585 2.70432 66.9854
467 1 2.03002 2.73443 68.7845
468 1 13.8701 4.63934 66.1053
469 1 15.9123 3.6906 64.4759
470 2 8.84042 0.132732 62.3099
471 2 7.24196 1.16792 57.3232
472 1 13.3602 4.00596 56.7228
473 1 4.80653 2.89391 68.1336
474 1 0.758787 0.653144 65.1901
475 1 13.0889 0.496189 60.873
476 1 13.6623 0.269525 58.3545
477 2 0.817658 0.190688 57.4982
478 1 14.2703 1.47732 55.9905
479 2 5.12768 2.11521 65.4211
480 1 2.62758 2.2748 66.2248
481 1 3.23729 3.47455 63.8779
482 2 14.8703 1.17249 62.9241
483 1 0.490837 0.582746 60.1642
484 2 16.677 4.98816 62.3966
485 1 14.6822 3.02054 60.9473
486 1 15.45 2.76708 58.2385
487 1 2.03311 2.28703 61.716
488 1 2.80999 2.18867 58.9779
489 1 15.7446 5.35135 57.2883
490 1 16.5806 4.60445 70.6091
491 1 12.1597 5.06151 63.9245
492 2 3.74067 3.27823 70.8221
493 1 3.46744 5.14728 68.8555
494 1 7.15395 4.17422 66.8691
495 1 6.39736 4.67563 69.6527
496 1 4.33893 4.77201 66.1879
497 1 3.74553 4.94847 61.5336
498 1 4.40922 4.54946 59.0084
499 1 17.0204 4.41474 59.7373
500 2 2.49375 3.97133 57.0267
501 1 7.89482 2.45374 61.8079
502 1 5.88602 3.34995 63.1606
503 1 5.00604 2.42038 60.6971
504 1 6.96703 3.04429 58.9696
505 2 6.39788 4.54952 60.9034
506 1 12.0133 4.70253 69.5351
507 1 9.4251 4.79144 64.9375
508 1 9.42169 4.57323 68.7063
509 1 11.2035 5.36546 66.6376
510 2 10.265 3.99558 62.5082
511 1 9.1242 4.52316 60.1265
512 1 4.87043 2.58878 57.1066
513 2 8.5134 4.80378 57.6376
514 1 12.3084 4.56837 61.0466
515 2 13.7955 4.80931 59.0333
516 1 7.69724 3.14423 55.9711
517 1 9.28278 6.62561 56.1402
518 1 3.75812 5.74912 55.391
519 2 3.49304 4.73217 52.9847
520 1 5.14122 5.00441 50.8868
521 1 8.03093 0.461881 51.2403
522 1 7.99095 5.10361 51.8907
523 2 7.11833 5.75174 49.4274
524 1 6.16054 4.87957 45.1394
525 1 7.96412 5.61835 43.1241
526 1 8.16279 5.57661 47.0519
527 1 5.36486 5.57797 42.1471
528 1 10.0557 6.39057 53.2229
529 2 10.8857 4.97113 51.0814
530 1 12.4877 4.99868 52.9054
531 1 5.16425 0.41343 50.2838
532 1 11.4865 5.98164 48.9585
533 1 5.05164 0.176384 40.8171
534 1 15.3761 5.30937 52.188
535 2 16.1465 5.3228 49.7276
536 1 13.6207 4.68865 50.2786
537 1 13.9789 6.28996 48.1303
538 2 7.94352 0.642343 46.7383
539 1 10.1637 6.10727 45.1751
540 1 10.9228 5.5339 42.6858
541 1 13.2912 5.16857 45.897
542 1 13.8011 4.68627 43.2276
543 1 8.04872 0.206906 54.9801
544 1 3.18063 1.41659 48.0732
545 2 14.3701 5.53078 54.8559
546 2 12.3007 2.72288 54.4302
547 1 10.1343 0.917965 53.024
548 1 17.9229 6.47955 51.1287
549 1 13.167 0.333174 53.7635
550 1 12.6952 2.41858 51.7698
551 1 10.9808 0.683661 50.4725
552 1 10.6006 1.20708 45.8645
553 1 11.2556 0.658208 43.2622
554 1 8.63066 0.573987 43.9742
555 2 9.48855 0.0890228 41.2801
556 1 1.46788 1.49902 55.4059
557 1 15.292 2.48941 50.993
558 1 14.745 2.8368 53.6844
559 2 13.5618 1.7263 49.2121
560 1 12.704 2.72542 46.8135
561 1 3.61978 3.17014 54.9223
562 1 4.68275 2.51786 52.3122
563 1 3.45218 5.37618 45.8531
564 1 16.534 6.67903 47.4659
565 1 14.9239 1.36523 47.0281
566 1 15.9883 5.18749 45.0947
567 1 17.7969 5.70888 43.0616
568 2 13.245 0.77868 45.1926
569 1 3.63873 0.506836 53.8891
570 1 2.39583 3.79334 50.9155
571 2 1.99547 2.47825 53.0262
572 1 0.670507 0.308258 49.1046
573 1 0.684158 0.296438 52.9199
574 1 2.60092 1.10143 51.0202
575 2 1.76288 0.0489785 46.6797
576 1 0.520659 0.755406 44.1187
577 1 1.85923 2.716 46.0405
578 1 15.2347 3.94391 47.7183
579 1 15.7347 5.39593 41.2382
580 1 13.5932 2.08281 43.1464
581 2 15.2981 0.808145 41.5972
582 1 16.4242 3.25646 43.0958
583 2 14.8571 2.99882 45.1896
584 1 14.4056 3.10077 40.8329
585 1 6.00231 1.53089 47.8766
586 1 3.52586 0.883642 45.1288
587 1 4.69273 3.1311 41.4311
588 1 2.83753 1.38113 42.0215
589 2 5.25085 1.09221 43.1643
590 1 12.9308 1.03331 40.9047
591 1 16.5966 4.41552 54.6877
592 1 5.96705 4.49601 53.8105
593 2 5.83248 1.81503 54.6667
594 2 4.26658 2.88246 49.6559
595 1 2.58279 4.38503 48.3595
596 1 10.6401 4.00767 55.737
597 1 7.64249 2.35926 53.1646
598 2 9.36721 2.70253 51.0932
599 1 6.77011 3.09269 50.2557
600 1 8.75043 1.86866 48.7542
601 1 5.49113 4.40341 48.0453
602 1 9.1235 4.5074 49.3527
603 2 6.79439 3.25523 43.1424
604 1 4.06977 3.40283 43.9154
605 1 6.37858 2.10192 45.2618
606 1 7.32024 4.15951 40.8861
607 1 10.2945 3.61837 53.1273
608 2 8.45661 4.80353 54.3651
609 2 4.38852 3.06323 46.4444
610 2 17.7549 4.00457 40.844
611 1 11.4508 3.02457 49.3063
612 1 8.76981 3.56571 45.223
613 1 9.39261 3.06601 42.5813
614 2 11.8486 3.16061 41.6295
615 1 10.1606 4.39502 40.4328
616 2 10.4432 4.03008 47.1465
617 1 11.3473 3.51385 44.547
618 1 7.52165 1.44178 41.4968
ITEM: TIMESTEP
14000
ITEM: NUMBER OF ATOMS
618
ITEM: BOX BOUNDS xy xz yz pp pp ff
0.0000000000000000e+00 1.9317770367296919e+01 4.0025167278329121e+00
0.0000000000000000e+00 6.6702723500479264e+00 0.0000000000000000e+00
0.0000000000000000e+00 1.0921147561319708e+02 0.0000000000000000e+00
ITEM: ATOMS id type x y z
1 1 4.67226 5.97526 5.96626
2 1 6.53541 6.2029 8.45315
3 1 4.65187 5.99882 12.9638
4 1 5.71902 0.103174 5.81547
5 1 8.2094 6.59944 10.7463
6 1 6.27432 6.41999 15.3275
7 1 4.66715 5.70849 19.9926
8 1 12.3144 5.77294 6.03786
9 1 7.28475 0.585459 8.28676
10 1 9.59767 6.92804 13.1638
11 1 7.7402 6.63766 17.7931
12 1 6.2812 6.14365 22.3385
13 1 4.40914 5.82069 27.2321
14 1 10.6899 1.09531 5.95358
15 1 14.0859 6.23547 8.46406
16 1 9.01826 0.92059 10.8666
17 1 12.3204 6.00117 13.1804
18 1 7.13053 0.352515 15.524
19 1 5.41658 0.123667 19.9674
20 1 7.95137 6.38028 24.7138
21 1 6.13873 6.05163 29.3588
22 1 4.42889 5.80928 33.958
23 1 13.4419 0.267346 5.80441
24 1 12.6802 3.18545 5.80438
25 1 12.3223 1.58281 8.2339
26 1 15.7998 6.64192 10.6886
27 1 11.3165 2.71742 10.7208
28 1 10.5657 1.15006 12.9461
29 1 13.8761 6.17979 15.514
30 1 8.74983 0.663925 17.7814
31 1 12.3005 5.75539 20.0996
32 1 7.16612 0.378306 22.2447
33 1 5.59955 0.13795 27.0865
34 1 7.62213 6.48647 31.6882
35 1 5.98679 6.05057 36.3466
36 1 15.7045 2.12035 5.67356
37 1 15.2238 0.472605 8.35146
38 1 14.5534 3.37784 8.39729
39 1 14.2154 1.97306 10.6577
40 1 13.2813 0.228562 12.9683
41 1 12.8828 3.01138 13.1281
42 1 12.2535 1.48107 15.398
43 1 15.5213 6.61147 17.6364
44 1 11.1772 2.57591 17.7947
45 1 10.5546 1.1388 20.074
46 1 13.9756 6.20619 22.4907
47 1 8.66361 0.713453 24.8211
48 1 12.2373 5.88224 27.1109
49 1 7.14214 0.403533 29.43
50 1 5.26363 0.0975271 34.0654
51 1 7.20898 6.13498 38.725
52 1 3.02378 0.967783 5.82052
53 1 2.64106 4.139 5.95487
54 1 1.84535 2.42882 8.18788
55 1 1.51673 0.731349 10.6707
56 1 16.254 3.79889 10.6927
57 1 15.5611 2.09393 13.069
58 1 15.0358 0.427405 15.2711
59 1 14.6073 3.3997 15.4335
60 1 13.8989 1.65083 17.6622
61 1 13.2919 0.250118 20.0261
62 1 12.7293 2.95515 19.9782
63 1 12.1795 1.39724 22.4544
64 1 15.6229 6.51774 24.6611
65 1 10.9098 2.53368 24.801
66 1 10.4532 0.857188 26.9018
67 1 13.7664 6.26864 29.1935
68 1 8.64256 0.751526 31.7469
69 1 11.9899 5.81127 34.0025
70 1 6.84539 0.37976 36.2827
71 1 5.30033 2.94345 5.94872
72 1 4.57616 1.37172 8.2924
73 1 4.34983 4.27872 8.39558
74 1 3.67801 2.77302 10.5771
75 1 2.88067 1.30293 12.9752
76 1 2.37125 4.10338 13.0481
77 1 1.88153 2.61531 15.3604
78 1 1.07672 0.875857 17.7448
79 1 16.0425 3.70438 17.6574
80 1 15.5398 2.11211 20.0665
81 1 14.8257 0.313901 22.4447
82 1 14.4805 3.27508 22.5207
83 1 13.8183 1.66255 24.7387
84 1 17.1565 6.68842 26.8967
85 1 12.6157 2.93258 26.9585
86 1 12.1615 1.37454 29.4858
87 1 15.364 6.29874 31.6017
88 1 10.7511 2.45493 31.6337
89 1 10.3581 0.979597 33.9538
90 1 13.7067 6.07179 36.4535
91 1 8.58789 0.553907 38.8549
92 1 8.09671 1.7899 5.91435
93 1 7.34428 4.84267 5.76322
94 1 6.82838 3.19552 8.36234
95 1 6.38255 1.86452 10.8835
96 1 5.74066 4.61753 10.6605
97 1 5.14524 3.19508 13.0093
98 1 4.41778 1.43186 15.3808
99 1 4.11608 4.33776 15.2637
100 1 3.45916 2.81839 17.7155
101 1 2.88107 1.14012 20.2545
102 1 17.6897 3.82894 20.1338
103 1 1.78606 2.30802 22.5265
104 1 1.1033 0.638828 24.7991
105 1 16.0375 3.62936 24.8575
106 1 15.3433 1.97776 27.0769
107 1 14.6199 0.305949 29.3791
108 1 14.0664 3.37642 29.478
109 1 13.5719 1.91588 31.7297
110 1 12.889 0.0663954 33.9275
111 1 12.4162 2.99603 34.0944
112 1 11.8163 1.12272 36.2634
113 1 11.1215 -0.469974 38.935
114 1 11.2482 2.15673 38.7221
115 1 10.0498 4.02518 5.8239
116 1 9.67129 2.37305 8.51759
117 1 9.13583 5.18658 8.39758
118 1 8.62588 3.72157 10.6972
119 1 7.85188 2.17492 13.1346
120 1 7.29744 5.00033 13.1215
121 1 6.81376 3.31595 15.5827
122 1 6.0163 1.71178 17.7515
123 1 5.80436 4.49541 17.7119
124 1 5.01887 2.89556 20.0535
125 1 4.53264 1.46365 22.5605
126 1 3.98443 4.30008 22.4792
127 1 3.37334 2.70322 24.7207
128 1 2.86697 1.01346 27.1553
129 1 17.7765 3.83076 27.1197
130 1 1.52904 2.30283 29.3975
131 1 0.997871 0.720371 31.7934
132 1 15.7444 3.55359 31.7828
133 1 15.0432 1.9781 34.0051
134 1 14.5697 0.331155 36.2746
135 1 14.0782 3.13686 36.246
136 1 13.6451 1.51778 38.3932
137 1 11.8167 4.38913 8.50093
138 1 10.7149 5.62836 11.0459
139 1 10.1286 3.99637 13.1669
140 1 9.54308 2.43621 15.4963
141 1 8.86756 5.17197 15.6561
142 1 8.38679 3.5458 17.9999
143 1 7.67017 1.94773 20.0198
144 1 7.22379 4.93962 20.0834
145 1 6.8222 3.21609 22.3158
146 1 6.15074 1.77166 24.747
147 1 5.67212 4.5529 24.8319
148 1 5.15059 3.03914 27.1028
149 1 4.42474 1.26177 29.3953
150 1 3.96625 4.28504 29.5149
151 1 3.26362 2.65678 31.732
152 1 2.76288 0.972643 34.1378
153 1 2.19206 3.77986 34.0958
154 1 1.53232 2.22137 36.3733
155 1 0.912267 0.663008 38.8794
156 1 15.8116 3.39953 38.7809
157 1 15.0006 4.96047 5.94906
158 1 13.525 4.59976 10.8635
159 1 11.6895 4.2441 15.4429
160 1 10.6106 5.56052 17.9048
161 1 10.1172 3.97727 20.1724
162 1 9.3238 2.32008 22.2355
163 1 8.99411 5.13246 22.3606
164 1 8.50169 3.65743 24.7415
165 1 7.6555 1.94924 27.0095
166 1 7.41578 4.92098 27.144
167 1 6.59356 3.19654 29.3683
168 1 5.86434 1.66782 31.6506
169 1 5.51968 4.66378 31.8696
170 1 4.92739 2.97684 34.1429
171 1 4.24309 1.32615 36.5715
172 1 3.67493 4.11261 36.4959
173 1 3.23189 2.42933 39.0239
174 1 16.7712 5.38131 8.22831
175 1 15.1399 5.03111 13.0763
176 1 13.2711 4.62696 17.7732
177 1 11.7229 4.39326 22.5267
178 1 10.6314 5.38737 24.6993
179 1 9.93557 3.72469 27.0009
180 1 9.35704 2.22246 29.3523
181 1 8.92396 5.03263 29.2828
182 1 8.20066 3.58922 31.6278
183 1 7.51677 1.96787 33.8959
184 1 7.19282 4.90743 33.9556
185 1 6.34839 3.23776 36.4926
186 1 6.1094 1.91774 38.9958
187 1 4.98801 4.65868 39.1778
188 1 18.3196 5.71484 10.5025
189 1 16.8439 5.4391 15.3637
190 1 14.9683 4.86485 20.1757
191 1 13.3717 4.55858 24.7995
192 1 11.4596 4.1399 29.3127
193 1 10.2891 5.49958 31.7238
194 1 9.73153 3.85437 33.8959
195 1 9.25041 2.20626 36.2284
196 1 8.7318 5.19686 36.2604
197 1 8.4924 3.20738 38.3632
198 1 18.1837 5.52317 17.8154
199 1 16.7103 5.22636 22.3149
200 1 15.012 4.70543 27.1181
201 1 12.8726 4.63473 31.5401
202 1 11.4019 4.22781 36.2615
203 1 10.1897 5.92241 38.3575
204 1 18.356 5.45928 24.7546
205 1 16.508 5.08266 29.5337
206 1 14.6865 4.83504 34.0671
207 1 12.8477 4.55792 38.9936
208 1 17.9468 5.36897 31.831
209 1 16.313 5.01344 36.3643
210 1 17.845 5.37728 38.6844
211 2 14.6169 1.69304 102.167
212 1 15.1847 1.50379 99.5173
213 1 3.77096 0.673925 103.135
214 1 2.41169 1.69729 98.8717
215 1 1.87671 2.11821 101.573
216 2 0.662999 1.01348 96.8393
217 1 14.7592 1.61865 94.4403
218 1 6.0807 2.13154 102.752
219 1 6.99959 1.53644 100.078
220 1 1.75168 0.223112 94.7107
221 1 4.70927 2.97004 98.7981
222 2 4.35557 1.67806 100.868
223 1 4.07947 1.62485 93.74
224 1 1.88653 3.02297 95.1645
225 1 0.44233 0.926112 90.7274
226 1 3.11267 2.27015 90.8646
227 2 1.52297 2.02474 92.869
228 1 0.455456 1.18663 88.0485
229 1 8.6104 1.12599 95.5586
230 1 7.16288 1.69187 89.0584
231 1 8.81718 6.98794 90.0343
232 1 11.7694 5.36145 103.417
233 1 3.75863 3.72876 102.404
234 1 8.26432 3.51926 102.035
235 1 6.12401 5.09027 103.198
236 2 8.2501 0.825301 102.357
237 2 5.92973 3.92225 100.859
238 1 7.40881 4.15091 98.5996
239 2 6.56516 1.89368 97.3392
240 1 4.77485 3.09163 95.9426
241 1 13.4344 3.16169 103.272
242 1 10.3339 1.93364 101.16
243 1 14.3211 6.41441 98.9478
244 2 11.6918 1.90834 98.9105
245 1 10.3563 4.26024 99.7163
246 1 9.26002 2.21344 97.8601
247 1 11.3493 0.987018 96.6229
248 1 7.44668 3.64673 95.9011
249 1 11.5121 3.64734 96.8853
250 2 9.2958 4.79228 97.1578
251 1 8.14103 3.77841 92.861
252 2 8.85696 2.38975 90.6918
253 1 10.2485 4.41054 90.9387
254 1 6.24526 2.29169 91.6306
255 1 8.52355 0.916169 92.8802
256 1 10.2233 4.02595 94.6187
257 1 7.41751 4.43954 90.092
258 1 9.43463 3.20171 88.5902
259 1 12.8157 2.85147 100.741
260 2 10.963 3.69527 102.343
261 1 12.6225 5.66957 100.759
262 2 13.072 4.24044 98.6079
263 1 15.0302 4.20881 100.419
264 1 11.5763 6.28134 97.8699
265 1 13.7543 5.21694 96.2004
266 2 6.53721 1.92871 94.1483
267 2 5.06174 2.95103 89.2697
268 1 10.9846 5.77811 88.679
269 1 2.5043 4.45981 99.7924
270 1 13.7921 2.15717 97.088
271 1 10.802 2.12466 92.6157
272 1 11.4873 1.87913 90.0072
273 2 14.0381 2.14683 89.4125
274 1 12.0779 3.35087 87.9423
275 2 3.05519 4.36349 97.3771
276 1 15.7023 3.85701 97.9606
277 1 16.4127 5.46507 95.6648
278 2 12.461 2.79577 94.8147
279 1 13.4009 2.32711 92.1057
280 2 14.3846 6.62698 94.1952
281 1 12.2996 4.7042 92.9267
282 1 12.993 4.30896 90.381
283 1 15.2657 4.29373 93.5339
284 1 15.7979 3.55647 90.826
285 1 13.4226 6.82964 89.1078
286 1 14.4808 6.05735 102.695
287 1 9.66888 6.81729 95.9054
288 2 16.7211 4.7359 102.336
289 1 12.5867 0.196588 100.837
290 1 4.87743 5.64514 98.8179
291 1 4.27166 6.29741 101.403
292 1 17.2403 6.49906 98.228
293 1 16.8712 6.7262 93.3858
294 1 17.3755 6.2415 90.8049
295 1 14.7127 6.14005 91.4648
296 2 15.7417 5.6088 88.8272
297 1 5.66183 4.29815 93.539
298 1 3.59538 5.38074 94.9585
299 1 2.7479 4.22765 92.7515
300 1 4.65725 4.80507 90.7878
301 2 4.0784 6.3259 92.7689
302 1 9.67776 5.9198 101.769
303 1 7.02417 6.29854 97.0198
304 1 7.04591 6.1081 100.63
305 1 5.08938 0.178834 98.7916
306 2 7.87206 5.68619 94.5238
307 1 6.69536 6.49061 92.13
308 1 2.64623 4.17856 88.9618
309 2 6.41505 6.62188 89.4623
310 1 9.82911 6.30026 92.8927
311 2 11.5086 6.66822 90.8853
312 1 5.39057 4.91481 87.9115
313 1 3.49816 1.60487 87.8656
314 1 13.0783 0.999301 87.2191
315 2 16.408 6.73843 84.8753
316 1 18.1944 6.90552 82.7783
317 1 5.83058 2.40073 82.9928
318 1 5.96164 7.08113 83.6644
319 2 0.864148 1.03512 81.2975
320 1 3.83758 6.54386 77.0619
321 1 1.67703 0.587306 75.2149
322 1 1.98147 0.686281 78.8602
323 1 14.3616 0.461339 74.2124
324 1 4.0412 1.66056 84.9652
325 2 4.65269 0.0673686 82.9872
326 1 10.6787 6.85106 84.829
327 1 3.00103 2.3338 81.9655
328 1 5.20557 1.07958 80.6341
329 1 2.68103 1.64388 72.7975
330 1 9.3848 0.437816 84.221
331 2 9.99444 0.343118 81.5305
332 1 11.4287 6.42297 82.2273
333 1 7.82896 1.27266 79.9584
334 2 5.92934 2.55853 78.3569
335 1 3.95311 1.01508 76.8696
336 1 4.76049 0.412126 74.2674
337 1 11.0666 7.02502 77.6632
338 1 11.5933 6.59076 75.0225
339 1 6.08005 2.36985 86.673
340 1 16.3404 3.2579 79.9839
341 2 8.29307 0.772579 86.8966
342 2 10.2013 4.60511 86.4093
343 1 8.18936 2.86521 84.9845
344 1 11.6582 1.85232 82.9359
345 1 10.9814 2.19556 85.6632
346 1 10.4304 4.1521 83.6195
347 1 8.68937 2.35722 82.3726
348 1 8.5142 2.99058 77.7764
349 1 9.13927 2.52058 74.9963
350 1 6.43523 2.30929 75.8683
351 2 7.40789 1.83412 73.1779
352 1 14.5717 3.62614 87.1712
353 1 13.325 4.31297 82.9877
354 1 12.5501 4.63897 85.4871
355 2 11.3371 3.59595 81.0442
356 1 10.4407 4.48529 78.7792
357 1 16.9055 5.09017 86.7068
358 1 17.911 4.49372 84.1014
359 1 12.6219 0.37272 77.6913
360 1 10.3645 1.55874 79.1871
361 1 12.6151 2.9861 78.7919
362 1 9.66433 0.435404 76.8873
363 1 11.7376 0.953164 74.92
364 2 11.059 2.47058 76.9581
365 1 1.33489 2.33231 85.729
366 1 15.5527 5.81706 82.8395
367 2 15.1886 4.42502 84.9638
368 1 13.6308 2.17336 80.9963
369 1 13.8881 2.06234 84.8466
370 1 15.785 2.95161 82.9126
371 2 14.7973 1.84755 78.5478
372 1 13.6654 2.54477 76.3324
373 1 15.0309 4.63002 77.9013
374 1 12.9827 5.63996 79.4541
375 1 9.89749 0.535366 72.9749
376 1 11.4725 3.80544 74.9488
377 2 13.4538 2.60386 73.5216
378 1 14.164 5.00278 74.9374
379 2 12.4201 4.86129 77.0229
380 1 11.3488 3.39441 72.1554
381 1 4.01597 3.42431 79.7514
382 1 1.4649 2.59908 77.1229
383 1 2.93746 4.36784 73.1449
384 1 15.8323 3.04537 74.2363
385 2 3.0929 2.68422 75.09
386 1 12.6507 0.757788 71.8275
387 1 14.5376 6.33407 86.6685
388 1 3.915 6.32025 85.6979
389 2 3.66796 3.68716 86.49
390 2 17.4805 4.69921 81.534
391 1 15.856 6.17503 80.1848
392 1 8.37192 5.57763 87.6709
393 1 5.60617 4.46182 85.0216
394 2 7.20882 4.52721 83.085
395 1 4.76243 4.93161 82.1258
396 1 6.87909 3.63076 80.579
397 1 18.7257 6.30558 79.948
398 1 7.0686 6.37034 81.1252
399 2 4.51852 5.10289 75.0304
400 1 17.2596 4.91958 75.8153
401 1 4.25797 3.64997 77.0833
402 1 5.11042 6.04752 72.711
403 1 8.34999 5.50257 85.1227
404 2 6.39461 6.67407 86.308
405 2 17.5707 4.66698 78.3939
406 2 16.0091 5.55545 73.1644
407 1 9.33127 4.90122 81.1475
408 1 6.46969 5.13754 77.0563
409 1 7.12569 4.59704 74.4838
410 2 9.61935 4.62145 73.5475
411 1 7.60999 5.77787 71.9463
412 2 8.20465 5.7744 78.8339
413 1 9.28125 5.19231 76.262
414 1 5.13727 3.01064 73.4031
415 2 1.7671 0.458051 70.5803
416 1 2.09196 -0.0779098 67.8467
417 1 10.284 6.04068 71.3386
418 1 4.838 -0.0203246 67.089
419 1 4.18662 0.393405 69.6365
420 2 6.97884 6.11699 65.1346
421 1 5.77244 6.4501 62.9383
422 1 8.46906 0.836744 70.8151
423 1 9.52905 0.215557 68.2454
424 1 8.18782 5.19261 62.8576
425 1 7.02744 1.44895 66.9426
426 2 6.70822 0.0161289 68.976
427 1 10.4042 6.47826 61.8471
428 1 4.16274 1.22552 63.2949
429 1 6.69723 5.99334 58.9394
430 1 5.40668 0.348756 58.9792
431 2 3.70532 0.319794 60.9679
432 1 6.39398 5.31848 56.2316
433 1 15.0759 6.13206 63.8058
434 1 13.447 6.63149 57.2265
435 1 11.2035 5.11771 58.2641
436 1 13.9491 4.34644 72.1045
437 1 6.10944 2.01615 70.783
438 1 10.7652 2.09664 69.8104
439 1 8.67373 3.53555 71.2954
440 2 14.6244 6.23329 70.5992
441 2 8.05001 2.53605 69.0063
442 1 9.76627 2.67244 66.9451
443 2 8.98702 0.297886 65.6515
444 1 6.99481 1.17036 64.1896
445 1 15.3117 1.81907 71.6774
446 1 12.4996 0.294634 69.0975
447 1 16.484 4.84797 67.2793
448 2 14.1471 0.209087 66.9864
449 1 12.8105 2.6261 67.7809
450 1 11.4922 0.74556 66.2381
451 1 17.8372 6.11226 64.6956
452 1 9.73368 1.96592 64.0875
453 1 13.8791 2.1318 65.1767
454 2 11.6914 3.33067 65.3491
455 1 10.559 1.81479 61.1853
456 2 11.1909 0.35394 59.0623
457 1 12.4452 2.55734 59.259
458 1 8.56406 0.428859 59.7955
459 1 14.8925 5.6045 61.126
460 1 12.3661 2.32072 63.0966
461 1 9.67845 2.6599 58.3759
462 1 11.597 1.45434 56.8683
463 1 15.122 1.14727 69.0011
464 2 13.3127 2.55822 70.2715
465 1 14.9819 3.95672 69.2825
466 2 15.4777 2.62772 67.0147
467 1 2.06669 2.57199 68.8847
468 1 13.9811 4.79105 66.0916
469 1 16.1084 3.59801 64.6849
470 2 9.02203 0.262476 62.4652
471 2 7.15996 0.984934 57.3256
472 1 13.3239 3.78101 56.8542
473 1 4.79904 2.75384 68.277
474 1 0.818224 0.775437 65.2235
475 1 13.2141 0.368541 60.9193
476 1 13.6864 0.00275341 58.2508
477 2 0.802531 -0.0368209 57.488
478 1 14.2897 1.43537 56.0357
479 2 5.11767 2.14487 65.5325
480 1 2.77618 2.31857 66.4202
481 1 3.33779 3.64819 64.0481
482 2 14.8696 1.1298 62.9189
483 1 0.525789 0.561979 60.2914
484 2 16.8611 5.06348 62.5548
485 1 14.537 2.88343 60.9992
486 1 15.4482 2.48552 58.3339
487 1 2.22573 2.57224 61.8072
488 1 2.99107 2.0388 59.0906
489 1 15.7513 5.09219 57.2577
490 1 17.0464 4.69031 70.9145
491 1 12.1401 5.18108 63.9815
492 2 4.0746 3.43049 71.0666
493 1 3.55849 5.11786 68.9365
494 1 7.19258 4.0963 66.9016
495 1 6.36813 4.69028 69.6732
496 1 4.45689 4.8982 66.4128
497 1 3.85063 4.95614 61.6897
498 1 4.42069 4.42928 59.1555
499 1 17.0237 4.4272 59.7499
500 2 2.71308 3.82475 57.0608
501 1 8.02757 2.53761 61.9188
502 1 5.80014 3.58016 63.3274
503 1 5.24429 2.32808 60.8985
504 1 7.06473 2.93602 58.9708
505 2 6.46514 4.60687 61.0747
506 1 12.3639 4.68982 69.6876
507 1 9.47544 4.88144 65.0439
508 1 9.41867 4.59123 68.8923
509 1 11.3976 5.37328 66.931
510 2 10.2816 4.01165 62.5661
511 1 9.10004 4.59399 60.3174
512 1 5.04999 2.5876 57.0449
513 2 8.48309 4.7844 57.636
514 1 12.2593 4.60658 61.2116
515 2 13.8291 4.78645 59.1477
516 1 7.89064 2.75008 56.0042
517 1 9.14269 6.5459 56.0664
518 1 3.7018 5.62569 55.3033
519 2 3.32614 4.69807 52.9465
520 1 4.89797 4.78997 50.8646
521 1 7.80649 0.258933 50.997
522 1 8.06478 4.6419 51.654
523 2 6.92809 5.56011 49.3533
524 1 6.07593 4.43203 45.1969
525 1 8.0135 5.12019 43.0644
526 1 8.25361 5.42448 46.9594
527 1 5.39978 5.22617 42.0727
528 1 10.0339 6.2635 52.9049
529 2 10.754 4.73406 50.9
530 1 12.6853 4.94866 52.9251
531 1 5.12734 0.212109 50.0165
532 1 11.3425 5.5862 48.406
533 1 4.89058 -0.049297 40.7265
534 1 15.3779 4.98092 52.3351
535 2 16.047 5.04886 49.5753
536 1 13.4271 4.55878 50.2565
537 1 13.9955 6.09193 48.0182
538 2 8.20068 0.754914 46.4817
539 1 10.2766 5.58497 45.0798
540 1 10.9135 5.2107 42.5387
541 1 13.1032 4.9282 45.7112
542 1 13.8131 4.49608 43.1758
543 1 7.89092 0.16254 54.8832
544 1 3.19085 1.15158 48.1184
545 2 14.4608 5.58857 54.8931
546 2 12.402 2.71806 54.5083
547 1 10.2816 0.742852 53.0335
548 1 17.6964 6.29793 51.1923
549 1 13.0753 0.127121 53.7895
550 1 12.7458 2.16519 51.7363
551 1 10.9329 0.458984 50.5473
552 1 10.6432 0.793147 45.7541
553 1 11.3047 0.290897 43.175
554 1 8.64043 0.253102 43.8262
555 2 9.38658 -0.366694 41.1505
556 1 1.50298 1.45129 55.3662
557 1 15.3732 2.21437 50.8184
558 1 14.7112 2.64469 53.5693
559 2 13.5061 1.46526 49.1806
560 1 12.7043 2.35871 46.7969
561 1 3.7057 2.95246 54.7246
562 1 4.7519 2.33444 52.2092
563 1 3.51381 5.13847 45.8824
564 1 16.6749 6.32787 47.3441
565 1 14.9444 1.05435 46.9423
566 1 15.9917 4.92021 45.102
567 1 17.8165 5.5345 42.9221
568 2 13.2155 0.421762 44.9333
569 1 3.47284 0.259627 53.7417
570 1 2.28949 3.75283 50.9294
571 2 1.98186 2.30317 52.9331
572 1 0.599922 0.0118655 49.0695
573 1 0.519516 0.233693 52.8839
574 1 2.69888 0.758603 50.8862
575 2 1.61115 -0.22893 46.5892
576 1 0.710199 0.487575 44.0753
577 1 1.89401 2.41765 45.9477
578 1 15.2531 3.73508 47.4893
579 1 15.6798 4.98116 41.1329
580 1 13.5901 1.74828 43.0446
581 2 15.4018 0.519886 41.482
582 1 16.4016 3.08627 43.1417
583 2 14.6784 2.76547 45.1487
584 1 14.2093 2.7899 40.8229
585 1 5.95753 1.26809 47.6485
586 1 3.51343 0.48304 44.9503
587 1 4.65615 2.5991 41.2596
588 1 2.62452 0.967129 41.9094
589 2 5.2543 0.578547 43.1098
590 1 12.8796 0.649952 40.8199
591 1 16.7223 4.20941 54.7995
592 1 5.97609 4.33311 53.7534
593 2 5.88934 1.82665 54.6136
594 2 4.38862 2.54493 49.6501
595 1 2.7321 3.94252 48.1573
596 1 10.5718 4.11807 55.8068
597 1 7.85212 2.39405 53.192
598 2 9.27307 2.37891 51.1188
599 1 6.77388 2.82166 50.1432
600 1 8.73214 1.60097 48.7282
601 1 5.59939 4.15679 48.0094
602 1 9.10477 4.2774 49.0779
603 2 6.63775 3.08084 43.1382
604 1 4.01771 3.05883 43.7408
605 1 6.2808 1.69294 45.0991
606 1 7.33829 3.94606 40.7434
607 1 10.4416 3.49273 53.0841
608 2 8.59421 4.76577 54.4886
609 2 4.21503 2.78852 46.4099
610 2 17.62 3.70208 40.8751
611 1 11.3935 2.7931 49.2538
612 1 8.65621 3.07637 44.9263
613 1 9.30912 2.56029 42.3826
614 2 11.7946 2.80546 41.4749
615 1 10.0634 4.13886 40.2917
616 2 10.1511 3.45439 46.905
617 1 11.4463 3.22591 44.3033
618 1 7.27433 1.09944 41.5375
ITEM: TIMESTEP
15000
ITEM: NUMBER OF ATOMS
618
ITEM: BOX BOUNDS xy xz yz pp pp ff
0.0000000000000000e+00 1.9317770367296919e+01 4.0025167278329121e+00
0.0000000000000000e+00 6.6702723500479264e+00 0.0000000000000000e+00
0.0000000000000000e+00 1.0921147561319708e+02 0.0000000000000000e+00
ITEM: ATOMS id type x y z
1 1 3.78953 5.62849 5.59297
2 1 5.78111 6.07416 8.0963
3 1 4.22341 5.56886 12.8032
4 1 4.90743 0.192295 5.61845
5 1 7.43756 6.30067 10.6005
6 1 6.06624 5.95056 15.2169
7 1 4.23731 5.71365 19.7676
8 1 11.5472 5.7247 5.51468
9 1 6.63164 0.367935 8.00294
10 1 9.25138 6.57841 12.9918
11 1 7.71203 6.3012 17.5219
12 1 6.01995 6.0989 22.2754
13 1 4.17434 5.80435 26.7458
14 1 9.91268 0.770126 5.674
15 1 13.4905 6.09593 8.13956
16 1 8.46112 0.605353 10.4085
17 1 11.6619 5.74491 12.8747
18 1 7.04518 0.4139 15.3304
19 1 5.09088 0.162923 19.8473
20 1 7.47828 6.35855 24.5664
21 1 6.03226 6.08177 29.2222
22 1 4.38423 5.76059 33.9066
23 1 12.7106 -0.0356261 5.74868
24 1 12.0532 2.75274 5.82294
25 1 11.6162 1.37856 8.07068
26 1 14.9082 6.35691 10.5289
27 1 10.6304 2.58984 10.4787
28 1 10.1148 1.01898 12.8213
29 1 13.5361 6.12964 15.1329
30 1 8.52115 0.687485 17.5544
31 1 11.766 5.62445 19.9035
32 1 6.75859 0.4106 22.0227
33 1 5.26466 0.175023 26.818
34 1 7.74236 6.53624 31.3436
35 1 5.96737 6.06542 36.1499
36 1 14.9119 1.73061 5.70038
37 1 14.2048 0.208143 8.38671
38 1 13.7139 2.95407 8.20563
39 1 13.1832 1.5273 10.6356
40 1 12.5853 -0.0344636 13.0138
41 1 12.2846 2.82332 12.7551
42 1 11.8012 1.19648 15.1894
43 1 15.2376 6.33631 17.4896
44 1 10.831 2.5921 17.6523
45 1 10.0839 0.941539 19.8867
46 1 13.5423 6.07717 22.2624
47 1 8.48389 0.715918 24.5818
48 1 11.8353 5.84804 26.7268
49 1 6.86854 0.422644 29.1974
50 1 5.26881 0.244712 33.9156
51 1 7.53595 6.16892 38.6353
52 1 2.25341 1.05133 5.85732
53 1 17.1367 3.70926 5.70271
54 1 16.401 2.12766 8.17539
55 1 0.765533 0.591584 10.6872
56 1 15.4468 3.42359 10.6153
57 1 15.1092 1.93946 12.9945
58 1 14.7151 0.193367 15.1172
59 1 13.9522 3.10795 15.1318
60 1 13.5052 1.57637 17.3942
61 1 12.7095 -0.133832 19.9138
62 1 12.3418 2.97592 19.8229
63 1 11.7676 1.34307 22.0324
64 1 15.1932 6.20137 24.5901
65 1 10.7379 2.67185 24.4541
66 1 10.1669 1.16128 26.686
67 1 13.4798 6.30601 29.1399
68 1 8.57734 0.895248 31.6318
69 1 11.8441 5.73646 34.0013
70 1 6.95942 0.539717 36.4345
71 1 4.51283 3.00337 5.65733
72 1 4.08731 1.36268 8.19086
73 1 3.65368 4.16855 8.14795
74 1 2.8622 2.42963 10.524
75 1 2.61108 0.925957 12.8063
76 1 17.175 3.85256 12.7264
77 1 1.36653 2.33067 15.1365
78 1 0.959401 0.549134 17.5069
79 1 15.581 3.38856 17.6546
80 1 14.9746 1.93353 19.754
81 1 14.5594 0.251524 22.3446
82 1 14.1586 3.3042 22.1896
83 1 13.4114 1.54382 24.4972
84 1 12.8172 0.0468197 26.8699
85 1 12.4462 3.00137 26.8641
86 1 11.8143 1.26025 29.0845
87 1 15.2665 6.47903 31.5736
88 1 10.888 2.59954 31.456
89 1 10.251 1.05069 33.9271
90 1 13.5357 6.10794 36.2095
91 1 8.76 0.844044 38.849
92 1 7.32701 1.96701 5.72786
93 1 6.58422 4.72782 5.62172
94 1 6.25175 3.22447 8.16029
95 1 5.78179 1.60216 10.5248
96 1 5.27227 4.37062 10.4821
97 1 4.76929 2.80146 12.8736
98 1 4.03598 1.14549 15.2146
99 1 3.63166 4.08214 15.0705
100 1 2.98317 2.5447 17.5789
101 1 2.37929 1.10563 19.935
102 1 17.3749 3.81933 19.9398
103 1 16.6686 2.3284 22.2559
104 1 0.812114 0.814401 24.5407
105 1 15.6321 3.55253 24.5864
106 1 15.2041 1.9736 26.8015
107 1 14.5795 0.473317 29.2366
108 1 14.1133 3.19006 29.1248
109 1 13.4559 1.73776 31.5128
110 1 12.9545 0.0300265 33.7889
111 1 12.4002 2.94678 33.9402
112 1 11.9093 1.11032 36.1606
113 1 15.0898 6.25884 38.7667
114 1 11.3667 2.1911 38.9998
115 1 9.54023 3.81628 5.61119
116 1 8.88821 2.30209 8.04481
117 1 8.47677 5.04957 8.05289
118 1 7.96932 3.44404 10.4985
119 1 7.39111 1.83038 12.8813
120 1 6.89599 4.71761 12.8228
121 1 6.33255 3.09933 15.0684
122 1 5.75981 1.61645 17.482
123 1 5.31682 4.295 17.4051
124 1 4.77621 2.92223 19.8316
125 1 4.17546 1.13652 22.2704
126 1 3.7308 4.23873 22.2749
127 1 3.06954 2.46085 24.3779
128 1 2.51884 0.993051 26.8711
129 1 17.2057 3.86163 26.7549
130 1 1.59214 2.33839 29.1223
131 1 0.987315 0.812153 31.4995
132 1 15.8916 3.5985 31.3737
133 1 15.1181 1.93776 33.8765
134 1 14.6895 0.362079 36.1018
135 1 14.0005 3.32935 36.2261
136 1 13.8559 1.57904 38.3829
137 1 11.2136 4.27316 8.0943
138 1 10.1744 5.3374 10.4805
139 1 9.55233 3.66693 12.962
140 1 9.2312 2.29967 15.2431
141 1 8.7487 5.15647 15.3658
142 1 7.90954 3.45776 17.6479
143 1 7.38179 1.85903 19.8236
144 1 6.92094 4.88982 19.8608
145 1 6.31531 3.34953 22.1401
146 1 5.68576 1.66171 24.2993
147 1 5.31007 4.56051 24.4556
148 1 4.79297 2.98522 26.8335
149 1 4.21633 1.39494 29.0758
150 1 3.7642 4.36967 29.2083
151 1 3.16 2.56964 31.4764
152 1 2.50547 1.19878 33.9195
153 1 17.4249 3.89565 33.7431
154 1 1.61193 2.41335 36.2377
155 1 1.13536 0.63941 38.8293
156 1 15.935 3.48083 38.6452
157 1 14.4327 4.60322 5.85646
158 1 12.875 4.44003 10.4938
159 1 11.3378 4.11423 15.1146
160 1 10.3344 5.48143 17.6944
161 1 9.5162 3.79116 19.8804
162 1 8.97759 2.244 22.1907
163 1 8.67936 5.08398 22.1338
164 1 7.81182 3.39832 24.3092
165 1 7.35019 2.14288 26.701
166 1 6.995 4.98908 26.8506
167 1 6.58188 3.14532 29.2257
168 1 5.89407 1.67043 31.5737
169 1 5.36469 4.46745 31.5498
170 1 4.92513 2.97208 33.9139
171 1 4.32874 1.21317 36.2047
172 1 3.88033 4.05924 36.453
173 1 3.3301 2.50708 38.6778
174 1 16.0522 5.10881 8.25698
175 1 14.4572 4.89897 12.8529
176 1 12.9699 4.32717 17.5216
177 1 11.4224 4.06587 22.1345
178 1 10.3116 5.47588 24.4459
179 1 9.54777 3.98654 26.7917
180 1 9.20931 2.48888 29.1263
181 1 8.71687 5.15247 29.2241
182 1 8.15357 3.68546 31.6516
183 1 7.56046 2.02203 33.8385
184 1 6.97938 4.92727 33.7557
185 1 6.45036 3.14456 36.2976
186 1 6.16046 1.78976 38.8433
187 1 5.25569 4.6055 38.7738
188 1 17.7711 5.31108 10.5216
189 1 16.2406 4.94104 15.1811
190 1 14.498 4.84339 19.8685
191 1 12.8709 4.4372 24.5001
192 1 11.5027 4.36517 29.1985
193 1 10.3841 5.61509 31.5776
194 1 9.75838 3.8211 33.7972
195 1 9.10026 2.33081 36.1168
196 1 8.60798 5.30939 36.032
197 1 8.74134 3.59938 38.3389
198 1 17.992 5.35231 17.3476
199 1 16.3003 5.1884 22.1986
200 1 14.6369 4.99347 26.8846
201 1 13.1372 4.56985 31.5701
202 1 11.2132 4.00446 36.3307
203 1 10.4623 5.74798 38.406
204 1 17.8042 5.51184 24.6018
205 1 16.5221 5.15725 29.1103
206 1 14.7551 4.77599 33.9197
207 1 12.9541 4.69484 38.863
208 1 18.1056 5.43763 31.6057
209 1 16.496 5.04224 36.2705
210 1 18.0629 5.47138 38.567
211 2 14.7065 1.88894 102.129
212 1 15.242 1.42958 99.5741
213 1 3.89737 0.847151 103.236
214 1 2.61229 1.42551 98.9162
215 1 1.92664 2.22173 101.459
216 2 0.712994 0.792874 96.9892
217 1 14.9713 1.40935 94.7515
218 1 6.43684 2.08647 102.871
219 1 7.05127 1.63167 100.25
220 1 1.83801 -0.0378671 94.8756
221 1 4.92199 2.89077 98.9547
222 2 4.49533 1.72623 100.886
223 1 4.1128 1.43337 94.0097
224 1 1.99655 2.78157 95.3525
225 1 15.8156 0.991619 90.9417
226 1 3.03524 1.86148 90.9183
227 2 1.45126 1.84252 93.0633
228 1 16.0519 1.15236 88.1382
229 1 8.61566 0.877617 95.7103
230 1 7.2548 1.47672 89.2239
231 1 4.95196 0.137982 90.1838
232 1 12.0599 5.74895 103.292
233 1 4.0919 3.70045 102.457
234 1 8.78436 3.47846 102.122
235 1 6.52354 5.03086 103.128
236 2 8.79171 1.10237 102.297
237 2 6.11933 3.91129 100.943
238 1 7.57714 3.99867 98.8656
239 2 6.8296 1.82748 97.7031
240 1 4.97197 2.9399 96.2655
241 1 13.7194 3.41416 103.452
242 1 10.879 2.03509 101.579
243 1 14.4612 6.49593 99.0171
244 2 11.7246 1.8834 99.1675
245 1 10.6206 4.11769 99.7603
246 1 9.20898 2.19843 98.0869
247 1 11.3267 0.943392 96.7118
248 1 7.73043 3.42652 95.9734
249 1 11.5271 3.53529 97.1487
250 2 9.39446 4.71297 97.3673
251 1 8.33505 3.63437 92.9896
252 2 8.8618 2.14783 90.9966
253 1 10.1518 4.3397 91.3085
254 1 6.20472 2.00977 91.773
255 1 8.54123 0.829003 93.1547
256 1 10.2504 3.96937 94.7948
257 1 7.27607 4.07856 90.196
258 1 9.56429 2.8591 88.6569
259 1 13.0865 2.95479 100.851
260 2 11.3524 4.03594 102.306
261 1 12.6269 5.85478 100.786
262 2 13.3525 4.21863 98.7093
263 1 15.2716 4.40282 100.56
264 1 11.7617 6.19689 98.0445
265 1 13.7956 5.10824 96.3394
266 2 6.6303 1.87552 94.434
267 2 5.01765 2.8148 89.4141
268 1 10.8877 5.3482 88.9329
269 1 2.76061 4.42443 99.7939
270 1 13.894 2.23769 97.0821
271 1 10.8582 2.1343 92.8428
272 1 11.5401 1.54834 90.2806
273 2 14.1763 2.2246 89.5143
274 1 12.1574 3.36769 88.0202
275 2 3.26153 4.09171 97.4016
276 1 15.9269 3.75554 98.0788
277 1 16.4381 5.2918 95.998
278 2 12.701 2.58282 94.9692
279 1 13.7546 2.22411 92.2298
280 2 14.5759 6.62409 94.3691
281 1 12.4623 4.61838 93.2053
282 1 13.0863 4.33583 90.5119
283 1 15.1126 4.00919 93.75
284 1 16.0089 3.53597 91.1278
285 1 13.4608 6.68982 89.3846
286 1 14.7631 6.21333 102.629
287 1 5.84027 0.0463526 95.8739
288 2 17.0399 4.9068 102.61
289 1 12.8453 0.194498 100.796
290 1 5.16166 5.5784 98.9312
291 1 4.58416 6.34149 101.486
292 1 17.3776 6.399 98.222
293 1 16.9934 6.53716 93.6752
294 1 17.5324 6.0887 90.9835
295 1 14.8588 6.08749 91.8913
296 2 15.5895 5.40226 89.1466
297 1 5.70021 4.07082 93.8657
298 1 3.73279 5.15043 95.1542
299 1 2.78108 3.95539 92.7833
300 1 4.71347 4.7031 90.8321
301 2 4.172 6.19687 92.7873
302 1 9.91831 6.00883 101.839
303 1 7.05861 6.07112 97.0959
304 1 7.38737 6.12821 100.845
305 1 5.17527 0.144056 98.7393
306 2 7.94839 5.52416 94.5729
307 1 6.84763 6.16843 92.231
308 1 2.44443 3.77426 89.0401
309 2 6.47355 6.42374 89.6072
310 1 10.0046 6.32148 93.2248
311 2 11.4641 6.53664 91.1745
312 1 5.18069 5.0638 88.1427
313 1 3.50885 1.38624 87.9885
314 1 13.1911 1.00111 87.5501
315 2 12.6391 -0.0205485 85.1585
316 1 14.2896 0.25138 82.9309
317 1 6.14387 2.49046 83.1387
318 1 2.13991 -0.0230824 83.711
319 2 0.942938 0.769722 81.3171
320 1 3.94812 6.4101 77.1928
321 1 1.8506 0.35823 75.0844
322 1 2.01904 0.374928 78.8833
323 1 14.4282 0.394385 74.1395
324 1 4.18377 1.62062 85.1902
325 2 4.85308 0.32986 83.0432
326 1 6.6694 0.385329 85.1123
327 1 3.16724 2.26664 82.1559
328 1 5.21935 0.981188 80.751
329 1 2.76321 1.56738 72.7867
330 1 9.4223 0.324683 84.1679
331 2 13.7131 6.54745 81.4555
332 1 11.3777 6.52456 82.4073
333 1 7.78755 0.984037 79.9881
334 2 5.79847 2.38719 78.5182
335 1 4.05827 0.85172 76.9148
336 1 4.8735 0.325906 74.2856
337 1 7.05069 0.242658 77.573
338 1 11.6103 6.53877 74.9371
339 1 6.31788 2.4184 87.0174
340 1 16.506 3.06945 80.0426
341 2 8.54513 0.774709 86.9764
342 2 10.2165 4.65373 86.5989
343 1 8.23444 2.70154 84.9645
344 1 11.7366 1.83229 83.1742
345 1 11.0255 2.14691 85.8442
346 1 10.5367 4.23903 83.8509
347 1 8.99307 2.36204 82.246
348 1 8.48929 2.83583 77.9298
349 1 9.1517 2.37699 75.2083
350 1 6.39754 2.22441 75.6749
351 2 7.60398 1.95906 73.1125
352 1 14.7894 3.4275 87.326
353 1 13.3008 4.19529 83.1443
354 1 12.5969 4.82042 85.823
355 2 11.5022 3.61415 81.1864
356 1 10.4473 4.35849 78.7822
357 1 17.0895 5.05042 86.9468
358 1 17.8857 4.30347 84.2328
359 1 12.6606 0.314373 77.843
360 1 10.324 1.41696 79.4694
361 1 12.6151 2.90194 78.9806
362 1 9.82249 0.289311 76.8286
363 1 11.7741 0.975951 74.9146
364 2 11.1317 2.3349 77.1314
365 1 1.62964 2.2559 85.788
366 1 15.6301 5.81417 82.9661
367 2 15.3347 4.23845 85.023
368 1 13.7671 2.16766 81.2115
369 1 13.9282 2.11038 85.0937
370 1 15.8327 2.79289 82.9388
371 2 14.8515 1.64747 78.7604
372 1 13.8305 2.52409 76.2506
373 1 15.0737 4.26016 77.8378
374 1 13.1697 5.55547 79.2416
375 1 10.0027 0.579107 73.0833
376 1 11.5264 3.72769 75.083
377 2 13.4609 2.60058 73.7541
378 1 14.1561 4.94785 74.8932
379 2 12.5361 4.78497 76.9232
380 1 11.4733 3.31503 72.3224
381 1 4.10865 3.3136 79.8384
382 1 1.44398 2.32265 77.1103
383 1 2.92093 4.33967 73.2677
384 1 15.9795 2.90535 74.2005
385 2 3.17378 2.56823 75.0821
386 1 12.6106 0.709166 72.0024
387 1 14.7097 6.2616 86.8037
388 1 4.00349 6.38203 85.7777
389 2 3.86511 3.66866 86.6808
390 2 17.5007 4.65979 81.6001
391 1 15.8476 5.78341 80.1684
392 1 8.21232 5.19661 87.8271
393 1 5.86969 4.36949 85.179
394 2 7.53764 4.50101 83.0895
395 1 4.63911 4.79247 82.2124
396 1 6.91348 3.4733 80.6242
397 1 18.5835 6.28511 80.0323
398 1 7.06678 6.12974 81.1343
399 2 4.63136 4.95634 75.0682
400 1 17.2608 4.97002 75.8367
401 1 4.14985 3.56511 77.0539
402 1 5.09124 5.6577 72.5999
403 1 8.45537 5.5127 85.1
404 2 6.44492 6.5866 86.4061
405 2 17.6041 4.61718 78.3841
406 2 16.1694 5.59478 73.4847
407 1 9.36434 4.85366 81.2204
408 1 6.49906 4.9734 77.0636
409 1 7.14496 4.46957 74.3929
410 2 9.58344 4.526 73.5963
411 1 7.69267 5.87953 72.0767
412 2 8.27236 5.7415 78.8849
413 1 9.2425 5.15488 76.4002
414 1 5.15083 2.92684 73.2723
415 2 1.85364 0.602806 70.5532
416 1 2.18602 -0.0347805 67.7504
417 1 10.3516 5.93054 71.6922
418 1 4.81506 0.164019 67.2032
419 1 4.16566 0.586438 69.8312
420 2 7.21053 6.25087 65.1668
421 1 1.88101 0.0379794 63.0006
422 1 8.50002 0.943504 70.8987
423 1 9.51788 0.273593 68.3449
424 1 8.27568 5.33238 62.9864
425 1 7.17582 1.57177 67.0612
426 2 6.77541 0.280282 69.0754
427 1 6.62854 0.15733 61.8119
428 1 4.51591 1.28734 63.3287
429 1 6.92797 6.05391 59.0223
430 1 5.58773 0.603002 59.0189
431 2 3.91536 0.379022 61.0912
432 1 6.92591 5.82962 56.3085
433 1 14.9395 6.21715 63.9616
434 1 9.50271 0.0728882 57.2397
435 1 11.4271 5.37846 58.3955
436 1 14.1241 4.49139 72.1391
437 1 6.16283 2.19658 70.8768
438 1 10.8316 2.23923 69.8395
439 1 8.70026 3.52057 71.3306
440 2 14.6558 6.29443 70.6336
441 2 8.16451 2.65775 68.9984
442 1 9.70789 2.77731 66.9767
443 2 9.08804 0.568618 65.6983
444 1 7.06692 1.37908 64.4285
445 1 15.2848 1.74758 71.8167
446 1 12.7415 0.175407 69.2902
447 1 16.7615 4.9758 67.0995
448 2 14.1023 0.488961 67.1967
449 1 12.8966 2.75441 67.7672
450 1 11.533 0.757822 66.3219
451 1 17.6822 6.20762 64.8686
452 1 9.94648 2.273 64.1928
453 1 13.8632 2.1671 65.2605
454 2 11.68 3.38676 65.4148
455 1 10.6767 2.25252 61.0925
456 2 11.3475 0.676022 59.1376
457 1 12.6804 2.75694 59.2338
458 1 8.74583 0.839687 59.7836
459 1 14.9872 5.96737 61.2185
460 1 12.5699 2.60259 63.0317
461 1 9.72053 2.67825 58.1958
462 1 11.8066 1.56711 56.712
463 1 15.2455 1.28362 69.172
464 2 13.377 2.49567 70.3871
465 1 14.9403 4.10693 68.9771
466 2 15.5812 2.7127 66.9653
467 1 2.16966 2.74377 68.89
468 1 14.0399 4.75648 66.2479
469 1 16.0558 3.58879 64.5021
470 2 9.12725 0.449012 62.4205
471 2 7.40996 1.23411 57.5439
472 1 13.5105 4.08828 56.8778
473 1 4.99715 2.81654 68.2836
474 1 0.955716 0.800957 65.4392
475 1 13.2751 0.653106 61.1568
476 1 13.9073 0.409761 58.5272
477 2 1.0512 0.301257 57.5958
478 1 14.4429 1.63075 56.1472
479 2 5.24205 2.37299 65.6066
480 1 2.94413 2.47781 66.537
481 1 3.43404 3.79533 64.092
482 2 14.8895 1.08257 63.1037
483 1 0.712958 0.732338 60.4052
484 2 16.8372 5.23288 62.5907
485 1 14.8125 3.21825 61.2476
486 1 15.5263 2.75997 58.5736
487 1 2.30614 2.68379 61.9307
488 1 3.06978 2.14307 59.2425
489 1 15.8758 5.39969 57.4128
490 1 16.8072 4.48156 70.9278
491 1 12.3312 5.37579 63.9797
492 2 3.99035 3.3208 70.9298
493 1 3.64322 5.07882 69.0593
494 1 7.45792 4.359 66.9743
495 1 6.51978 4.73496 69.7033
496 1 4.53439 4.87436 66.4273
497 1 3.96417 5.15364 61.7018
498 1 4.58427 4.55484 59.1943
499 1 17.3682 4.57827 59.8771
500 2 2.82008 3.91564 57.1944
501 1 8.24319 2.68642 61.9514
502 1 5.94323 3.89399 63.6379
503 1 5.33293 2.6322 61.1161
504 1 7.18409 3.34569 58.8978
505 2 6.68843 4.6865 61.1137
506 1 12.3201 4.80769 69.8967
507 1 9.68556 5.16118 65.1131
508 1 9.4436 4.83463 68.9303
509 1 11.4592 5.33427 67.0521
510 2 10.4245 4.2407 62.6703
511 1 9.32596 4.77088 60.3185
512 1 5.20512 2.77407 57.2124
513 2 8.91942 4.86783 57.6064
514 1 12.299 4.79216 61.1658
515 2 14.0021 5.00503 59.2031
516 1 8.04919 3.18985 56.0127
517 1 5.72529 0.0610345 56.129
518 1 4.106 5.82657 55.4229
519 2 3.47922 5.06722 53.1649
520 1 5.23606 5.0442 50.9521
521 1 8.44938 0.618213 51.2429
522 1 8.32333 5.20644 51.811
523 2 7.24031 5.78468 49.4607
524 1 6.08261 4.53082 45.0124
525 1 8.17365 5.17052 43.0149
526 1 7.9489 4.70986 47.0213
527 1 5.20029 5.31896 42.2355
528 1 10.4722 6.65343 53.0233
529 2 10.9905 5.08015 51.0785
530 1 13.0138 5.1625 53.0089
531 1 5.4492 0.612052 50.2186
532 1 11.6542 6.01148 48.6852
533 1 9.1223 6.5826 40.8215
534 1 15.7694 5.25623 52.3804
535 2 16.2079 5.01712 49.5828
536 1 13.7106 4.8822 50.4665
537 1 14.1829 6.12756 48.0641
538 2 8.35821 0.777819 46.5155
539 1 10.3531 5.52832 45.1412
540 1 11.1384 5.32156 42.4693
541 1 13.1969 4.87472 45.6631
542 1 13.9708 4.47552 43.1495
543 1 8.19678 0.577313 54.9771
544 1 3.79385 0.936922 47.9647
545 2 14.66 5.71762 55.0601
546 2 12.6257 2.87067 54.5406
547 1 10.5274 0.996649 53.103
548 1 14.0915 0.0438398 51.128
549 1 13.3808 0.469051 53.8334
550 1 12.8137 2.40984 51.8092
551 1 11.1756 0.574573 50.3601
552 1 10.7441 0.864903 45.4948
553 1 11.4689 0.357003 43.0353
554 1 8.81018 0.301586 43.845
555 2 13.5971 6.2727 41.0846
556 1 1.66439 1.48588 55.2387
557 1 15.6934 2.45947 51.1574
558 1 14.9342 2.87526 53.6653
559 2 13.9414 1.99703 49.1711
560 1 12.6482 2.33685 46.8006
561 1 3.87945 3.14881 54.9585
562 1 4.92655 2.77356 52.3637
563 1 3.53246 4.90798 45.8401
564 1 16.7334 6.14146 47.2085
565 1 14.9774 1.02378 46.9244
566 1 15.928 4.9551 44.982
567 1 17.8812 5.48544 42.8538
568 2 13.3821 0.392849 44.9808
569 1 3.97266 0.402798 53.7285
570 1 2.65104 4.0092 50.9596
571 2 2.27926 2.65478 52.9909
572 1 1.06595 0.639164 49.1248
573 1 1.06218 0.345574 52.8566
574 1 2.98488 1.17035 50.9159
575 2 5.81246 6.40327 46.6455
576 1 0.568757 0.603283 44.1341
577 1 2.06848 2.38362 45.8707
578 1 15.0919 3.73324 47.4125
579 1 15.7654 4.8863 41.0695
580 1 13.6514 1.79459 42.9316
581 2 15.5257 0.557336 41.3687
582 1 16.4122 3.08239 43.0633
583 2 14.7628 2.71391 45.063
584 1 14.3797 2.75089 40.7407
585 1 6.41449 1.79322 47.7675
586 1 3.85668 0.438267 45.1824
587 1 4.72654 2.56145 41.1266
588 1 2.76801 0.897892 42.1344
589 2 5.3651 0.657803 43.1962
590 1 12.9812 0.59531 40.5955
591 1 16.8837 4.36729 54.9711
592 1 6.23268 4.71075 53.907
593 2 6.09798 2.11706 54.6651
594 2 4.48035 2.84678 49.6313
595 1 2.60016 3.74543 48.3122
596 1 10.8621 4.15907 55.8868
597 1 8.12874 2.69701 53.074
598 2 9.70337 2.85379 51.2213
599 1 7.19841 3.14595 50.3641
600 1 9.19399 1.84096 48.8499
601 1 5.28359 4.59185 48.0738
602 1 9.32705 4.52607 49.2239
603 2 6.66291 3.22487 43.0219
604 1 4.05002 2.95859 43.8686
605 1 6.46372 1.5689 45.0507
606 1 7.33202 4.07389 40.6699
607 1 10.7655 3.79205 53.2866
608 2 8.86843 4.97162 54.5495
609 2 4.53643 2.74909 46.5284
610 2 2.586 3.67461 40.7222
611 1 11.6446 3.24932 49.3745
612 1 8.78857 3.17534 44.9951
613 1 9.41184 2.75579 42.538
614 2 11.9298 2.86995 41.5176
615 1 10.173 4.07391 40.3599
616 2 10.4907 3.63413 47.0052
617 1 11.5231 3.15081 44.3358
618 1 7.50581 1.21306 41.415
ITEM: TIMESTEP
16000
ITEM: NUMBER OF ATOMS
618
ITEM: BOX BOUNDS xy xz yz pp pp ff
0.0000000000000000e+00 1.9317770367296919e+01 4.0025167278329121e+00
0.0000000000000000e+00 6.6702723500479264e+00 0.0000000000000000e+00
0.0000000000000000e+00 1.0921147561319708e+02 0.0000000000000000e+00
ITEM: ATOMS id type x y z
1 1 3.87378 5.47861 5.99234
2 1 5.68155 5.99139 8.77915
3 1 3.81468 5.7222 13.2662
4 1 8.86077 6.67655 6.18906
5 1 7.25164 6.26822 11.0891
6 1 5.69069 5.83746 15.6575
7 1 4.04547 5.70025 20.4325
8 1 11.4832 5.75257 6.04251
9 1 6.44102 0.262398 8.75828
10 1 8.74128 6.65727 13.4132
11 1 7.18632 6.30034 18.0081
12 1 5.65416 5.93089 22.7829
13 1 4.08387 5.83791 27.0812
14 1 9.77685 0.861467 6.25756
15 1 13.2306 6.14546 8.81686
16 1 8.06265 0.707839 11.1342
17 1 11.6712 5.81362 13.3975
18 1 6.48677 0.282156 15.6908
19 1 4.95283 -0.027775 20.4006
20 1 7.52909 6.30998 24.9639
21 1 5.81306 6.20126 29.6391
22 1 4.00371 5.6088 34.1416
23 1 16.4718 6.52806 6.22123
24 1 11.9737 2.75244 6.26712
25 1 11.4387 1.28869 8.7699
26 1 14.9427 6.44909 11.0734
27 1 10.4307 2.63006 11.1601
28 1 9.7577 1.00132 13.4751
29 1 13.2665 5.9546 15.7185
30 1 8.17425 0.712459 18.0858
31 1 11.5561 5.64133 20.1913
32 1 6.72385 0.399878 22.626
33 1 9.09547 6.79277 27.1459
34 1 7.27818 6.2278 31.9154
35 1 5.66058 6.04047 36.4822
36 1 14.7676 1.73921 6.32014
37 1 14.1331 0.2219 8.7018
38 1 13.7146 3.18797 8.65453
39 1 13.0948 1.70677 10.9575
40 1 16.5906 6.74404 13.4402
41 1 12.02 2.80203 13.1548
42 1 11.4225 1.2958 15.7298
43 1 14.8302 6.28823 18.1143
44 1 10.4339 2.39893 18.0729
45 1 9.79175 0.955321 20.2871
46 1 13.2823 6.02364 22.627
47 1 8.37327 0.521513 24.9002
48 1 11.6679 5.86776 27.3561
49 1 6.65561 0.641933 29.4853
50 1 4.9314 0.043895 34.0107
51 1 6.21085 6.6684 40.0448
52 1 2.05645 0.717532 6.42603
53 1 17.0492 3.71199 6.36245
54 1 16.6654 2.24015 8.56998
55 1 0.619055 0.680866 11.0744
56 1 15.5708 3.44402 11.0163
57 1 14.8935 1.95115 13.3283
58 1 14.2471 0.47221 15.8092
59 1 14.0106 3.23555 15.5913
60 1 13.2423 1.60424 17.9801
61 1 16.4733 6.65672 20.4005
62 1 12.2244 2.90554 20.3912
63 1 11.4783 1.23464 22.6859
64 1 15.1603 6.26503 24.7535
65 1 10.5619 2.59121 24.8877
66 1 9.86338 0.888257 27.1942
67 1 13.445 6.18099 29.4763
68 1 8.26193 0.807047 31.7488
69 1 11.6815 5.77664 34.1799
70 1 6.6115 0.353507 36.4098
71 1 4.44156 2.8539 6.16042
72 1 4.03019 1.16495 8.67038
73 1 3.57849 4.09917 8.61111
74 1 2.82273 2.48288 11.0586
75 1 2.21508 0.896583 13.5186
76 1 17.1056 3.75281 13.4101
77 1 16.4164 2.08533 15.7463
78 1 0.576 0.399364 18.1349
79 1 15.4917 3.52806 18.1038
80 1 14.8068 1.89736 20.277
81 1 14.3286 0.260225 22.6669
82 1 13.6686 3.03521 22.6255
83 1 13.0884 1.61733 25.0346
84 1 12.6075 0.0505827 27.2569
85 1 12.1173 2.87936 27.1897
86 1 11.6318 1.24947 29.5335
87 1 15.0247 6.35312 31.9373
88 1 10.5054 2.59139 31.7346
89 1 9.83963 0.999068 34.0751
90 1 13.3698 6.27572 36.4094
91 1 8.40368 0.581793 39.0572
92 1 7.14179 1.77436 6.18926
93 1 6.62813 4.69172 6.1631
94 1 6.16037 3.08509 8.63535
95 1 5.48221 1.54234 11.1353
96 1 4.99661 4.48137 11.0223
97 1 4.36821 2.86144 13.3033
98 1 3.86193 1.17958 15.778
99 1 3.23202 4.3637 15.5533
100 1 2.95005 2.65739 17.9744
101 1 2.20443 0.910803 20.322
102 1 17.0973 3.77914 20.3948
103 1 16.6288 2.12155 22.6358
104 1 0.640622 0.612665 24.9686
105 1 15.6052 3.59756 25.0392
106 1 14.951 2.01066 27.1024
107 1 14.3056 0.421314 29.5256
108 1 13.9413 3.28692 29.5337
109 1 13.1784 1.66434 31.7643
110 1 12.6413 0.250617 34.0729
111 1 12.1665 2.93984 34.1298
112 1 11.3685 1.51106 36.409
113 1 14.7637 6.38822 38.9501
114 1 10.7066 2.30061 38.9791
115 1 9.40613 3.79764 6.37053
116 1 8.65785 2.20213 8.70607
117 1 8.25455 4.97372 8.87258
118 1 7.6069 3.36761 11.0883
119 1 6.98564 1.91001 13.4605
120 1 6.64836 4.77866 13.3372
121 1 6.00318 3.16444 15.696
122 1 5.496 1.55661 17.9973
123 1 5.12085 4.30856 18.0485
124 1 4.50632 2.92229 20.2991
125 1 4.0042 1.20295 22.612
126 1 3.51491 3.89941 22.7408
127 1 2.88577 2.28005 24.8988
128 1 2.25933 0.827831 27.316
129 1 17.2259 3.83193 27.178
130 1 1.14952 2.25272 29.5452
131 1 0.631403 0.783041 31.8462
132 1 15.4554 3.4321 31.9618
133 1 14.9245 1.99807 34.2536
134 1 14.3631 0.261234 36.3739
135 1 13.7668 3.36568 36.3185
136 1 13.3158 1.93552 38.4104
137 1 11.0391 4.08548 8.69615
138 1 9.9956 5.26635 11.0458
139 1 9.4359 3.88576 13.3821
140 1 8.60929 2.17127 15.6886
141 1 8.37629 4.88295 15.7733
142 1 7.76217 3.35469 18.048
143 1 7.02065 1.94978 20.2542
144 1 6.70022 4.69815 20.2988
145 1 6.24676 3.09267 22.7004
146 1 5.69234 1.6305 24.9279
147 1 5.15011 4.36427 24.8638
148 1 4.56584 2.90993 27.2229
149 1 4.0663 1.26915 29.7371
150 1 3.55676 4.15873 29.4408
151 1 2.91082 2.54405 31.9544
152 1 2.26589 0.999465 34.1983
153 1 17.163 3.79903 34.1259
154 1 1.25082 2.38566 36.4981
155 1 0.201466 0.759475 38.8403
156 1 15.6507 3.74371 38.7169
157 1 14.247 4.78406 6.28596
158 1 12.764 4.6518 11.1576
159 1 11.0631 3.94026 15.6904
160 1 9.85484 5.38903 18.0793
161 1 9.48038 3.88446 20.3773
162 1 8.90715 2.22346 22.4637
163 1 8.35673 5.04279 22.596
164 1 7.8855 3.6109 24.9184
165 1 7.29018 2.0057 27.1054
166 1 6.72329 4.66426 27.3332
167 1 6.181 3.23796 29.5565
168 1 5.45703 1.59288 31.8619
169 1 5.13712 4.61025 31.7442
170 1 4.55052 2.78705 34.1746
171 1 3.92293 1.20319 36.5499
172 1 3.36262 4.10957 36.5039
173 1 2.84274 2.63577 38.9368
174 1 15.9562 4.91068 8.69828
175 1 14.4139 4.87461 13.2687
176 1 12.675 4.39236 17.8508
177 1 11.0337 4.15259 22.6201
178 1 10.1831 5.40616 24.8187
179 1 9.60195 3.96809 27.1615
180 1 9.12304 2.27792 29.323
181 1 8.49923 5.20324 29.4965
182 1 7.72834 3.42658 31.8287
183 1 7.04339 1.95201 34.1976
184 1 6.58872 4.799 34.0486
185 1 6.12106 3.31833 36.5027
186 1 5.82954 2.08465 38.8299
187 1 4.95087 4.73085 38.8269
188 1 17.6955 5.3177 10.8689
189 1 15.9461 5.22408 15.673
190 1 14.3106 4.83085 20.325
191 1 12.9159 4.40389 24.8046
192 1 11.1911 4.35545 29.511
193 1 10.0189 5.47837 31.7627
194 1 9.278 3.98378 34.0921
195 1 8.71594 2.27387 36.2613
196 1 8.26828 5.18291 36.3655
197 1 8.28551 3.48758 38.4426
198 1 17.6733 5.41599 17.9986
199 1 16.1152 4.98006 22.6768
200 1 14.3124 4.73154 27.2465
201 1 12.7078 4.51903 31.7393
202 1 11.0082 4.03578 36.6317
203 1 10.0126 5.96852 38.5995
204 1 17.7951 5.37866 24.9993
205 1 16.0375 5.05815 29.6586
206 1 14.3505 4.85761 34.1126
207 1 12.5398 4.41237 39.1413
208 1 17.7228 5.48072 31.8895
209 1 16.0199 5.16662 36.3622
210 1 17.513 5.69549 38.7512
211 2 14.5998 1.5538 102.062
212 1 15.1194 1.16909 99.2755
213 1 3.74154 0.494854 102.99
214 1 2.51063 1.206 98.6132
215 1 1.72045 1.41051 101.292
216 2 0.85423 0.601438 96.6637
217 1 15.1403 1.43935 94.3346
218 1 6.23517 2.07893 102.583
219 1 6.99843 1.36544 99.9717
220 1 2.08214 0.0696814 94.4737
221 1 4.77072 2.73473 98.5555
222 2 4.40317 1.28534 100.666
223 1 4.42677 1.55242 93.5735
224 1 2.37912 2.70595 95.089
225 1 0.788469 0.802542 90.6082
226 1 3.43249 1.95766 90.7694
227 2 1.81587 1.92798 92.689
228 1 0.878147 1.03606 87.9223
229 1 8.42701 0.415896 95.4193
230 1 7.53409 1.4592 88.8533
231 1 5.15062 0.0572514 89.9424
232 1 11.9381 5.22153 103.198
233 1 3.66174 3.27913 102.278
234 1 8.46508 3.08052 101.622
235 1 6.27586 4.74307 103.085
236 2 8.32008 0.649859 101.973
237 2 5.80259 3.69228 100.734
238 1 7.32494 3.65204 98.4408
239 2 6.68703 1.43629 97.3383
240 1 5.14783 2.95423 95.8921
241 1 13.4474 2.92521 103.24
242 1 10.5947 1.55132 101.232
243 1 14.4326 6.01835 98.8393
244 2 11.6458 1.46358 98.9945
245 1 10.2412 3.83785 99.5695
246 1 9.14091 1.79351 97.9566
247 1 11.1757 0.604834 96.5638
248 1 8.00001 3.0977 95.578
249 1 11.5664 3.17743 96.968
250 2 9.37189 4.41682 97.0911
251 1 8.57276 3.41743 92.7676
252 2 9.12448 2.00285 90.612
253 1 10.325 4.18321 90.7277
254 1 6.46608 2.06979 91.4847
255 1 8.87341 0.70677 92.7672
256 1 10.5519 4.03793 94.668
257 1 7.58316 4.0115 89.8711
258 1 9.92293 2.76594 88.3344
259 1 12.928 2.48963 100.548
260 2 11.0506 3.57211 102.198
261 1 12.6118 5.24771 100.406
262 2 13.5267 3.65291 98.3742
263 1 15.1818 3.87212 100.409
264 1 11.528 5.78767 97.8082
265 1 13.8175 4.757 96.1278
266 2 6.84067 1.69164 93.9999
267 2 5.35907 2.74938 89.1884
268 1 11.3833 5.35866 88.5175
269 1 2.51625 4.02908 99.7439
270 1 13.8755 1.93812 96.6069
271 1 11.1718 2.1228 92.553
272 1 11.8202 1.69911 89.9229
273 2 14.4706 1.99374 89.2863
274 1 12.5449 3.162 87.8047
275 2 3.35888 4.01402 97.1027
276 1 16.2017 3.39899 97.787
277 1 16.5624 5.10661 95.7091
278 2 12.7218 2.53834 94.6114
279 1 13.8031 2.22525 91.9888
280 2 14.6579 6.46123 94.0796
281 1 12.5913 4.64763 92.7871
282 1 13.3049 4.16249 90.261
283 1 15.5425 3.92577 93.4672
284 1 16.0474 3.46476 90.7544
285 1 9.81682 -0.105618 89.0108
286 1 14.4646 5.71877 102.554
287 1 5.65338 0.137116 95.8062
288 2 17.0566 4.68945 102.397
289 1 16.6692 6.42372 100.606
290 1 4.95149 5.38697 98.7305
291 1 4.2338 5.83993 101.392
292 1 17.3568 6.20043 97.9518
293 1 17.1055 6.62699 93.4416
294 1 17.6762 5.99067 90.8021
295 1 15.0598 5.91093 91.4267
296 2 16.0381 5.36837 88.7877
297 1 5.90038 4.14763 93.6355
298 1 3.75254 5.33823 94.8982
299 1 2.95006 4.01387 92.64
300 1 4.92103 4.6447 90.5969
301 2 4.33253 6.05311 92.6424
302 1 9.93938 5.9649 101.511
303 1 7.02855 5.69926 96.7206
304 1 7.23495 5.7263 100.505
305 1 9.01287 6.43317 98.5069
306 2 8.19831 5.39994 94.3334
307 1 7.05353 6.20022 91.9934
308 1 2.88559 3.98829 88.7265
309 2 6.7312 6.35164 89.3298
310 1 10.0746 6.14524 92.886
311 2 11.7824 6.32364 90.681
312 1 5.76916 4.79526 87.747
313 1 3.8556 1.35689 87.7595
314 1 13.3722 0.791931 87.2278
315 2 17.0789 6.63111 84.7725
316 1 18.583 6.56532 82.7476
317 1 6.23434 2.22524 82.9293
318 1 6.14303 6.58733 83.5561
319 2 1.24301 0.7219 81.1655
320 1 4.07381 6.29973 76.8803
321 1 2.11693 0.407565 74.9474
322 1 2.28142 0.429568 78.5137
323 1 14.5394 0.285276 74.0542
324 1 4.42603 1.54824 84.8602
325 2 8.95995 6.71156 82.8044
326 1 6.95459 0.140049 84.6072
327 1 3.36433 2.05595 82.0257
328 1 5.50192 0.838542 80.5221
329 1 2.83771 1.45604 72.5869
330 1 9.6479 0.396296 84.0258
331 2 10.1773 0.0927877 81.3547
332 1 11.7493 6.41265 82.1165
333 1 8.14041 1.04926 79.826
334 2 6.127 2.04062 78.2782
335 1 4.44836 0.805674 76.6907
336 1 4.97687 0.196352 73.9728
337 1 11.4018 6.66087 77.342
338 1 11.8642 6.3419 74.79
339 1 6.34115 2.13501 86.6506
340 1 16.7007 2.85614 79.8295
341 2 8.61849 0.734894 86.7482
342 2 10.4691 4.33198 86.1617
343 1 8.50964 2.69361 84.5846
344 1 12.0198 1.66263 82.8516
345 1 11.4305 1.88919 85.531
346 1 10.8995 4.1196 83.4903
347 1 9.07657 2.20409 82.0139
348 1 8.71527 2.87004 77.6113
349 1 9.40918 2.24551 74.9633
350 1 6.77051 2.05402 75.6107
351 2 7.64816 1.71477 72.9052
352 1 14.9692 3.42801 86.9274
353 1 13.5629 4.1645 82.8663
354 1 12.8913 4.65185 85.4067
355 2 11.6728 3.40759 80.9847
356 1 10.7901 4.35927 78.6564
357 1 17.2744 4.87058 86.5861
358 1 2.82719 4.17741 84.089
359 1 12.8034 0.177222 77.7203
360 1 10.665 1.5425 79.0862
361 1 13.0029 2.91218 78.5843
362 1 10.1749 0.0516902 76.6023
363 1 11.9413 0.864631 74.7159
364 2 11.2248 2.24656 76.893
365 1 1.78654 2.13927 85.6838
366 1 15.8788 5.61732 82.7298
367 2 15.6316 4.24261 84.6546
368 1 14.0645 1.94244 80.8651
369 1 14.2715 2.01065 84.7132
370 1 16.1063 2.7968 82.6656
371 2 15.1421 1.68705 78.3909
372 1 13.9972 2.27567 76.1285
373 1 15.3651 4.17399 77.7143
374 1 13.4316 5.53057 79.2288
375 1 10.042 0.469255 72.8415
376 1 11.6176 3.60127 74.8241
377 2 13.6208 2.49658 73.4981
378 1 14.2334 4.82725 74.5367
379 2 12.8233 4.56465 76.7516
380 1 11.6717 3.44996 72.0758
381 1 4.29275 3.14441 79.6164
382 1 1.84613 2.42352 76.8348
383 1 3.18244 4.18519 72.9503
384 1 16.1202 2.92708 73.9586
385 2 3.4657 2.5713 74.8392
386 1 12.8197 0.809368 71.9807
387 1 14.9092 6.12526 86.4598
388 1 4.26848 6.26739 85.5791
389 2 3.97533 3.47077 86.3801
390 2 17.8134 4.36906 81.423
391 1 16.1227 5.83262 80.1347
392 1 8.53321 5.21148 87.5157
393 1 5.99216 4.18431 84.9599
394 2 7.54922 4.3768 82.7825
395 1 5.05422 4.63092 81.9478
396 1 7.04975 3.38117 80.4983
397 1 19.0793 6.15594 79.7563
398 1 7.28984 6.11169 80.9008
399 2 4.81451 4.92862 74.787
400 1 17.3267 4.85862 75.6233
401 1 4.57136 3.45349 76.8418
402 1 5.32336 5.7015 72.3763
403 1 8.64012 5.39802 84.8443
404 2 6.76567 6.4012 86.2185
405 2 17.7855 4.51398 78.3498
406 2 16.2353 5.51235 73.2987
407 1 9.56769 4.65073 80.9983
408 1 6.66857 5.0653 76.7975
409 1 7.39194 4.33197 74.0809
410 2 9.74227 4.43447 73.428
411 1 7.85734 5.79015 71.8579
412 2 8.48027 5.5838 78.7509
413 1 9.34765 5.00291 76.0117
414 1 5.46904 2.83339 73.0551
415 2 2.00371 0.448794 70.3677
416 1 2.32707 0.0156961 67.5942
417 1 10.4659 5.94734 71.3295
418 1 5.07238 0.30529 66.909
419 1 4.3739 0.442921 69.6001
420 2 7.39814 6.55431 64.9011
421 1 2.10615 0.292046 62.6668
422 1 8.75257 0.716626 70.6712
423 1 9.64583 0.0955824 68.1462
424 1 8.47358 5.57575 62.708
425 1 7.28511 1.53995 66.7722
426 2 6.90897 0.18216 68.8984
427 1 6.7552 0.237521 61.7377
428 1 4.68446 1.54101 63.0765
429 1 7.01982 6.34944 58.9657
430 1 5.74654 1.01068 58.79
431 2 4.20201 0.61473 60.7653
432 1 7.02554 6.22701 56.2803
433 1 15.014 6.09403 63.5819
434 1 9.65929 0.25169 57.1122
435 1 11.4104 5.63911 58.156
436 1 14.3998 4.38005 71.8232
437 1 6.32681 2.16305 70.5655
438 1 11.0015 2.19533 69.6534
439 1 8.95752 3.43523 70.9823
440 2 14.9708 6.34656 70.5598
441 2 8.30941 2.48647 68.7738
442 1 9.97957 2.57929 66.6473
443 2 9.20611 0.368339 65.5109
444 1 7.29687 1.67571 64.0748
445 1 15.4256 1.51671 71.716
446 1 12.7432 0.085745 68.9294
447 1 17.1399 4.89226 66.9531
448 2 14.3238 0.43478 66.9032
449 1 12.9455 2.63033 67.7484
450 1 11.7961 0.660173 65.9767
451 1 17.7612 6.16645 64.5111
452 1 10.2784 2.25653 63.9394
453 1 14.0168 2.11523 65.2076
454 2 11.9242 3.49127 65.401
455 1 10.8527 2.28664 61.124
456 2 11.3827 0.918194 59.0297
457 1 12.7221 3.09396 59.1043
458 1 8.75353 0.823846 59.6717
459 1 15.0999 6.1888 61.0245
460 1 12.9329 2.97355 62.8965
461 1 9.95715 3.02933 58.1036
462 1 12.0147 1.8329 56.4604
463 1 15.3612 1.36163 68.9601
464 2 13.6211 2.47362 70.2972
465 1 14.9795 4.29205 68.9902
466 2 15.7237 2.7092 66.9336
467 1 2.29748 2.78667 68.8582
468 1 14.1637 4.72657 66.032
469 1 16.2752 3.63551 64.6685
470 2 9.12518 0.63807 62.3659
471 2 7.66409 1.60646 57.418
472 1 13.5918 4.17871 56.8295
473 1 5.13655 2.93338 68.0875
474 1 0.994075 0.786372 65.0663
475 1 13.3643 0.956111 60.9957
476 1 14.1157 0.667519 58.4525
477 2 1.12765 0.535955 57.5616
478 1 14.6178 1.83432 56.0604
479 2 5.46932 2.44544 65.4968
480 1 2.98722 2.32005 66.2463
481 1 3.48413 3.64153 63.8355
482 2 15.1581 1.72106 62.8944
483 1 0.777152 0.958175 60.2422
484 2 16.7007 4.75407 62.4551
485 1 15.0118 3.54373 60.7982
486 1 15.729 3.14256 58.3553
487 1 2.7523 2.68623 61.5139
488 1 3.09665 2.42437 58.992
489 1 16.0322 5.78364 57.2092
490 1 17.1011 4.69274 70.7988
491 1 12.1844 5.54952 63.8777
492 2 4.17533 3.34495 70.7549
493 1 3.95212 5.22937 68.8018
494 1 7.53887 4.33143 66.7252
495 1 6.81885 4.60923 69.5534
496 1 4.49486 4.91118 66.0512
497 1 4.05326 5.38166 61.8884
498 1 4.80678 4.96383 59.2037
499 1 17.4283 4.81518 59.7312
500 2 2.97712 4.60198 57.1357
501 1 8.22848 2.91508 61.763
502 1 6.11997 4.22992 63.5849
503 1 5.50043 2.86263 60.8234
504 1 7.37109 3.623 58.7907
505 2 6.68845 5.03011 60.9256
506 1 12.3913 4.68495 69.6277
507 1 9.68912 4.78343 65.0131
508 1 9.64223 4.5295 68.6238
509 1 11.5883 5.43381 66.9273
510 2 10.51 4.24638 62.4376
511 1 9.3996 5.11406 60.0678
512 1 5.38029 3.11514 57.1547
513 2 8.93999 5.2637 57.6157
514 1 12.4559 4.95241 61.0494
515 2 14.0551 5.19946 58.9523
516 1 8.24486 3.55979 55.9232
517 1 5.78721 0.3807 56.0709
518 1 4.36018 6.16125 55.2888
519 2 3.85677 5.30851 53.0055
520 1 5.40821 5.46337 50.9863
521 1 8.46448 0.932284 51.1499
522 1 8.3881 5.49947 51.8164
523 2 7.23431 5.91175 49.4248
524 1 6.10962 4.56018 45.2242
525 1 8.07844 5.21681 42.8454
526 1 8.09193 5.26471 46.9159
527 1 5.18482 5.45543 42.2906
528 1 6.42773 0.323518 53.0773
529 2 11.1429 5.38111 51.0592
530 1 13.0547 5.62412 53.0731
531 1 5.50114 0.952989 50.0895
532 1 11.6734 6.51337 48.8429
533 1 4.74378 0.207783 40.7792
534 1 15.8315 5.62599 52.1301
535 2 16.2185 5.185 49.5529
536 1 13.8025 4.97604 50.4087
537 1 14.2024 6.29895 48.0585
538 2 8.24619 1.00271 46.5983
539 1 10.053 5.72412 44.989
540 1 10.8376 5.29328 42.4996
541 1 12.904 5.0733 45.8071
542 1 13.7158 4.54145 43.1708
543 1 8.43341 0.841585 54.904
544 1 3.61195 1.13859 47.9767
545 2 14.7733 6.09948 54.8978
546 2 12.7892 3.35185 54.5512
547 1 10.6396 1.42937 52.9855
548 1 14.3578 0.419796 51.0725
549 1 13.5154 0.806166 53.797
550 1 13.0909 2.7748 51.7605
551 1 11.2625 0.965554 50.2901
552 1 10.6076 0.99089 45.5697
553 1 11.1946 0.405019 43.1874
554 1 8.58168 0.389222 43.9135
555 2 13.4335 6.48695 41.2046
556 1 1.86048 2.0792 55.6674
557 1 15.8618 2.94041 51.1268
558 1 15.0756 3.33833 53.7441
559 2 13.7903 2.11925 49.1844
560 1 12.6063 2.61764 46.7561
561 1 4.05171 3.53237 54.9487
562 1 4.93628 2.84126 52.3146
563 1 3.44932 5.21712 45.869
564 1 16.7044 6.46461 47.3009
565 1 14.9683 1.08879 46.9934
566 1 15.8392 5.16086 44.9848
567 1 17.9035 5.4522 43.0513
568 2 13.1428 0.640589 45.1016
569 1 3.91782 0.884286 53.9844
570 1 18.1852 4.44448 51.0507
571 2 2.37506 2.95078 53.2217
572 1 1.01288 1.00601 49.1701
573 1 1.0853 0.866556 53.0447
574 1 3.06693 1.40017 51.057
575 2 1.72009 0.0249567 46.7745
576 1 15.7033 0.764738 44.1698
577 1 1.99803 2.55301 45.83
578 1 15.2124 3.77786 47.3725
579 1 15.5961 5.1553 41.1266
580 1 13.4531 1.84545 43.0953
581 2 15.3695 0.704265 41.467
582 1 16.1483 3.30031 42.9961
583 2 14.6165 2.99607 45.152
584 1 14.317 2.85698 40.745
585 1 6.5923 2.30935 47.7731
586 1 3.66844 0.608507 45.1694
587 1 4.48675 2.94271 41.3777
588 1 2.52168 1.23147 42.241
589 2 5.12475 0.831943 43.1048
590 1 12.9143 0.710367 40.8149
591 1 17.0221 4.95366 54.8825
592 1 6.45332 4.92803 53.9078
593 2 6.1971 2.44142 54.6738
594 2 4.60754 3.14884 49.6595
595 1 2.57963 3.99955 48.2686
596 1 10.9914 4.387 55.8299
597 1 8.16632 2.87379 52.9763
598 2 9.70702 3.20018 50.9408
599 1 7.19575 3.44994 50.228
600 1 9.34174 2.1508 48.6443
601 1 5.27781 4.88153 48.1723
602 1 9.53108 4.89953 49.1024
603 2 6.5954 3.03061 43.1387
604 1 4.0533 3.23561 43.9124
605 1 6.22968 1.74908 45.0865
606 1 6.93306 3.94865 40.7961
607 1 10.8066 4.1494 53.0485
608 2 9.04712 5.22949 54.3863
609 2 4.43972 2.91926 46.4701
610 2 2.15106 3.70436 40.8696
611 1 11.7708 3.68237 49.2534
612 1 8.54915 3.18595 45.0046
613 1 9.28351 2.67031 42.4048
614 2 11.8046 2.94505 41.4436
615 1 9.79812 4.21306 40.3379
616 2 10.5097 4.03731 46.9299
617 1 11.2615 3.2502 44.1826
618 1 7.24668 1.09392 41.4416
ITEM: TIMESTEP
17000
ITEM: NUMBER OF ATOMS
618
ITEM: BOX BOUNDS xy xz yz pp pp ff
0.0000000000000000e+00 1.9317770367296919e+01 4.0025167278329121e+00
0.0000000000000000e+00 6.6702723500479264e+00 0.0000000000000000e+00
0.0000000000000000e+00 1.0921147561319708e+02 0.0000000000000000e+00
ITEM: ATOMS id type x y z
1 1 3.9398 5.87771 6.0137
2 1 5.59348 6.16966 8.46851
3 1 4.02157 6.04591 13.0715
4 1 8.95509 6.8214 5.79398
5 1 7.37342 6.46437 10.7425
6 1 5.67948 6.35433 15.3884
7 1 3.85459 5.93733 19.9422
8 1 11.5585 5.62018 6.15252
9 1 6.39725 0.459164 8.42904
10 1 9.08059 6.79804 12.9827
11 1 7.29672 6.54676 17.6803
12 1 5.73117 6.15751 22.4628
13 1 4.14871 5.92542 26.9705
14 1 9.59166 1.18871 5.9425
15 1 13.2502 6.15363 8.54133
16 1 8.1685 0.769826 10.8488
17 1 11.6901 5.86722 13.1145
18 1 6.56958 0.318122 15.6164
19 1 4.85948 0.116825 20.0402
20 1 7.43255 6.70733 24.7608
21 1 5.86198 6.25691 29.2556
22 1 4.18334 5.81042 34.0132
23 1 16.2694 6.64828 5.9341
24 1 11.8773 3.03035 5.94023
25 1 11.4816 1.41637 8.36988
26 1 14.9118 6.39959 10.785
27 1 10.526 2.55903 10.8364
28 1 9.92327 1.15098 13.1005
29 1 13.2569 6.13844 15.3604
30 1 8.15638 0.661403 17.8269
31 1 11.6473 5.76366 20.0709
32 1 6.48399 0.605455 22.143
33 1 9.00603 6.91818 26.8949
34 1 7.3707 6.55681 31.6773
35 1 5.92072 6.33184 36.6168
36 1 14.7091 1.95919 5.71972
37 1 14.0929 0.537885 8.30879
38 1 13.6062 3.29456 8.56667
39 1 13.0508 1.71737 10.7588
40 1 16.5797 6.84171 13.0028
41 1 12.1981 2.97514 13.2113
42 1 11.3594 1.35373 15.2644
43 1 15.0199 6.55903 17.7964
44 1 10.3503 2.52231 17.7305
45 1 9.91921 0.950285 19.9933
46 1 13.2872 6.33984 22.3688
47 1 8.29651 0.91969 24.6399
48 1 11.7624 5.98235 26.968
49 1 6.75818 0.588175 29.4868
50 1 4.96037 0.201059 33.8565
51 1 6.22371 6.45665 40.138
52 1 2.20118 1.09453 6.04902
53 1 16.9991 4.01072 6.03424
54 1 16.2846 2.29576 8.38083
55 1 0.552073 0.814143 10.6549
56 1 15.4282 3.779 10.7112
57 1 14.8587 2.14356 13.1123
58 1 14.3426 0.375856 15.5241
59 1 13.7135 3.13542 15.3427
60 1 13.2527 1.80688 17.8559
61 1 16.4836 6.93466 20.0951
62 1 12.2392 2.97026 20.0247
63 1 11.6226 1.56112 22.4779
64 1 14.9957 6.63161 24.7787
65 1 10.4916 2.89191 24.5585
66 1 9.92202 1.22692 26.936
67 1 13.404 6.21117 29.399
68 1 8.37859 0.945476 31.62
69 1 11.8045 5.88401 33.9204
70 1 6.68469 0.509717 36.2765
71 1 4.42267 2.90049 5.91091
72 1 3.75145 1.36758 8.36073
73 1 3.32054 4.29911 8.36
74 1 2.78688 2.73476 10.7327
75 1 2.2355 1.10172 13.0075
76 1 17.166 4.00752 13.1143
77 1 16.4666 2.34552 15.476
78 1 0.511595 0.741287 17.7209
79 1 15.4481 3.71747 17.5381
80 1 14.8681 1.938 20.1319
81 1 14.319 0.525602 22.4569
82 1 13.8513 3.47766 22.3404
83 1 13.2311 1.94086 24.668
84 1 12.7676 0.219918 26.9821
85 1 12.2601 3.00695 27.0581
86 1 11.5718 1.46255 29.3595
87 1 15.1474 6.46555 31.6202
88 1 10.6502 2.70974 31.7501
89 1 10.2103 0.937304 34.0983
90 1 13.3251 6.00755 36.6856
91 1 8.35646 0.814462 39.0326
92 1 7.06872 1.94465 5.88112
93 1 6.61966 4.82507 5.76365
94 1 5.99069 3.40501 8.4469
95 1 5.5241 1.80329 10.7406
96 1 4.95422 4.57257 10.7214
97 1 4.47276 3.11877 13.149
98 1 3.92617 1.40467 15.2836
99 1 3.43385 4.2147 15.4583
100 1 2.93575 2.67725 17.6609
101 1 2.19684 1.01545 20.1499
102 1 16.9777 4.08203 20.046
103 1 16.5821 2.5889 22.4351
104 1 0.685001 1.01735 24.7442
105 1 15.4876 3.60526 24.6704
106 1 15.0573 2.26415 27.0405
107 1 14.4001 0.698911 29.2843
108 1 13.8965 3.3687 29.2
109 1 13.3872 1.97588 31.7543
110 1 12.7018 -0.0634976 34.2
111 1 12.3866 3.09012 34.1059
112 1 11.6354 1.39635 36.2841
113 1 14.8722 6.01975 38.9646
114 1 11.0644 2.3386 39.1583
115 1 9.21298 4.08608 5.8347
116 1 8.55167 2.23049 8.30295
117 1 8.2087 5.15669 8.41647
118 1 7.72674 3.59413 10.6695
119 1 7.11882 2.04903 13.0468
120 1 6.74586 4.99037 12.9406
121 1 6.04668 3.26325 15.3447
122 1 5.48572 1.60651 17.7355
123 1 5.1173 4.60131 17.7169
124 1 4.31391 3.11147 20.0029
125 1 3.98009 1.57773 22.4444
126 1 3.58678 4.39054 22.2971
127 1 3.0182 2.86236 24.6673
128 1 2.35334 1.22163 26.925
129 1 17.1327 4.19863 26.9561
130 1 1.42764 2.46997 29.1791
131 1 0.611975 0.727128 31.5061
132 1 15.5428 3.63495 31.4837
133 1 14.9957 1.82264 33.819
134 1 14.495 0.542644 36.2395
135 1 13.9338 3.35242 36.2623
136 1 13.4214 1.88081 38.2694
137 1 10.9085 4.13117 8.35992
138 1 10.1127 5.44098 10.6979
139 1 9.31849 3.91473 13.0573
140 1 8.80594 2.44398 15.3907
141 1 8.36245 5.22054 15.2688
142 1 7.68992 3.61875 17.5694
143 1 7.07761 2.13884 19.9374
144 1 6.56847 4.90575 19.9397
145 1 6.1795 3.44352 22.2154
146 1 5.75007 1.87131 24.728
147 1 5.0615 4.74723 24.731
148 1 4.43098 3.05032 27.1758
149 1 4.14171 1.39737 29.3594
150 1 3.43874 4.43479 29.3783
151 1 2.91267 2.8533 31.5907
152 1 2.38916 1.18809 33.9836
153 1 17.2081 3.87294 34.1983
154 1 1.55721 2.36857 36.4407
155 1 0.361171 0.797227 38.831
156 1 15.864 3.60845 38.6426
157 1 14.1653 4.78212 5.95312
158 1 12.7421 4.63962 10.7259
159 1 11.0999 4.26446 15.4352
160 1 9.89684 5.3779 17.7761
161 1 9.37236 3.93987 20.0783
162 1 8.81428 2.3827 22.2416
163 1 8.50048 5.42227 22.4424
164 1 7.69648 3.73733 24.6669
165 1 7.20962 2.18146 27.0595
166 1 6.87293 5.11784 27.0153
167 1 6.1671 3.44074 29.3243
168 1 5.66045 1.83503 31.539
169 1 5.18961 4.606 31.466
170 1 4.68213 3.06633 34.0454
171 1 4.15424 1.48003 36.4905
172 1 3.57755 4.32778 36.5951
173 1 2.98805 2.09888 39.0529
174 1 16.0408 5.2521 8.34378
175 1 14.4372 4.91305 13.1806
176 1 12.7502 4.54871 17.5695
177 1 10.9918 4.3321 22.3134
178 1 10.0943 5.576 24.5817
179 1 9.53055 4.03348 26.9552
180 1 9.00489 2.52677 29.1929
181 1 8.44578 5.28792 29.2493
182 1 7.84327 3.66442 31.6648
183 1 7.19603 2.04236 33.8693
184 1 6.77447 4.90353 33.9632
185 1 6.34238 3.2849 36.4606
186 1 5.91277 2.01881 38.954
187 1 4.58356 4.51353 39.3174
188 1 17.6616 5.56458 10.6735
189 1 16.0998 5.23532 15.3055
190 1 14.3693 4.84947 19.9889
191 1 12.6204 4.80289 24.6185
192 1 11.1661 4.43416 29.2975
193 1 10.2061 5.58865 31.5159
194 1 9.5619 3.93883 33.9432
195 1 8.92589 2.25783 36.0772
196 1 8.48414 5.30789 36.2423
197 1 8.49031 3.45395 38.2748
198 1 17.608 5.49776 17.6856
199 1 15.9848 5.36015 22.4739
200 1 14.4462 5.05175 26.8865
201 1 12.8238 4.71203 31.6577
202 1 11.0366 4.06787 36.4725
203 1 10.1 5.94956 38.4062
204 1 17.6581 5.66101 24.6585
205 1 16.1297 5.49089 29.2816
206 1 14.5903 4.90197 34.0195
207 1 12.4811 4.68753 39.3357
208 1 17.7399 5.49761 31.6673
209 1 16.0935 5.21212 36.4601
210 1 17.5216 5.66408 38.6512
211 2 14.7501 1.52783 102.057
212 1 15.0719 1.34317 99.2374
213 1 3.83854 0.772541 103.051
214 1 2.66465 1.34282 98.7552
215 1 1.87092 1.84075 101.454
216 2 0.868134 0.682808 96.7031
217 1 15.0789 1.39388 94.4841
218 1 6.25224 2.1178 102.773
219 1 7.15472 1.61466 100.015
220 1 1.97967 0.100679 94.5541
221 1 4.91237 2.86002 98.5499
222 2 4.58799 1.49917 100.725
223 1 4.34426 1.45441 93.597
224 1 2.2217 2.72646 95.1403
225 1 0.864897 0.760081 90.7653
226 1 3.38006 1.83661 90.7766
227 2 1.87456 1.8273 92.8313
228 1 0.946093 0.904795 88.115
229 1 8.73853 0.849749 95.4626
230 1 7.42003 1.39375 89.0129
231 1 5.16703 -0.223487 89.9896
232 1 12.0681 5.30478 103.312
233 1 3.91664 3.58614 102.389
234 1 8.5325 3.36512 101.882
235 1 6.29406 4.94398 103.118
236 2 8.38887 0.809998 102.23
237 2 6.08378 3.86909 100.848
238 1 7.55184 4.01282 98.6953
239 2 6.91793 1.61695 97.2538
240 1 5.04101 2.84659 96.0057
241 1 13.6591 2.93925 103.141
242 1 10.745 1.80098 101.547
243 1 14.5459 6.07238 98.7551
244 2 11.6633 1.60392 99.0168
245 1 10.369 3.91404 99.6632
246 1 9.34589 2.0447 98.0787
247 1 11.3275 0.720236 96.6492
248 1 7.74709 3.52894 95.7793
249 1 11.6345 3.23772 97.0177
250 2 9.50978 4.64382 97.1825
251 1 8.55796 3.59377 92.7726
252 2 9.12093 2.0152 90.688
253 1 10.5032 3.99577 90.7371
254 1 6.34671 1.94998 91.6624
255 1 8.81287 0.632572 92.8368
256 1 10.3919 3.79866 94.7194
257 1 7.58772 3.94387 89.9586
258 1 9.7812 2.71051 88.1351
259 1 13.0006 2.68939 100.556
260 2 11.1724 3.77083 102.174
261 1 12.6081 5.45727 100.528
262 2 13.3897 3.88598 98.4217
263 1 15.2679 3.9951 100.383
264 1 11.8193 5.94011 97.8627
265 1 13.7466 4.82596 95.9904
266 2 6.8596 1.65523 94.0956
267 2 5.26619 2.53234 89.2379
268 1 11.2919 5.48353 88.5773
269 1 2.77675 4.21847 99.8657
270 1 14.023 1.88997 96.7044
271 1 11.0512 2.09764 92.5984
272 1 11.7807 1.57087 90.0921
273 2 14.589 2.16353 89.316
274 1 12.4049 3.21646 87.8631
275 2 3.19447 4.05562 97.2464
276 1 16.0859 3.44859 97.9069
277 1 16.5318 5.19125 95.8093
278 2 12.7639 2.3898 94.5727
279 1 13.9238 2.17623 91.9721
280 2 14.476 6.52187 94.1418
281 1 12.4228 4.38536 92.7947
282 1 13.5461 4.19634 90.2487
283 1 15.5623 4.02119 93.5787
284 1 16.2653 3.51733 90.9707
285 1 9.69144 -0.0246097 89.1447
286 1 14.5419 5.82118 102.298
287 1 5.86658 0.154792 95.8777
288 2 17.0092 4.62141 102.267
289 1 16.6776 6.64652 100.806
290 1 5.10168 5.63726 98.7924
291 1 4.38305 6.12436 101.346
292 1 17.3117 6.11854 98.1013
293 1 16.9775 6.56642 93.3652
294 1 17.7595 6.15398 90.7173
295 1 14.9714 5.91695 91.4599
296 2 16.0746 5.24648 88.8288
297 1 5.9843 4.02565 93.6302
298 1 3.74278 5.16135 95.0264
299 1 3.07648 4.00505 92.5824
300 1 5.05255 4.5518 90.7215
301 2 4.32435 6.17561 92.7914
302 1 9.98686 6.06023 101.753
303 1 7.20264 6.1531 96.8896
304 1 7.29469 6.13258 100.558
305 1 9.32738 6.57199 98.6834
306 2 8.193 5.56611 94.4305
307 1 7.05144 6.02524 92.0502
308 1 2.9615 3.87288 88.9843
309 2 6.74765 6.26803 89.4174
310 1 10.3047 6.01147 93.0317
311 2 11.6476 6.20566 90.9097
312 1 5.6072 4.7242 87.8408
313 1 3.65004 1.23961 87.848
314 1 13.4177 0.868682 87.2304
315 2 16.9318 6.56293 84.9419
316 1 18.6159 6.75976 82.885
317 1 6.20653 2.21447 82.9009
318 1 6.37919 6.72891 83.6649
319 2 1.07176 0.835754 81.3327
320 1 4.18089 6.18376 77.0449
321 1 1.98475 0.258477 75.2246
322 1 2.19952 0.353228 78.8382
323 1 14.4222 0.151279 74.243
324 1 4.21286 1.50189 85.0618
325 2 8.94784 6.72578 82.911
326 1 6.94111 0.236771 84.7002
327 1 3.37102 2.17857 82.1364
328 1 5.45617 0.824036 80.56
329 1 2.79553 1.56847 72.7898
330 1 9.58516 0.171121 84.1264
331 2 10.2405 0.177714 81.4745
332 1 11.6881 6.18848 82.0552
333 1 7.98224 1.1291 79.9517
334 2 5.93128 2.21979 78.431
335 1 4.23053 0.876039 76.867
336 1 5.03129 0.324721 74.1601
337 1 11.1434 6.79439 77.5999
338 1 11.7847 6.42897 74.9205
339 1 6.3449 2.02947 86.8235
340 1 16.6102 2.89943 80.0788
341 2 8.66988 0.471827 86.7373
342 2 10.554 4.64583 86.2793
343 1 8.4533 2.55658 84.9932
344 1 11.9867 1.63615 83.1458
345 1 11.3297 2.09417 85.6381
346 1 10.8075 4.08497 83.7008
347 1 9.05274 2.37178 82.3381
348 1 8.41265 2.80717 77.7023
349 1 9.32534 2.22812 75.1067
350 1 6.57685 2.09117 75.6799
351 2 7.47968 1.67147 73.1165
352 1 14.9884 3.22368 87.1001
353 1 13.4739 4.1252 82.8508
354 1 13.0014 4.61292 85.507
355 2 11.6157 3.48804 80.9375
356 1 10.6188 4.32015 78.5868
357 1 17.2451 4.7978 86.7603
358 1 2.8839 4.19285 84.123
359 1 12.715 0.236345 77.6786
360 1 10.628 1.49587 79.2549
361 1 12.8294 2.77055 78.7532
362 1 9.89221 0.134463 76.8329
363 1 11.8833 0.933275 74.872
364 2 11.2369 2.33218 76.9055
365 1 1.81536 2.16683 85.6848
366 1 15.8825 5.61181 82.8895
367 2 15.5458 4.20264 84.8193
368 1 14.0311 1.95179 80.9454
369 1 14.2874 2.08525 84.6789
370 1 16.1131 2.82577 82.7506
371 2 15.1176 1.54322 78.574
372 1 13.9604 2.24915 76.2479
373 1 15.3277 4.285 77.9315
374 1 13.3719 5.41487 79.2882
375 1 9.97445 0.338463 73.0807
376 1 11.6131 3.68125 74.8871
377 2 13.5066 2.43523 73.6075
378 1 14.2302 4.85863 75.0131
379 2 12.6227 4.60092 76.9925
380 1 11.462 3.44045 72.2542
381 1 4.21616 3.22571 79.7168
382 1 1.67818 2.39487 76.997
383 1 2.94849 4.19087 73.0046
384 1 15.9011 2.82833 74.1191
385 2 3.23012 2.47416 74.9949
386 1 12.5151 0.684129 71.9613
387 1 14.9937 6.12541 86.703
388 1 4.27869 6.14202 85.8351
389 2 4.01096 3.41159 86.4717
390 2 17.8764 4.47779 81.576
391 1 16.1426 6.03924 80.2186
392 1 8.58965 5.20258 87.643
393 1 5.92879 4.06547 84.9488
394 2 7.60046 4.29157 82.9239
395 1 5.02176 4.7836 81.9927
396 1 7.10661 3.5051 80.4595
397 1 18.96 6.05836 79.9209
398 1 7.33298 6.22189 81.0914
399 2 4.64356 4.73726 74.9449
400 1 17.3419 4.79995 75.6979
401 1 4.35953 3.48417 77.1299
402 1 5.13519 5.75788 72.7373
403 1 8.58784 5.39497 84.9734
404 2 6.61902 6.39802 86.2547
405 2 17.7446 4.53315 78.3951
406 2 16.0411 5.42066 73.3282
407 1 9.59548 4.69801 81.1456
408 1 6.67967 4.90838 76.9973
409 1 7.2852 4.46591 74.437
410 2 9.67518 4.46625 73.4914
411 1 7.70198 5.73161 72.0405
412 2 8.50239 5.63222 78.8286
413 1 9.372 5.00156 76.2285
414 1 5.31968 2.9682 73.243
415 2 1.76043 0.203643 70.3877
416 1 2.14283 -0.101376 67.7558
417 1 10.2227 5.87652 71.2837
418 1 4.91856 -0.0462926 66.9917
419 1 4.20213 0.442998 69.5632
420 2 7.15669 6.11796 65.0756
421 1 2.22405 0.244161 62.8037
422 1 8.60654 0.763542 70.9077
423 1 9.48651 0.000449099 68.2382
424 1 8.41528 5.49738 62.9253
425 1 7.19669 1.54931 67.0447
426 2 6.79231 0.0904676 69.0666
427 1 6.74352 0.315096 61.8626
428 1 4.72412 1.60052 63.283
429 1 6.98193 6.35819 59.1531
430 1 5.70504 0.736693 59.0046
431 2 4.14872 0.625974 60.9464
432 1 7.10224 5.98727 56.2759
433 1 15.1139 6.1141 63.8632
434 1 9.89629 0.290478 57.2213
435 1 11.5387 5.5086 58.0763
436 1 14.2308 4.24899 72.107
437 1 6.19821 1.99513 70.6744
438 1 10.8134 2.11572 69.8767
439 1 8.72773 3.40984 71.3355
440 2 14.7028 6.15403 70.6472
441 2 8.34276 2.53075 69.0846
442 1 9.93646 2.62684 67.0807
443 2 9.20226 0.461226 65.6265
444 1 7.37938 1.6564 64.3615
445 1 15.3837 1.47665 71.7128
446 1 12.5198 0.173089 69.1103
447 1 16.7439 4.90219 67.0959
448 2 14.2015 0.324218 66.9408
449 1 12.9789 2.74222 67.7587
450 1 11.7006 0.732139 66.1792
451 1 17.7743 6.10042 64.6775
452 1 10.263 2.17861 64.0212
453 1 14.0772 2.09536 65.2393
454 2 11.8422 3.33857 65.5292
455 1 10.8689 2.26569 61.1982
456 2 11.5179 0.702195 59.1124
457 1 12.9318 2.85983 59.1482
458 1 8.99831 0.643363 59.8574
459 1 15.2768 6.07593 61.1933
460 1 12.8886 2.88215 63.1047
461 1 9.98548 2.75438 58.4227
462 1 12.0066 1.6425 56.5782
463 1 15.1547 1.33214 69.0356
464 2 13.3811 2.47742 70.4261
465 1 15.0091 4.10285 69.133
466 2 15.7539 2.60835 66.9865
467 1 2.18574 2.72897 68.8078
468 1 14.1478 4.90618 66.2403
469 1 16.4172 3.42968 64.6679
470 2 9.19189 0.514673 62.4239
471 2 7.65563 1.42456 57.6389
472 1 13.7146 4.25131 56.7909
473 1 4.86099 2.8207 68.3653
474 1 1.0382 0.551119 65.1376
475 1 13.4889 0.829566 61.04
476 1 14.0676 0.38926 58.5079
477 2 1.1575 0.403647 57.5458
478 1 14.6557 1.83746 56.1409
479 2 5.55453 2.67107 65.5208
480 1 3.12628 2.05738 66.1852
481 1 3.57477 3.88806 64.0398
482 2 15.2308 1.48127 62.9661
483 1 0.867633 0.95522 60.3149
484 2 16.8066 4.92446 62.4834
485 1 14.8318 3.37367 61.1551
486 1 15.6284 3.00218 58.4042
487 1 2.64056 2.7418 61.7781
488 1 3.09245 2.40671 59.1905
489 1 16.0984 5.36009 57.2367
490 1 16.8951 4.69526 70.9569
491 1 12.2606 5.49318 64.0738
492 2 3.87444 3.32805 70.9174
493 1 3.59337 5.32428 68.917
494 1 7.35186 4.22502 67.1152
495 1 6.65479 4.61616 69.6839
496 1 4.41561 4.79697 66.4544
497 1 4.12077 5.45812 61.7468
498 1 4.83859 4.86618 59.2546
499 1 17.3666 4.80111 59.7964
500 2 3.06898 4.11688 57.2373
501 1 8.30157 2.79832 61.9606
502 1 6.15545 4.12995 63.2569
503 1 5.46503 2.72546 60.9773
504 1 7.34651 3.48272 59.1468
505 2 6.71223 4.9317 61.1001
506 1 12.3833 4.70406 69.8531
507 1 9.46109 4.6628 65.2327
508 1 9.63448 4.55447 68.8206
509 1 11.5586 5.3955 66.8342
510 2 10.5023 4.34999 62.8283
511 1 9.47723 4.92369 60.3166
512 1 5.40068 2.89361 57.1378
513 2 8.98257 5.23107 57.7401
514 1 12.47 4.79384 61.135
515 2 14.111 5.17108 59.1685
516 1 8.01763 3.44063 56.2374
517 1 5.7031 0.23993 56.0771
518 1 4.25522 5.88479 55.382
519 2 3.6239 5.02196 53.0289
520 1 5.37148 5.09895 51.0726
521 1 8.54039 0.65601 51.1554
522 1 8.473 5.23005 51.7309
523 2 7.03225 5.57499 49.2956
524 1 6.08407 4.46685 45.2214
525 1 7.86894 5.18084 43.0655
526 1 7.96012 4.74105 47.1559
527 1 5.17845 5.13407 42.3619
528 1 6.41416 0.181501 53.0251
529 2 11.2144 5.16747 51.0516
530 1 13.1085 5.27979 52.9237
531 1 5.77087 0.719353 50.2179
532 1 11.5636 6.11978 48.5645
533 1 4.91059 -0.170575 40.8261
534 1 15.7561 5.47405 52.4591
535 2 16.3679 5.24088 49.6397
536 1 13.9048 4.81259 50.4174
537 1 14.213 6.25131 48.1437
538 2 8.35704 0.821979 46.5632
539 1 10.2583 5.45781 45.0509
540 1 10.8439 5.04198 42.5055
541 1 13.0668 4.99569 45.9578
542 1 13.7675 4.47743 43.3762
543 1 8.27596 0.363827 55.0856
544 1 3.91417 0.759734 48.0944
545 2 14.8758 5.8311 55.0262
546 2 12.6447 3.08039 54.4959
547 1 10.6553 1.14391 53.299
548 1 14.0833 -0.0480591 51.1884
549 1 13.5211 0.566165 53.8659
550 1 13.1689 2.4094 51.7969
551 1 11.2576 0.795479 50.4989
552 1 10.7126 0.676425 45.7071
553 1 11.3438 0.287514 43.1305
554 1 8.62116 0.311757 43.9652
555 2 13.4502 6.37066 41.2593
556 1 1.75428 1.64852 55.3851
557 1 15.6322 2.52263 51.0763
558 1 15.1134 3.02453 53.6739
559 2 13.6814 1.57415 49.1161
560 1 12.6563 2.41368 46.8946
561 1 4.05828 3.22006 54.9477
562 1 4.97176 2.45923 52.3539
563 1 3.53562 4.91931 45.9627
564 1 16.8119 6.31319 47.3796
565 1 15.078 0.967215 46.8938
566 1 15.9615 4.91278 45.2218
567 1 17.8423 5.39448 43.0741
568 2 13.2253 0.326969 45.0865
569 1 3.7286 0.403053 53.752
570 1 17.923 4.01876 50.9607
571 2 2.3711 2.61099 52.9525
572 1 0.946951 0.674527 49.118
573 1 0.925235 0.584577 52.9918
574 1 2.99498 1.09012 50.8722
575 2 1.8527 -0.26413 46.7495
576 1 15.7107 0.46864 44.2295
577 1 1.99968 2.24888 46.0864
578 1 15.2027 3.64891 47.9265
579 1 15.6653 5.01328 41.2095
580 1 13.5982 1.8201 42.9988
581 2 15.4485 0.653549 41.3644
582 1 16.3824 3.12179 43.2194
583 2 14.6187 2.76966 45.4227
584 1 14.3716 2.78073 40.7331
585 1 6.60291 2.19584 47.7763
586 1 3.7714 0.290982 45.2026
587 1 4.75697 2.5235 41.3541
588 1 2.71464 0.993411 42.4436
589 2 5.22821 0.564397 43.2319
590 1 12.8515 0.692513 40.7143
591 1 17.0329 4.5002 54.8629
592 1 6.2947 4.58016 53.8576
593 2 6.34159 2.24721 54.6928
594 2 4.58628 2.74713 49.6161
595 1 2.50835 3.67291 48.3082
596 1 10.9406 4.30078 55.8424
597 1 8.17406 2.77634 53.2784
598 2 9.81055 2.88285 51.2343
599 1 7.18579 3.09623 50.568
600 1 9.31117 2.05194 48.8288
601 1 4.98291 4.63952 48.3099
602 1 9.41486 4.74274 49.3144
603 2 6.59082 3.06186 43.1222
604 1 3.94478 2.90958 43.9693
605 1 6.33885 1.55801 45.1051
606 1 7.15407 3.93731 40.7288
607 1 10.7884 3.95552 53.3141
608 2 8.99534 5.05277 54.492
609 2 4.43296 2.57927 46.5347
610 2 2.38607 3.72006 40.7408
611 1 11.7652 3.368 49.4271
612 1 8.61567 3.12262 44.952
613 1 9.3058 2.57696 42.4119
614 2 11.8594 2.84772 41.6075
615 1 9.88459 4.1433 40.3995
616 2 10.3162 3.6422 46.9907
617 1 11.3223 3.05094 44.4163
618 1 7.26459 1.03595 41.5449
ITEM: TIMESTEP
18000
ITEM: NUMBER OF ATOMS
618
ITEM: BOX BOUNDS xy xz yz pp pp ff
0.0000000000000000e+00 1.9317770367296919e+01 4.0025167278329121e+00
0.0000000000000000e+00 6.6702723500479264e+00 0.0000000000000000e+00
0.0000000000000000e+00 1.0921147561319708e+02 0.0000000000000000e+00
ITEM: ATOMS id type x y z
1 1 4.22115 5.91662 5.79725
2 1 5.94377 6.0429 8.08032
3 1 4.11212 5.8581 12.9011
4 1 5.32078 0.182546 5.82262
5 1 3.34339 -0.115117 10.4573
6 1 5.898 6.39391 15.3364
7 1 4.05091 5.86879 19.9534
8 1 11.8839 6.0236 5.6612
9 1 6.83866 0.502905 8.23313
10 1 5.07294 0.341028 12.7793
11 1 7.34457 6.70402 17.5448
12 1 5.73853 6.45023 22.2817
13 1 4.16946 6.03712 26.9479
14 1 10.288 1.0832 5.44684
15 1 13.4782 6.24152 7.9727
16 1 8.60088 0.736355 10.386
17 1 11.7876 6.0838 12.8758
18 1 6.75056 0.646628 15.3957
19 1 5.03027 0.215809 20.0417
20 1 7.50114 6.79637 24.6056
21 1 5.80985 6.28202 29.1699
22 1 4.33949 6.08524 34.0113
23 1 12.92 0.280672 5.67075
24 1 12.3869 3.18609 5.57994
25 1 11.6972 1.41388 8.15467
26 1 11.1146 -0.165213 10.4935
27 1 10.8203 2.73674 10.5828
28 1 10.1701 1.18841 12.8206
29 1 13.5508 6.38329 15.3063
30 1 8.53979 1.02045 17.616
31 1 11.9428 5.90546 19.9371
32 1 6.80344 0.548434 22.3887
33 1 5.23826 0.272026 27.0696
34 1 7.48393 6.5633 31.5961
35 1 5.8838 6.21393 36.5241
36 1 15.2786 1.97296 5.89015
37 1 14.6355 0.507642 8.22817
38 1 13.8191 3.42734 8.03662
39 1 13.3912 1.77371 10.4359
40 1 12.697 0.201791 13.0034
41 1 12.2722 3.31144 12.8929
42 1 11.649 1.68377 15.1907
43 1 15.1802 6.63373 17.5206
44 1 10.7144 2.94988 17.6671
45 1 9.91481 1.30161 19.9458
46 1 13.5338 6.09522 22.3158
47 1 8.35387 0.851 24.5947
48 1 12.0456 6.03736 26.9202
49 1 6.72875 0.635045 29.2781
50 1 5.1971 0.349499 33.9442
51 1 6.40443 6.30016 39.999
52 1 2.62615 1.09697 5.62774
53 1 17.3467 4.02162 5.80424
54 1 16.6399 2.48061 8.2621
55 1 16.0376 0.870739 10.6892
56 1 15.4996 3.65781 10.5351
57 1 14.8674 2.00428 13.0482
58 1 14.4658 0.582543 15.3491
59 1 13.9673 3.52976 15.2243
60 1 13.2747 1.81543 17.504
61 1 12.6236 0.193293 19.946
62 1 12.3543 2.99358 20.0248
63 1 11.5634 1.4406 22.2296
64 1 15.0283 6.61568 24.7111
65 1 10.6975 2.79092 24.5574
66 1 10.1185 1.23887 26.9428
67 1 13.6315 6.10363 29.1814
68 1 8.4621 0.936263 31.4778
69 1 11.9135 6.02913 33.8677
70 1 6.96708 0.734397 36.2454
71 1 4.69229 2.99106 5.85705
72 1 4.11954 1.32033 8.30782
73 1 3.66751 4.11402 8.18511
74 1 2.95905 2.77718 10.4632
75 1 2.45207 1.04475 12.8404
76 1 17.1426 3.94785 12.7814
77 1 16.7073 2.48214 15.0718
78 1 0.68698 0.990718 17.5544
79 1 15.5794 3.58299 17.5761
80 1 14.9352 2.0279 19.7233
81 1 14.2949 0.457032 22.2275
82 1 13.9236 3.42745 22.1823
83 1 13.3399 1.69349 24.5446
84 1 12.7804 0.211707 26.782
85 1 12.485 3.06408 26.8603
86 1 11.7578 1.51596 29.0533
87 1 15.1174 6.86854 31.7267
88 1 10.7835 2.88405 31.4863
89 1 10.0697 1.21275 33.9237
90 1 13.5279 6.51799 36.3459
91 1 8.47922 0.854128 38.8049
92 1 7.63689 2.10418 5.64216
93 1 6.93119 4.90766 5.70636
94 1 6.46615 3.25649 8.36765
95 1 5.82765 1.85835 10.524
96 1 5.26433 4.52196 10.6097
97 1 4.46251 3.02594 12.7736
98 1 3.96584 1.62828 15.2495
99 1 3.61568 4.35295 15.2794
100 1 3.03607 2.91083 17.7336
101 1 2.39103 1.29613 20.0418
102 1 16.9853 4.04767 19.8915
103 1 16.4758 2.37671 22.3055
104 1 0.800051 0.771147 24.6728
105 1 15.5118 3.7515 24.6211
106 1 15.1139 2.05258 26.8824
107 1 14.4139 0.597439 29.1866
108 1 13.9121 3.41033 29.2466
109 1 13.4523 1.94198 31.4514
110 1 12.7665 0.281451 33.9477
111 1 12.4208 3.14815 33.813
112 1 11.6299 1.62671 36.2405
113 1 11.0497 0.000362304 38.8034
114 1 11.2104 2.78241 38.866
115 1 9.66981 3.96517 5.35537
116 1 9.09008 2.59343 7.9059
117 1 8.58448 5.36172 8.39775
118 1 8.07229 3.65827 10.6259
119 1 7.43422 2.26995 12.8264
120 1 6.90108 5.1152 12.8463
121 1 6.35895 3.54044 15.2341
122 1 5.73681 1.79432 17.7255
123 1 5.10242 4.84105 17.5538
124 1 4.58209 3.15717 19.9741
125 1 4.08381 1.64851 22.301
126 1 3.43771 4.36427 22.2249
127 1 2.90572 2.84526 24.6725
128 1 2.45055 1.22617 26.9809
129 1 17.2603 4.21151 26.8965
130 1 16.5305 2.4555 29.2519
131 1 0.735895 0.907284 31.7445
132 1 15.6655 3.7188 31.6468
133 1 14.9266 2.16644 33.8904
134 1 14.5176 0.481979 36.1698
135 1 14.0546 3.45786 36.0684
136 1 13.4616 1.96556 38.2687
137 1 11.1375 4.33168 8.30888
138 1 10.2751 5.64981 10.59
139 1 9.58427 4.00801 12.837
140 1 9.03543 2.51211 15.2679
141 1 8.55502 5.27068 15.2923
142 1 7.75415 3.69974 17.5331
143 1 7.32537 2.25459 19.938
144 1 6.739 5.16261 19.8857
145 1 6.19643 3.475 22.3099
146 1 5.58986 1.79348 24.5645
147 1 5.15586 4.59918 24.7498
148 1 4.81942 3.1003 27.1268
149 1 3.91933 1.52474 29.4256
150 1 3.58368 4.36358 29.1869
151 1 2.98868 2.87842 31.5117
152 1 2.50359 1.14713 33.9013
153 1 17.279 4.19816 34.0495
154 1 1.44029 2.34634 36.1832
155 1 15.722 0.837663 38.8541
156 1 15.9978 3.5555 38.5851
157 1 14.6602 4.8515 5.77987
158 1 12.8964 4.7473 10.3738
159 1 11.2041 4.54694 15.2926
160 1 10.1921 5.75095 17.6988
161 1 9.50431 4.18429 19.9671
162 1 8.9002 2.51901 22.249
163 1 8.47522 5.40603 22.3586
164 1 8.00761 3.80811 24.5107
165 1 7.45267 2.0421 26.9586
166 1 7.04966 4.94142 27.0069
167 1 6.39402 3.36394 29.2847
168 1 5.60526 1.9344 31.5918
169 1 5.22343 4.91691 31.5814
170 1 4.67502 3.17169 33.9024
171 1 4.19847 1.46876 36.1913
172 1 3.58891 4.0521 36.3488
173 1 3.32802 2.24541 38.7412
174 1 16.1785 5.34458 8.33676
175 1 14.4735 5.04808 12.9423
176 1 12.8613 4.75058 17.5789
177 1 11.3237 4.29564 22.0679
178 1 10.1735 5.4822 24.5087
179 1 9.67866 4.0425 26.8875
180 1 9.09726 2.51175 29.2751
181 1 8.65282 5.34563 29.4176
182 1 7.96388 3.75144 31.5891
183 1 7.32323 2.17002 33.8077
184 1 7.01051 4.97655 33.8989
185 1 6.47294 3.49013 36.4823
186 1 5.9993 1.91634 38.7245
187 1 4.82054 4.52437 39.0627
188 1 17.9515 5.50918 10.5482
189 1 16.3034 5.27345 15.3007
190 1 14.4542 5.13857 19.9863
191 1 12.8477 4.58248 24.6811
192 1 11.3407 4.46441 29.1729
193 1 10.2457 5.67837 31.6024
194 1 9.79452 4.08003 33.7905
195 1 9.1095 2.60763 35.8992
196 1 8.64559 5.36065 36.3452
197 1 8.58492 3.60764 38.1902
198 1 17.7196 5.61128 17.6796
199 1 16.0805 5.26154 22.3254
200 1 14.5629 4.96919 26.8947
201 1 13.0078 4.74758 31.5726
202 1 11.5177 4.4289 36.1889
203 1 10.5358 5.68795 38.4309
204 1 17.8026 5.65643 24.5939
205 1 16.2563 5.35176 29.3091
206 1 14.5767 5.07842 33.8951
207 1 13.1602 4.85551 38.8729
208 1 17.7111 5.61042 31.5576
209 1 16.1251 5.39004 36.2602
210 1 17.63 5.71186 38.417
211 2 14.5317 1.17481 102.223
212 1 14.9986 1.0315 99.399
213 1 3.42907 0.41543 103.443
214 1 2.3218 0.997564 98.9646
215 1 1.62707 1.53695 101.446
216 2 0.649482 0.482246 96.8471
217 1 14.9313 1.42657 94.5333
218 1 5.84998 1.78017 102.871
219 1 6.69716 1.28299 100.231
220 1 2.04512 0.207195 94.6704
221 1 4.49869 2.51281 98.9361
222 2 4.25738 1.16426 101.149
223 1 4.2609 1.49035 93.769
224 1 2.1593 2.95456 95.0919
225 1 0.557435 0.899104 90.7392
226 1 3.31807 1.97518 90.8785
227 2 1.62475 1.94043 92.8813
228 1 1.10041 1.30797 88.1695
229 1 8.27139 0.384442 95.7811
230 1 7.42555 1.5311 89.1114
231 1 5.21588 0.168403 89.9504
232 1 11.7951 4.926 103.562
233 1 3.59832 3.15758 102.56
234 1 8.33399 2.93027 102.177
235 1 6.05938 4.53538 103.325
236 2 8.20019 0.345413 102.335
237 2 5.76523 3.61475 100.991
238 1 7.24407 3.54308 98.806
239 2 6.59543 1.59487 97.6373
240 1 4.93731 3.02364 96.119
241 1 13.2414 2.45863 103.561
242 1 10.444 1.34001 101.796
243 1 14.2628 5.72471 98.9046
244 2 11.289 1.30745 99.2758
245 1 10.1017 3.56831 99.9475
246 1 9.01379 1.70293 98.1503
247 1 10.98 0.467202 96.8158
248 1 8.02796 3.06176 95.774
249 1 11.3982 3.01633 97.1905
250 2 9.37877 4.39398 97.4039
251 1 8.32641 3.4975 92.9868
252 2 9.07221 1.95131 91.151
253 1 10.3132 4.23501 91.1884
254 1 6.34501 2.08409 91.7453
255 1 8.6359 0.606978 93.072
256 1 10.6043 4.31811 95.0039
257 1 7.61892 4.04437 90.1764
258 1 9.75088 3.06444 88.8519
259 1 12.7132 2.28267 100.87
260 2 10.842 3.35664 102.575
261 1 12.3101 4.85236 100.847
262 2 13.2906 3.40182 98.7592
263 1 14.931 3.71386 100.632
264 1 11.4491 5.6889 98.2406
265 1 13.5198 4.62512 96.3847
266 2 6.72391 1.69094 94.312
267 2 5.28224 2.83012 89.3774
268 1 11.1747 5.46883 88.4942
269 1 2.36627 3.98143 99.887
270 1 13.6394 1.65795 96.8253
271 1 10.8523 2.20328 93.0529
272 1 11.7146 1.66743 90.2964
273 2 14.4174 2.27628 89.456
274 1 12.3797 3.19433 88.1018
275 2 3.02073 3.99249 97.235
276 1 15.7838 3.29124 97.9907
277 1 16.4909 5.34681 95.8188
278 2 12.5521 2.44653 94.7502
279 1 13.6517 2.26004 92.0702
280 2 14.4607 6.46509 94.4366
281 1 12.5432 4.65566 92.8562
282 1 13.2543 4.35327 90.3256
283 1 15.28 4.07061 93.7992
284 1 16.0674 3.67654 91.1041
285 1 13.6259 6.87498 89.3871
286 1 14.5162 5.37061 102.796
287 1 5.49285 0.116442 96.0259
288 2 16.797 4.19016 102.604
289 1 16.4972 6.23913 100.954
290 1 4.83121 5.17224 98.9429
291 1 4.17904 5.67038 101.588
292 1 17.1005 6.08769 98.2727
293 1 16.9245 6.68559 93.5853
294 1 17.4933 6.22016 90.8765
295 1 14.8969 6.07472 91.6966
296 2 15.7497 5.34575 89.0161
297 1 5.76527 4.2215 93.613
298 1 3.79071 5.39161 95.051
299 1 3.00783 4.00313 92.6717
300 1 4.89357 4.66556 90.8492
301 2 4.214 6.2047 92.7438
302 1 9.73528 5.75086 102.14
303 1 6.98295 5.56543 96.9586
304 1 7.03728 5.71521 100.9
305 1 8.82791 6.36252 98.9168
306 2 8.05184 5.35722 94.6832
307 1 6.97894 6.11609 92.0944
308 1 2.82283 4.00967 89.0963
309 2 6.57088 6.53453 89.6192
310 1 9.96715 6.14047 93.0935
311 2 11.5733 6.41555 91.0573
312 1 5.43803 5.03916 88.031
313 1 3.78342 1.44214 87.921
314 1 13.5628 1.01905 87.5816
315 2 13.0437 0.194313 85.0093
316 1 14.4877 0.352267 82.9669
317 1 6.41704 2.47926 83.1146
318 1 2.44627 0.296507 83.8386
319 2 1.18959 0.949684 81.42
320 1 4.13942 6.31952 77.0434
321 1 2.08135 0.301171 75.248
322 1 2.1078 0.183787 78.9434
323 1 14.6154 0.379965 74.3069
324 1 4.39474 1.76889 85.1726
325 2 5.01221 0.393956 83.0863
326 1 6.89635 0.357177 85.2027
327 1 3.62309 2.44975 82.3937
328 1 5.51063 1.26648 80.6739
329 1 2.67595 1.6354 72.8249
330 1 9.64087 0.466069 84.3969
331 2 13.9457 6.6306 81.6511
332 1 11.5247 6.81415 82.4507
333 1 8.11741 1.37784 80.1404
334 2 6.27579 2.77774 78.569
335 1 4.23343 0.706825 76.9789
336 1 4.85401 0.244492 74.3137
337 1 7.0435 0.0298787 77.9129
338 1 11.6903 6.42251 75.1327
339 1 6.36822 2.66126 86.9877
340 1 16.8329 3.03578 80.0211
341 2 8.75692 1.1455 86.9775
342 2 10.2008 4.04482 86.4761
343 1 8.47807 2.81537 84.9335
344 1 12.0903 1.87983 82.9916
345 1 11.4692 2.26029 85.6103
346 1 10.9231 4.28019 83.8337
347 1 9.30854 2.59052 82.3047
348 1 8.62818 2.59945 77.6097
349 1 9.29958 2.27382 75.0506
350 1 6.6128 2.13523 75.8175
351 2 7.58773 1.65564 73.1969
352 1 15.0349 3.56941 87.3003
353 1 13.6248 4.39711 83.193
354 1 12.9325 4.79688 85.8934
355 2 11.8546 3.79588 81.2196
356 1 10.4561 4.19254 78.7811
357 1 17.1217 4.96968 86.8549
358 1 2.92054 4.51603 84.2578
359 1 12.8617 0.309049 77.9194
360 1 10.5398 1.30339 79.3974
361 1 12.8748 2.97197 78.8939
362 1 9.79604 0.181386 76.8752
363 1 11.8969 0.695435 74.9003
364 2 11.3028 2.2583 76.9631
365 1 1.89626 2.34022 85.7534
366 1 15.8961 5.84888 82.8956
367 2 15.455 4.40222 84.9916
368 1 14.1586 2.3339 81.1286
369 1 14.2981 2.21698 85.1319
370 1 16.1273 3.0423 82.9228
371 2 15.059 1.80316 78.5435
372 1 13.9552 2.40445 76.3057
373 1 15.2079 4.40783 77.6368
374 1 13.102 5.52372 79.3193
375 1 9.95234 0.324724 73.1533
376 1 11.6066 3.68536 74.9702
377 2 13.4806 2.5352 73.6779
378 1 14.2075 4.84045 74.8827
379 2 12.5813 4.63515 77.0298
380 1 11.2359 3.00241 72.2347
381 1 4.42002 3.78125 79.9041
382 1 1.6959 2.43351 77.2096
383 1 3.00294 4.39924 73.1681
384 1 16.1201 2.80932 74.3758
385 2 3.28761 2.54555 75.107
386 1 12.8116 0.400202 72.0324
387 1 14.9465 6.44984 86.6767
388 1 4.31707 6.30413 85.8414
389 2 3.91304 3.69899 86.5911
390 2 17.7608 4.6722 81.6795
391 1 15.7822 5.58903 80.2882
392 1 8.44235 5.19751 87.873
393 1 5.92078 4.44196 84.9644
394 2 7.60777 4.71745 83.1127
395 1 4.92856 5.07111 82.2472
396 1 7.25156 3.80426 80.7533
397 1 18.6932 6.40485 80.0073
398 1 7.3472 6.5097 81.2414
399 2 4.67 4.80561 75.0002
400 1 17.2858 5.02052 75.7005
401 1 4.26836 3.41453 77.1596
402 1 5.22148 5.75991 72.7126
403 1 8.60297 5.4284 85.1305
404 2 6.64942 6.59246 86.3914
405 2 17.7646 4.74491 78.3385
406 2 16.0335 5.30571 73.4567
407 1 9.74426 5.10073 81.3303
408 1 6.55434 4.79277 76.8334
409 1 7.26751 4.46484 74.2733
410 2 9.62707 4.37254 73.5532
411 1 7.87347 5.82532 72.0934
412 2 8.5063 5.60787 79.014
413 1 9.27774 4.96622 76.2385
414 1 5.25708 2.84462 73.2432
415 2 1.94648 0.618009 70.6553
416 1 6.04308 6.65541 67.9467
417 1 10.355 5.67853 71.4614
418 1 8.78773 6.59749 67.1318
419 1 4.16728 0.487181 69.6887
420 2 6.99528 6.03487 65.1968
421 1 1.88397 0.137163 62.7016
422 1 8.48448 0.606668 70.9526
423 1 13.4365 6.57266 68.2873
424 1 8.1675 5.35491 62.8839
425 1 7.00978 1.45407 67.0458
426 2 10.787 6.70409 69.0769
427 1 6.45613 0.10437 61.9102
428 1 4.45175 1.44124 63.375
429 1 6.94124 6.11194 58.912
430 1 5.52748 0.581896 58.7644
431 2 4.00578 0.45384 60.9599
432 1 6.81493 5.72099 56.2123
433 1 14.6822 5.59438 63.8762
434 1 9.67242 0.0972306 57.1715
435 1 11.257 5.36286 58.1883
436 1 13.8973 4.41858 72.1244
437 1 6.09576 1.93544 70.7459
438 1 10.6728 2.07702 69.8021
439 1 8.533 3.21527 71.3395
440 2 14.6828 6.13861 70.7798
441 2 8.13618 2.36274 69.0633
442 1 9.65796 2.54031 67.0477
443 2 8.9666 0.343458 65.7565
444 1 7.39618 1.67846 64.3916
445 1 15.3924 1.92394 71.8295
446 1 16.492 6.70146 69.1628
447 1 16.8247 4.6295 67.1295
448 2 14.0938 0.133137 67.0634
449 1 12.8382 2.43293 67.8004
450 1 11.4769 0.611493 66.2566
451 1 17.4783 5.97301 64.7088
452 1 10.2023 1.82596 64.0876
453 1 13.8481 2.00328 65.2661
454 2 11.6253 3.23616 65.4329
455 1 10.6495 2.11515 61.0928
456 2 11.2946 0.667526 59.1204
457 1 12.6308 2.83268 59.2251
458 1 8.72042 0.526821 59.7069
459 1 15.1058 5.94249 61.2705
460 1 12.7023 2.9447 63.0154
461 1 9.77692 2.751 58.2977
462 1 11.8769 1.56238 56.8424
463 1 15.0864 1.07713 69.184
464 2 13.2095 2.3677 70.5449
465 1 14.9166 3.9266 69.159
466 2 15.3802 2.49647 67.0563
467 1 2.06716 2.54763 69.0489
468 1 13.8462 4.60081 66.2202
469 1 16.0646 3.37402 64.8174
470 2 8.93828 0.308244 62.4477
471 2 7.52988 1.18865 57.4899
472 1 13.4414 4.09656 56.6379
473 1 4.95288 2.81923 68.4298
474 1 0.81745 0.527711 65.2531
475 1 13.339 0.857443 61.0942
476 1 13.9795 0.37392 58.419
477 2 1.07111 0.241105 57.5692
478 1 14.4659 1.56513 56.0616
479 2 5.44125 2.63353 65.5787
480 1 2.95748 2.19763 66.3512
481 1 3.34252 3.72198 64.0535
482 2 15.0518 1.44262 62.934
483 1 0.758357 0.964071 60.2631
484 2 16.6966 4.69538 62.4406
485 1 14.7933 3.29411 60.9185
486 1 15.5579 2.91706 58.1243
487 1 2.51487 2.6038 61.6563
488 1 3.17709 2.17727 58.9498
489 1 15.9774 5.49504 57.3775
490 1 16.9128 4.46642 71.0519
491 1 11.8263 5.47462 64.1305
492 2 3.97384 3.33701 71.0385
493 1 3.57055 5.10687 69.0338
494 1 7.32607 4.19124 67.2237
495 1 6.50279 4.6824 69.8785
496 1 4.44634 4.84362 66.3654
497 1 3.77173 5.18715 61.5984
498 1 4.65916 4.82937 59.1051
499 1 17.1974 4.52648 59.6869
500 2 2.88463 4.10617 57.1002
501 1 8.07323 2.6717 61.9131
502 1 5.95334 3.92438 63.3483
503 1 5.16494 2.61175 60.845
504 1 7.19125 3.28005 59.0892
505 2 6.51274 4.77868 61.0985
506 1 12.2077 4.53265 69.8629
507 1 9.18683 4.53957 65.2023
508 1 9.44071 4.57934 68.949
509 1 11.3502 5.32271 66.9728
510 2 10.2731 4.02356 62.7118
511 1 9.16572 4.83464 60.2737
512 1 5.25878 2.75922 57.0525
513 2 8.77477 5.00119 57.6812
514 1 12.3739 4.90849 61.2793
515 2 13.7836 5.02104 58.995
516 1 7.95986 3.21971 56.0325
517 1 5.72238 -0.00563726 55.9786
518 1 4.2365 5.8268 55.1955
519 2 3.92775 4.88708 52.9141
520 1 5.35229 5.11683 50.8394
521 1 8.33621 0.628218 51.1491
522 1 8.53882 5.08427 51.8294
523 2 7.20786 5.71613 49.368
524 1 6.13957 4.48797 44.9884
525 1 8.14816 5.06942 42.6769
526 1 8.05011 4.6737 46.9
527 1 5.11505 4.93192 42.1307
528 1 6.48203 0.0318109 53.0085
529 2 11.0036 5.06725 51.0031
530 1 13.0091 5.3323 52.9645
531 1 5.52339 0.391183 50.0937
532 1 11.537 6.08836 48.5612
533 1 9.0197 6.83247 40.5524
534 1 15.7158 5.30061 52.3108
535 2 16.1301 4.69251 49.6121
536 1 13.7445 4.76051 50.4272
537 1 14.2672 5.94329 47.9938
538 2 8.46062 0.775943 46.4877
539 1 10.2466 5.49477 45.0558
540 1 11.0275 5.206 42.4721
541 1 13.1869 4.85176 45.66
542 1 13.9182 4.60196 43.0518
543 1 8.28752 0.287946 55.0012
544 1 3.95128 0.95345 47.9721
545 2 14.8321 5.81247 54.9514
546 2 12.5355 2.69765 54.4665
547 1 10.5339 0.927025 52.9711
548 1 14.3669 -0.00202189 51.0055
549 1 13.5602 0.339187 53.5351
550 1 13.1059 2.36772 51.7567
551 1 11.3736 0.610792 50.1725
552 1 10.8421 0.728905 45.6925
553 1 11.4815 0.415476 43.0662
554 1 8.66921 0.33539 43.8669
555 2 13.4687 6.51645 41.0544
556 1 1.75696 1.71897 55.4973
557 1 15.92 2.64035 51.0217
558 1 15.1106 2.88085 53.7502
559 2 14.2061 1.94434 49.1109
560 1 12.8107 2.3748 46.6955
561 1 3.95674 3.05368 54.8955
562 1 5.16253 2.51804 52.2368
563 1 3.58703 5.05146 45.8459
564 1 16.8983 6.19549 47.5969
565 1 15.1039 1.01705 46.8138
566 1 16.0741 4.86567 45.1059
567 1 17.8037 5.46099 42.9983
568 2 13.3073 0.437038 44.9697
569 1 3.92962 0.412396 53.8662
570 1 2.81242 3.96575 50.9372
571 2 2.3818 2.60093 53.0366
572 1 1.19324 0.84521 49.0382
573 1 1.23473 0.502355 52.907
574 1 3.03887 1.07124 50.9754
575 2 5.87843 6.36229 46.6219
576 1 0.606292 0.413175 43.9948
577 1 2.1322 2.24297 45.8595
578 1 15.2065 3.65662 47.2443
579 1 15.8152 5.16877 40.8923
580 1 13.7516 1.80185 42.8591
581 2 15.6417 0.662654 41.2448
582 1 16.4311 3.11174 43.0605
583 2 14.809 2.68383 44.928
584 1 14.4019 3.04293 40.7192
585 1 6.70088 2.04965 47.7426
586 1 3.78944 0.216477 45.0745
587 1 4.48641 2.56047 41.2609
588 1 2.7789 0.896122 42.4928
589 2 5.41167 0.642109 43.1275
590 1 13.0998 0.702951 40.6107
591 1 17.0466 4.65827 54.6905
592 1 6.33459 4.43773 53.8289
593 2 6.18829 1.95866 54.6609
594 2 4.71893 2.72689 49.7531
595 1 2.6296 3.52443 48.0826
596 1 10.7255 3.92329 55.7226
597 1 8.17056 2.49781 53.1132
598 2 9.75712 2.68215 51.0801
599 1 7.188 3.08712 50.2295
600 1 9.4122 1.7414 48.7278
601 1 5.2004 4.57971 48.2072
602 1 9.4088 4.40555 49.1293
603 2 6.78839 2.93989 42.9915
604 1 3.99513 3.04361 43.9069
605 1 6.40889 1.64775 45.126
606 1 7.1009 3.63813 40.5975
607 1 10.7557 3.77415 53.0812
608 2 8.80798 4.92124 54.455
609 2 4.62789 2.76973 46.3914
610 2 2.63653 3.91297 40.6075
611 1 11.7583 3.10329 49.2698
612 1 8.74059 3.05364 44.872
613 1 9.5215 2.59563 42.4026
614 2 11.9522 3.00917 41.3711
615 1 9.77525 4.2492 40.4509
616 2 10.4368 3.42807 46.7807
617 1 11.526 3.0933 44.2943
618 1 7.38144 1.08463 41.3382
ITEM: TIMESTEP
19000
ITEM: NUMBER OF ATOMS
618
ITEM: BOX BOUNDS xy xz yz pp pp ff
0.0000000000000000e+00 1.9317770367296919e+01 4.0025167278329121e+00
0.0000000000000000e+00 6.6702723500479264e+00 0.0000000000000000e+00
0.0000000000000000e+00 1.0921147561319708e+02 0.0000000000000000e+00
ITEM: ATOMS id type x y z
1 1 4.67657 6.00733 6.04129
2 1 6.05711 6.46547 8.63771
3 1 4.47586 6.06554 13.2278
4 1 5.64857 0.294677 6.32812
5 1 3.77556 -0.0481315 10.9044
6 1 6.16121 6.27238 15.446
7 1 4.46661 6.0597 20.3026
8 1 12.1469 5.88768 6.33789
9 1 7.10614 0.46427 8.75647
10 1 5.49513 0.218277 13.3234
11 1 7.83823 6.47176 17.8814
12 1 6.06454 6.17846 22.4953
13 1 4.33898 6.02134 27.2395
14 1 10.5429 1.03009 6.36769
15 1 13.8082 6.18856 8.75944
16 1 8.89203 0.853238 11.0533
17 1 12.3195 5.75103 13.4291
18 1 6.99409 0.441546 15.552
19 1 5.43709 0.309078 20.269
20 1 7.60842 6.39006 24.8389
21 1 6.09766 6.25482 29.4743
22 1 3.98294 5.93198 34.0063
23 1 13.3032 0.518927 6.25476
24 1 12.5571 3.2563 6.14561
25 1 12.1136 1.5916 8.75734
26 1 11.6925 -0.0328645 11.0489
27 1 11.1954 2.60303 11.1632
28 1 10.4543 1.08649 13.4685
29 1 13.9396 6.19042 15.6843
30 1 8.76055 0.709512 18.0254
31 1 12.0024 5.92685 20.3494
32 1 6.98213 0.29469 22.6154
33 1 5.0327 0.108218 27.1462
34 1 3.42961 -0.153594 31.8506
35 1 6.14177 6.24749 37.0979
36 1 15.4097 2.33812 6.20217
37 1 14.7022 0.51862 8.52614
38 1 14.4181 3.57349 8.57161
39 1 13.9725 1.97941 11.0921
40 1 13.1188 0.448153 13.5039
41 1 12.8262 3.06057 13.3974
42 1 12.1598 1.54991 15.7911
43 1 15.4627 6.53392 17.9458
44 1 11.0547 2.63864 17.999
45 1 10.2645 1.07211 20.1203
46 1 13.8216 6.16274 22.704
47 1 8.62863 0.793459 24.8224
48 1 11.851 6.00535 27.2839
49 1 6.8705 0.49161 29.5539
50 1 5.34394 0.187603 34.0016
51 1 6.20624 6.2548 40.1626
52 1 2.85748 1.36659 6.26963
53 1 17.7975 4.28159 6.38036
54 1 1.70837 2.58706 8.62718
55 1 1.08483 0.868855 10.9596
56 1 15.9977 3.92254 11.0713
57 1 15.4737 2.34765 13.2294
58 1 14.7983 0.607121 15.5867
59 1 14.4538 3.44622 15.6447
60 1 13.7247 1.74685 18.1027
61 1 13.0602 0.0859698 20.3285
62 1 12.5504 3.03969 20.5271
63 1 11.8663 1.47478 22.5404
64 1 15.2763 6.57686 24.8958
65 1 10.7693 2.65933 24.9056
66 1 10.0722 1.20727 27.275
67 1 13.5625 6.3098 29.568
68 1 8.37823 0.744577 31.7751
69 1 12.1884 5.99906 34.1087
70 1 6.93821 0.650609 36.6516
71 1 5.14538 3.06527 6.25404
72 1 4.37942 1.58634 8.59959
73 1 4.02242 4.4092 8.66358
74 1 3.41072 2.86552 11.0488
75 1 2.76619 1.18004 13.1997
76 1 17.4982 4.11623 13.4039
77 1 1.76231 2.42157 15.5921
78 1 1.08468 0.746215 17.9
79 1 15.8432 3.60221 17.9151
80 1 15.4108 2.01416 20.317
81 1 14.7321 0.347763 22.5462
82 1 14.2948 3.47401 22.5838
83 1 13.5815 1.68758 24.8965
84 1 12.9422 0.134547 27.1231
85 1 12.3701 2.96564 27.2245
86 1 11.7016 1.56789 29.4526
87 1 11.1621 -0.0226839 31.7948
88 1 10.7201 2.72686 31.8383
89 1 10.171 1.30401 34.1893
90 1 13.561 6.44935 36.5389
91 1 8.61739 1.38882 39.0056
92 1 7.84268 2.22644 6.13892
93 1 7.25616 5.01265 6.42227
94 1 6.61936 3.44697 8.91029
95 1 6.01914 1.6896 11.0658
96 1 5.5968 4.67303 10.8843
97 1 5.00661 3.01244 13.204
98 1 4.36881 1.55162 15.4873
99 1 4.0641 4.26591 15.6412
100 1 3.25762 2.66304 18.0029
101 1 2.78147 1.2284 20.3717
102 1 17.5745 4.04865 20.3791
103 1 1.61797 2.50708 22.6324
104 1 0.941383 0.895744 24.8667
105 1 15.7856 3.68815 24.8237
106 1 15.0805 2.17664 27.1472
107 1 14.5451 0.579769 29.5023
108 1 13.958 3.42885 29.4719
109 1 13.3428 1.88075 31.7142
110 1 12.7421 0.486064 33.9428
111 1 12.5185 3.28971 34.1703
112 1 11.8798 1.62865 36.2491
113 1 11.1649 0.185085 38.8726
114 1 11.2672 2.91276 38.8407
115 1 9.894 3.87466 6.2943
116 1 9.31083 2.36366 8.63731
117 1 9.09953 5.45761 8.64979
118 1 8.47778 3.73985 10.9152
119 1 7.64832 2.04215 13.256
120 1 7.28887 4.95049 13.2079
121 1 6.68051 3.40854 15.5434
122 1 5.95201 1.86577 17.8204
123 1 5.50415 4.66396 17.9237
124 1 4.91707 2.95158 20.3399
125 1 4.21712 1.3539 22.8158
126 1 3.9022 4.38587 22.4684
127 1 3.2509 2.8569 24.9628
128 1 2.51926 1.29717 27.1465
129 1 17.4259 4.11804 27.1174
130 1 1.32809 2.45879 29.4723
131 1 0.837316 0.87966 31.8458
132 1 15.6461 3.71017 31.7342
133 1 15.155 1.96196 34.1823
134 1 14.6569 0.573348 36.3076
135 1 14.2938 3.55009 36.2539
136 1 13.4119 1.9689 38.3891
137 1 11.674 4.29106 8.71145
138 1 10.6659 5.56557 11.1123
139 1 10.0119 3.73853 13.2246
140 1 9.33915 2.31031 15.79
141 1 8.81457 5.18722 15.6952
142 1 8.29473 3.63509 17.9995
143 1 7.63926 2.14987 20.2638
144 1 7.08391 4.87956 20.2705
145 1 6.45122 3.24608 22.5863
146 1 5.8632 1.65382 24.9416
147 1 5.35647 4.71766 24.8583
148 1 4.77818 2.99881 27.2034
149 1 4.14228 1.44425 29.557
150 1 3.76652 4.27148 29.4974
151 1 3.14688 2.68973 31.936
152 1 2.65759 0.968997 34.3931
153 1 17.3479 3.86633 33.9803
154 1 1.56684 2.39127 36.4969
155 1 15.518 0.680176 38.8584
156 1 15.8112 3.57275 38.6533
157 1 14.9958 5.06653 6.16047
158 1 13.2679 4.72243 11.031
159 1 11.6603 4.29518 15.7468
160 1 10.4925 5.58743 17.9838
161 1 9.78329 4.04505 20.2852
162 1 9.17062 2.3193 22.6048
163 1 8.63853 5.19413 22.521
164 1 8.05997 3.69547 24.8206
165 1 7.56662 2.14645 27.1873
166 1 6.89993 4.9046 27.272
167 1 6.21796 3.29702 29.4119
168 1 5.75471 1.90074 31.7805
169 1 5.15806 4.66552 32.0722
170 1 4.73902 3.18549 34.2423
171 1 4.3794 1.64586 36.5053
172 1 3.76907 4.47748 36.5217
173 1 2.9792 1.90417 38.9047
174 1 16.5066 5.38344 8.76077
175 1 14.8578 5.11562 13.2878
176 1 13.2535 4.65503 18.1139
177 1 11.2012 4.17485 22.5911
178 1 10.3964 5.40287 24.8034
179 1 9.69061 4.07945 27.1803
180 1 8.98499 2.38171 29.6251
181 1 8.51429 5.05511 29.556
182 1 7.9724 3.58543 31.7984
183 1 7.32994 2.04921 34.1445
184 1 6.89827 4.99763 34.0813
185 1 6.42534 3.55628 36.5158
186 1 5.7944 1.82087 38.7372
187 1 4.4434 4.31084 39.2251
188 1 18.2315 5.66098 11.0049
189 1 16.6186 5.36056 15.6526
190 1 14.8399 4.89552 20.2258
191 1 13.0771 4.51685 24.9339
192 1 11.2705 4.42592 29.4763
193 1 10.2593 5.66015 31.9508
194 1 9.84607 4.07936 34.1431
195 1 9.25411 2.77027 36.4535
196 1 8.50237 5.6269 36.1538
197 1 8.27341 4.55645 38.4049
198 1 18.0445 5.47399 17.9052
199 1 16.4005 5.30573 22.5827
200 1 14.6774 4.86826 27.1662
201 1 12.9975 4.7292 31.7809
202 1 11.3794 4.66188 36.4792
203 1 11.0205 5.88384 39.0842
204 1 18.2053 5.70915 24.8938
205 1 16.2479 5.32519 29.5871
206 1 14.8172 5.02327 33.9506
207 1 13.448 4.7833 38.9218
208 1 17.8837 5.48271 31.6517
209 1 16.2194 5.31538 36.1566
210 1 17.5692 5.70269 38.6679
211 2 14.546 1.48062 102.013
212 1 14.9982 1.24137 99.3036
213 1 3.61727 0.721481 103.001
214 1 2.40576 1.40575 98.6147
215 1 1.75911 1.79861 101.202
216 2 0.616671 0.629198 96.6917
217 1 14.9481 1.629 94.3683
218 1 5.94517 1.92847 102.485
219 1 6.95195 1.6832 99.8976
220 1 1.96586 0.144408 94.5171
221 1 4.72104 2.78267 98.4554
222 2 4.33355 1.4312 100.631
223 1 4.18692 1.52415 93.6941
224 1 2.21392 2.92988 95.0669
225 1 0.592369 0.968054 90.63
226 1 3.37989 2.17372 90.681
227 2 1.74563 1.83614 92.668
228 1 0.824134 0.991563 87.9694
229 1 8.3974 0.646751 95.5027
230 1 7.21717 1.48934 88.9258
231 1 5.08681 0.0143023 89.8977
232 1 11.7541 5.26235 103.251
233 1 3.74634 3.4722 102.081
234 1 8.3299 3.34689 101.809
235 1 6.14637 4.76952 102.917
236 2 8.20546 0.775306 102.116
237 2 5.83481 3.80517 100.677
238 1 7.44602 3.99993 98.7022
239 2 6.7051 1.75981 97.3777
240 1 5.0641 2.99796 95.9375
241 1 13.4436 3.01955 103.386
242 1 10.4736 1.77628 101.33
243 1 14.5653 6.09628 98.49
244 2 11.5004 1.61198 98.8988
245 1 10.2898 3.83403 99.5199
246 1 9.07378 1.97666 97.9083
247 1 11.2027 0.758631 96.4302
248 1 7.72739 3.3363 95.6537
249 1 11.4462 3.35335 96.9355
250 2 9.30988 4.58501 97.1654
251 1 8.24148 3.5381 92.8576
252 2 8.88811 1.99403 90.8243
253 1 10.2705 4.13459 90.9478
254 1 6.20895 1.94001 91.5511
255 1 8.5801 0.641304 92.9031
256 1 10.35 4.10552 94.7724
257 1 7.41345 4.11877 89.8761
258 1 9.51874 2.93162 88.4395
259 1 12.8385 2.64966 100.713
260 2 11.0297 3.69841 102.15
261 1 12.5761 5.48829 100.406
262 2 13.1995 4.0071 98.348
263 1 15.1863 3.98056 100.258
264 1 11.566 6.01938 97.8825
265 1 13.6397 4.75177 95.9244
266 2 6.66242 1.79138 94.0663
267 2 5.15894 2.76728 89.1575
268 1 11.0107 5.54142 88.2569
269 1 2.57773 4.11793 99.6527
270 1 13.9069 2.11228 96.8644
271 1 10.8852 1.99556 92.6717
272 1 11.6193 1.70766 90.0535
273 2 14.3169 1.97218 89.2807
274 1 12.1826 2.98629 87.8763
275 2 3.11063 4.17654 97.1007
276 1 15.8865 3.71028 97.7453
277 1 16.5512 5.36813 95.592
278 2 12.5762 2.50134 94.5948
279 1 13.6945 2.31542 91.9534
280 2 14.5429 6.47232 94.1266
281 1 12.4994 4.71397 92.7732
282 1 13.1248 4.15596 90.0186
283 1 15.4806 4.04449 93.4322
284 1 16.1529 3.74017 90.7558
285 1 9.51244 0.107373 89.0555
286 1 14.5894 5.75885 102.475
287 1 5.69295 0.135833 95.6541
288 2 16.8373 4.47878 102.291
289 1 16.5865 6.61193 100.643
290 1 4.80818 5.50314 98.6728
291 1 4.35463 6.08005 101.25
292 1 17.3198 6.30462 98.0307
293 1 17.0775 6.67339 93.312
294 1 17.6643 6.02513 90.6222
295 1 14.8821 6.00332 91.4025
296 2 15.783 5.60622 88.7685
297 1 5.77714 4.12409 93.5164
298 1 3.68819 5.34888 94.8541
299 1 3.10482 4.10853 92.6222
300 1 4.98411 4.79416 90.6235
301 2 4.28212 6.29436 92.631
302 1 9.7777 6.03937 101.556
303 1 6.85697 5.87368 96.7374
304 1 7.05486 5.99335 100.617
305 1 8.88092 6.54181 98.661
306 2 7.94866 5.55046 94.2971
307 1 7.01628 6.26828 91.8806
308 1 2.74067 4.08094 88.8408
309 2 6.5789 6.51598 89.2916
310 1 9.98832 6.19931 92.8339
311 2 11.6291 6.20499 90.7454
312 1 5.28593 4.90828 87.7551
313 1 3.66619 1.46506 87.7297
314 1 13.3381 0.913623 87.211
315 2 16.8086 6.65626 84.6881
316 1 14.4543 0.09081 82.7702
317 1 6.16873 2.23647 82.9961
318 1 2.20136 0.145267 83.59
319 2 0.945337 0.599036 81.2713
320 1 3.80285 6.11978 76.9605
321 1 1.8798 0.0892076 74.9657
322 1 5.62745 6.38566 78.929
323 1 18.2969 6.7162 73.9574
324 1 4.21337 1.51703 84.9106
325 2 4.87209 0.0590487 82.9403
326 1 6.83993 0.148769 84.8262
327 1 3.35948 2.23871 82.1193
328 1 5.38349 0.939412 80.577
329 1 2.74921 1.32926 72.4933
330 1 9.52871 0.289079 83.9851
331 2 13.7116 6.33457 81.3691
332 1 11.4346 6.34228 82.2846
333 1 7.89333 0.93489 79.9103
334 2 5.98448 2.2664 78.3424
335 1 3.91086 0.515326 76.9939
336 1 4.83857 0.0601742 74.1224
337 1 10.812 6.56714 77.4977
338 1 11.7165 6.20356 74.8761
339 1 6.28644 2.42217 86.6925
340 1 16.8998 2.50544 79.7328
341 2 8.66615 0.84983 86.6125
342 2 10.1229 4.16381 86.2718
343 1 8.33429 2.6444 84.7734
344 1 11.8479 1.66415 82.7595
345 1 11.3806 2.13517 85.433
346 1 10.7078 4.0751 83.6079
347 1 9.18738 2.29127 82.0654
348 1 8.52145 2.36916 77.6065
349 1 9.22688 2.19565 74.9179
350 1 6.33366 1.9415 75.5828
351 2 7.54593 1.5499 73.0025
352 1 14.7205 3.5226 87.0524
353 1 13.4884 4.23613 82.8243
354 1 12.7194 4.59068 85.586
355 2 11.7209 3.62642 80.9107
356 1 10.3648 4.10075 78.6331
357 1 17.025 4.96143 86.6417
358 1 2.84001 4.13297 84.0125
359 1 12.501 -0.0498232 77.6772
360 1 10.4629 1.07973 79.4019
361 1 12.725 2.61537 78.5724
362 1 13.8991 6.51649 76.6869
363 1 11.731 0.555515 74.8087
364 2 11.1279 2.0583 76.8995
365 1 1.59636 2.25585 85.6254
366 1 15.833 5.69013 82.7314
367 2 15.3998 4.27275 84.7672
368 1 13.9995 2.24666 80.8993
369 1 14.1373 2.09658 84.7024
370 1 16.0192 2.71851 82.7313
371 2 14.8696 1.46857 78.6066
372 1 13.7105 2.13848 76.1641
373 1 14.9353 4.04505 77.6282
374 1 12.897 5.27387 79.1286
375 1 9.69585 -0.0426663 72.9855
376 1 11.5398 3.54254 74.8281
377 2 13.2253 2.26295 73.3643
378 1 13.9717 4.45275 74.6998
379 2 12.3531 4.54398 76.8511
380 1 11.3956 3.19583 72.1685
381 1 4.32569 3.47855 79.6569
382 1 1.43054 2.07609 77.0178
383 1 2.85667 3.99282 73.0981
384 1 15.8334 2.53818 74.0027
385 2 3.11442 2.20115 74.9919
386 1 12.4812 0.497929 71.8859
387 1 14.782 6.38958 86.4081
388 1 4.03818 6.26945 85.5719
389 2 3.81637 3.50771 86.328
390 2 17.5775 4.42542 81.4242
391 1 15.5165 5.10455 80.1675
392 1 8.31127 5.40729 87.6032
393 1 5.877 4.31466 84.9055
394 2 7.50245 4.44202 82.8795
395 1 4.81464 4.68819 82.0074
396 1 7.01803 3.4118 80.6095
397 1 18.0973 6.24463 79.8989
398 1 7.22596 6.21682 81.0078
399 2 4.50201 4.65827 74.7708
400 1 17.2317 4.60871 75.5149
401 1 4.18596 3.2124 76.9302
402 1 5.1186 5.52494 72.496
403 1 8.51789 5.32722 84.9888
404 2 6.48599 6.55915 86.1817
405 2 17.4189 4.34816 78.1413
406 2 15.9348 5.19196 73.3228
407 1 9.48385 4.8482 81.1199
408 1 6.35023 4.70551 76.838
409 1 7.11041 4.26511 74.2359
410 2 9.65675 4.31215 73.4997
411 1 7.64152 5.67469 71.9145
412 2 8.12027 5.25829 78.8277
413 1 9.10883 4.74187 76.0967
414 1 5.11305 2.61087 73.176
415 2 1.81338 0.191283 70.3145
416 1 5.98539 6.42519 67.6913
417 1 10.2396 5.72591 71.3047
418 1 8.73792 6.53404 66.8294
419 1 4.103 0.307217 69.6065
420 2 7.04947 6.15739 64.9493
421 1 1.99288 0.134992 62.568
422 1 8.47643 0.603955 70.7652
423 1 9.56053 -0.0211691 68.1813
424 1 8.38113 5.56986 62.7322
425 1 7.03703 1.39442 66.8395
426 2 6.70409 -0.00770751 68.9409
427 1 6.62401 0.24694 61.7708
428 1 4.75821 1.59624 63.2148
429 1 6.87874 6.37587 58.8785
430 1 5.51183 0.851457 58.8858
431 2 4.0155 0.620178 60.816
432 1 6.74071 5.91499 56.2545
433 1 14.728 5.75448 63.6759
434 1 9.62305 0.21985 57.1715
435 1 11.3669 5.64541 58.0021
436 1 14.1562 4.00093 71.8243
437 1 6.15223 1.9289 70.5913
438 1 10.712 1.87038 69.8386
439 1 8.73668 3.34909 71.1177
440 2 14.6161 6.02069 70.5358
441 2 8.22712 2.39784 68.8236
442 1 9.81688 2.42565 66.8058
443 2 9.11108 0.402354 65.6025
444 1 7.50767 1.84857 64.2006
445 1 15.2815 1.31511 71.5504
446 1 12.5389 0.0242943 69.0993
447 1 16.7927 4.76574 67.0896
448 2 14.1562 0.230766 66.9003
449 1 12.7775 2.5418 67.6148
450 1 11.6648 0.650926 66.0678
451 1 17.5155 5.95024 64.5091
452 1 10.3361 1.82809 63.7544
453 1 13.811 2.0118 64.9976
454 2 11.7343 3.36147 65.2374
455 1 10.6668 2.26085 61.0297
456 2 11.4452 0.653357 59.0974
457 1 12.7317 3.01467 59.2728
458 1 8.73619 0.731327 59.6776
459 1 14.9977 6.03427 61.0753
460 1 12.943 3.06788 62.9
461 1 9.90635 3.02052 58.3198
462 1 11.8381 1.75167 56.8048
463 1 15.2087 1.18259 68.9476
464 2 13.2574 2.24785 70.313
465 1 14.8343 3.97281 68.968
466 2 15.5512 2.59057 66.8256
467 1 2.07634 2.68679 68.7698
468 1 13.9873 4.59886 66.0649
469 1 16.1629 3.36988 64.5997
470 2 9.05083 0.623487 62.2293
471 2 7.28682 1.44253 57.2686
472 1 13.3439 4.16844 56.6809
473 1 4.95091 2.72666 68.1386
474 1 0.793884 0.569791 65.0431
475 1 13.2024 0.751189 61.0785
476 1 13.9229 0.497153 58.4244
477 2 1.00093 0.518672 57.5422
478 1 14.2431 1.62017 55.933
479 2 5.55933 2.79554 65.3666
480 1 2.83297 2.17586 66.242
481 1 3.3803 3.72392 63.9186
482 2 15.1526 1.38015 62.8338
483 1 0.75448 0.920777 60.2113
484 2 16.6732 4.68089 62.45
485 1 14.9205 3.23081 60.8111
486 1 15.5412 2.89577 58.0208
487 1 2.47172 2.5779 61.583
488 1 3.08238 2.4369 58.9388
489 1 15.9787 5.6108 57.2153
490 1 16.7556 4.29216 70.8416
491 1 11.7724 5.58704 64.0776
492 2 3.96892 3.10324 70.7912
493 1 3.63835 5.06528 68.8996
494 1 7.40848 4.16269 67.0431
495 1 6.65662 4.37403 69.6565
496 1 4.27306 4.78222 66.3096
497 1 3.94665 5.44035 61.6766
498 1 4.60528 4.94037 58.9457
499 1 17.1754 4.7386 59.812
500 2 2.67431 4.29883 57.0544
501 1 8.16167 2.86945 61.7414
502 1 6.12842 4.12157 63.1514
503 1 5.16992 2.87355 60.7578
504 1 7.16642 3.45949 58.916
505 2 6.38915 5.12055 60.8337
506 1 12.3104 4.59846 69.6654
507 1 9.23436 4.47991 64.9573
508 1 9.62671 4.47512 68.7923
509 1 11.2856 5.33678 66.7655
510 2 10.3978 4.1497 62.6835
511 1 9.24819 4.999 60.1551
512 1 5.17706 3.14332 56.9268
513 2 8.75978 5.1371 57.5269
514 1 12.2877 4.97442 61.1283
515 2 14.0477 5.06059 59.0158
516 1 8.01536 3.18812 56.0114
517 1 5.39759 0.317623 55.9663
518 1 4.09486 5.85107 55.2959
519 2 3.39341 5.05531 52.9459
520 1 5.07314 5.15147 50.9619
521 1 8.04876 0.756765 51.1583
522 1 8.24585 5.31243 51.6953
523 2 7.04114 5.71563 49.3726
524 1 5.91637 4.513 45.058
525 1 8.00444 4.99127 42.6865
526 1 7.86156 4.91383 46.9913
527 1 5.10999 5.12124 42.3988
528 1 10.1742 6.73989 53.1051
529 2 10.8897 5.0878 51.0482
530 1 12.6558 5.30262 53.0622
531 1 5.42136 0.52574 50.2112
532 1 11.3562 6.14426 48.5887
533 1 4.88421 -0.0508982 40.6287
534 1 15.5803 5.28743 52.3078
535 2 15.8918 4.71189 49.7175
536 1 13.3959 4.8993 50.3836
537 1 14.0785 6.07453 48.0288
538 2 8.10197 0.735051 46.4957
539 1 9.9519 5.4942 45.1422
540 1 10.7156 5.17182 42.5488
541 1 13.0165 4.82514 45.8296
542 1 13.7192 4.57215 43.3217
543 1 8.278 0.503083 54.9973
544 1 3.57225 1.05196 47.9899
545 2 14.5781 6.03573 54.9387
546 2 12.3748 2.96894 54.4278
547 1 10.3092 0.997308 52.8885
548 1 13.8838 0.0333707 50.9752
549 1 13.2136 0.482773 53.7029
550 1 12.769 2.45012 51.8241
551 1 11.2286 0.659761 50.3349
552 1 10.6434 0.65224 45.7608
553 1 11.3334 0.301929 43.075
554 1 8.54001 0.183126 43.925
555 2 13.5495 6.54958 41.2769
556 1 1.61539 1.78545 55.3875
557 1 15.5424 2.58592 51.2243
558 1 14.7603 3.00717 53.7047
559 2 13.7154 2.09478 49.252
560 1 12.4663 2.43065 46.9341
561 1 3.77908 3.22629 54.7397
562 1 4.70079 2.61735 52.1881
563 1 3.41597 5.10697 45.9913
564 1 16.7903 6.16353 47.7393
565 1 14.795 0.994335 47.066
566 1 15.7582 4.96232 45.0641
567 1 17.7514 5.51061 43.0518
568 2 13.1761 0.365098 45.222
569 1 3.63835 0.577123 53.8043
570 1 2.39819 3.98955 50.9446
571 2 1.98206 2.70669 53.1092
572 1 0.888464 0.70464 49.2101
573 1 0.808197 0.46088 52.8647
574 1 2.79542 1.05803 50.9777
575 2 5.64394 6.5734 46.7414
576 1 0.426721 0.487457 44.2148
577 1 1.81929 2.31505 45.99
578 1 15.0449 3.76203 47.3332
579 1 15.5905 5.07705 41.1018
580 1 13.6503 1.74676 43.0149
581 2 15.5475 0.776578 41.3057
582 1 16.2567 3.16401 43.1582
583 2 14.4745 2.7246 45.0725
584 1 14.2909 2.92069 40.7729
585 1 6.3844 1.91884 47.8144
586 1 3.56633 0.448395 45.2269
587 1 4.43737 2.60373 41.366
588 1 2.64353 0.95128 42.4453
589 2 5.08464 0.620592 43.1509
590 1 12.9447 0.706078 40.7426
591 1 16.817 4.65922 54.7815
592 1 6.07152 4.59627 53.7969
593 2 5.91995 2.15543 54.6163
594 2 4.42043 2.87501 49.6359
595 1 2.42141 3.62519 48.3621
596 1 10.6561 4.23034 55.5731
597 1 7.92933 2.7205 53.1546
598 2 9.44902 2.79334 51.0384
599 1 6.88224 3.22094 50.2397
600 1 8.96731 1.71592 48.7411
601 1 5.13651 4.51417 48.0639
602 1 9.14513 4.49829 49.1419
603 2 6.61358 2.96757 43.0275
604 1 3.90073 3.04371 43.9002
605 1 6.24308 1.57095 45.1205
606 1 6.86285 3.532 40.6428
607 1 10.6093 3.67619 53.0212
608 2 8.69346 5.08592 54.3378
609 2 4.36781 2.80149 46.4062
610 2 17.6127 3.8542 40.8098
611 1 11.4655 3.26568 49.3721
612 1 8.52498 3.15618 45.0709
613 1 9.31229 2.33724 42.4957
614 2 11.8497 2.98526 41.4364
615 1 9.56912 3.85562 40.4813
616 2 10.2078 3.65299 46.9931
617 1 11.3916 3.14146 44.4108
618 1 7.30275 0.855803 41.4664
ITEM: TIMESTEP
20000
ITEM: NUMBER OF ATOMS
618
ITEM: BOX BOUNDS xy xz yz pp pp ff
0.0000000000000000e+00 1.9317770367296919e+01 4.0025167278329121e+00
0.0000000000000000e+00 6.6702723500479264e+00 0.0000000000000000e+00
0.0000000000000000e+00 1.0921147561319708e+02 0.0000000000000000e+00
ITEM: ATOMS id type x y z
1 1 4.25581 5.98442 5.8149
2 1 5.9286 6.2332 8.4599
3 1 4.25168 5.98521 13.1193
4 1 5.25009 0.232976 5.90325
5 1 3.50267 -0.113699 10.8539
6 1 5.95655 6.25317 15.5016
7 1 4.48204 5.96664 20.0457
8 1 11.9493 6.02887 5.98056
9 1 6.82808 0.633759 8.39398
10 1 5.09285 0.318825 12.9402
11 1 7.87871 6.60437 17.7691
12 1 6.09945 6.33093 22.3145
13 1 4.44746 6.21077 27.1443
14 1 10.0718 1.21106 5.90333
15 1 13.5353 6.3556 8.3362
16 1 8.42754 1.00515 10.6552
17 1 11.9376 6.03895 12.9714
18 1 6.96377 0.607608 15.2295
19 1 5.58516 0.424206 20.1101
20 1 7.76118 6.80342 24.7381
21 1 6.04815 6.38614 29.6327
22 1 4.41286 6.18832 33.9637
23 1 12.99 0.198532 5.86702
24 1 12.4507 3.111 5.80008
25 1 11.752 1.64408 8.46214
26 1 11.1099 0.0746067 10.7694
27 1 10.81 2.89727 10.7358
28 1 10.1264 1.34447 13.1603
29 1 13.5792 6.38179 15.3218
30 1 8.61293 1.02924 17.6582
31 1 12.1998 6.11584 20.0828
32 1 7.20952 0.574569 22.3981
33 1 5.57938 0.471727 27.055
34 1 3.82569 -0.0487693 31.6658
35 1 6.35496 6.44074 36.9684
36 1 15.1203 2.23175 6.09572
37 1 14.315 0.573548 8.42093
38 1 13.9675 3.42431 8.24876
39 1 13.3384 1.83507 10.7259
40 1 12.7516 0.254026 13.0699
41 1 12.4474 3.15957 13.156
42 1 11.7983 1.6104 15.3812
43 1 15.319 6.68778 17.6285
44 1 10.9648 2.80019 17.7616
45 1 10.26 1.12521 20.0397
46 1 14.0033 6.34097 22.3566
47 1 8.71325 1.05782 24.7155
48 1 12.383 6.14286 26.9328
49 1 7.26452 0.843696 29.3652
50 1 5.4641 0.455829 33.91
51 1 6.38251 6.00453 40.0422
52 1 2.55171 1.19254 5.82873
53 1 17.3334 3.93802 6.06267
54 1 1.27612 2.47423 8.55165
55 1 0.739327 0.775096 10.7763
56 1 15.5569 3.70334 10.7981
57 1 15.1844 2.18321 13.1357
58 1 14.5321 0.427089 15.3122
59 1 13.9858 3.39018 15.4782
60 1 13.6223 1.88327 17.6492
61 1 13.0204 0.196676 20.0252
62 1 12.5076 3.22517 20.0047
63 1 12.1051 1.50205 22.1515
64 1 15.539 6.6488 24.6326
65 1 11.0399 2.90321 24.659
66 1 10.4469 1.3291 27.0854
67 1 13.811 6.33837 29.4382
68 1 8.78811 1.19061 31.6722
69 1 12.2295 6.13508 34.2136
70 1 7.25857 0.711379 36.299
71 1 4.77621 3.14821 5.85582
72 1 4.07912 1.51248 8.25658
73 1 3.62863 4.27725 8.38492
74 1 2.92074 2.63748 10.6634
75 1 2.50794 1.31481 13.1568
76 1 17.341 4.05027 13.1231
77 1 1.48611 2.33383 15.5049
78 1 0.942144 0.906397 17.7932
79 1 15.7373 3.59129 17.6858
80 1 15.3011 2.22065 20.0259
81 1 14.6729 0.585758 22.2499
82 1 14.3092 3.37082 22.5548
83 1 13.6228 1.92886 24.7459
84 1 13.0543 0.347578 27.138
85 1 12.637 3.10623 27.1221
86 1 12.1493 1.65384 29.4771
87 1 11.5122 -0.0730629 31.6893
88 1 11.0903 2.98629 31.6703
89 1 10.3792 1.31644 34.0153
90 1 13.7764 6.54821 36.5675
91 1 8.83258 1.47109 39.2809
92 1 7.43473 2.32881 6.05579
93 1 6.88924 5.14468 5.85083
94 1 6.50496 3.58358 8.58385
95 1 5.62402 1.81297 10.6441
96 1 5.17337 4.70893 10.7213
97 1 4.63564 3.10057 12.9336
98 1 4.21364 1.58721 15.4337
99 1 3.69548 4.27851 15.5488
100 1 3.2825 2.9022 17.8474
101 1 2.88637 1.29905 19.9413
102 1 17.4186 4.16525 20.0702
103 1 1.85736 2.57077 22.0852
104 1 1.09388 1.02491 24.6632
105 1 15.9207 3.69269 24.6839
106 1 15.4197 2.38435 27.2704
107 1 14.7643 0.70835 29.3236
108 1 14.4225 3.61783 29.5033
109 1 13.7404 2.01869 31.7827
110 1 12.9607 0.362122 34.0812
111 1 12.5156 3.29643 33.8343
112 1 12.1667 1.56337 36.2225
113 1 11.1549 0.0611141 38.7492
114 1 11.2504 2.99414 38.7723
115 1 9.85352 4.15227 5.70992
116 1 9.11531 2.46782 8.34791
117 1 8.63117 5.41614 8.43373
118 1 7.99258 3.83359 10.7823
119 1 7.48654 2.4831 12.8985
120 1 6.88593 5.08595 13.08
121 1 6.43673 3.45728 15.292
122 1 6.07403 2.02352 17.7343
123 1 5.64422 4.8411 17.8629
124 1 4.92849 3.38475 20.0811
125 1 4.51417 1.50741 22.4426
126 1 3.94272 4.37199 22.5828
127 1 3.288 2.8065 24.6865
128 1 2.73823 1.44978 27.0193
129 1 17.5389 4.19371 27.0355
130 1 1.83512 2.53373 29.4016
131 1 1.03089 1.00904 31.7424
132 1 15.9816 3.78343 31.7091
133 1 15.3706 2.24481 34.1294
134 1 14.8074 0.697587 36.235
135 1 14.4329 3.5779 36.2423
136 1 13.5194 1.86605 38.4214
137 1 11.3107 4.40087 8.3761
138 1 10.3024 5.49024 10.8364
139 1 9.70096 4.22034 13.1515
140 1 9.15615 2.48744 15.4708
141 1 8.63186 5.37999 15.254
142 1 8.22707 3.84811 17.6187
143 1 7.69845 2.33487 20.0944
144 1 7.34102 5.13461 20.1159
145 1 6.70363 3.53591 22.4622
146 1 6.05063 2.0574 24.7366
147 1 5.57539 4.9018 24.8645
148 1 5.16852 3.33494 27.1335
149 1 4.53655 1.64295 29.3023
150 1 4.00487 4.44904 29.3572
151 1 3.24289 2.82042 31.7885
152 1 2.71577 1.26835 34.0764
153 1 17.6436 4.04986 33.9945
154 1 1.84433 2.62134 36.5467
155 1 15.6756 0.655814 38.8906
156 1 15.9283 3.50009 38.7669
157 1 14.6689 5.10513 5.79812
158 1 13.0792 4.82423 10.7377
159 1 11.2909 4.41769 15.3841
160 1 10.3672 5.94333 17.6594
161 1 10.0112 4.31768 19.9365
162 1 9.4895 2.64564 22.449
163 1 8.97923 5.48757 22.4668
164 1 8.32216 3.87335 24.7955
165 1 7.85737 2.2822 27.0865
166 1 7.25515 5.30602 27.1665
167 1 6.62537 3.61459 29.5507
168 1 5.97504 2.00427 31.636
169 1 5.53357 4.73997 31.8749
170 1 5.0037 3.2685 34.0013
171 1 4.52117 1.70013 36.2181
172 1 3.85817 4.52885 36.4884
173 1 3.22802 1.99941 39.0128
174 1 16.1928 5.35847 8.47642
175 1 14.6035 5.04187 13.1348
176 1 13.061 4.76247 17.7624
177 1 11.6442 4.49205 22.292
178 1 10.4687 5.79838 24.6569
179 1 10.0534 4.30124 27.0859
180 1 9.51684 2.75369 29.4598
181 1 8.87625 5.50569 29.4436
182 1 8.35108 3.898 31.8465
183 1 7.7968 2.29618 34.0749
184 1 7.06124 5.1678 34.2314
185 1 6.70138 3.51927 36.4649
186 1 6.10566 1.77828 38.5775
187 1 4.6831 4.19799 39.0495
188 1 17.8423 5.63747 10.8563
189 1 16.2655 5.34124 15.4987
190 1 14.7132 4.96063 19.837
191 1 13.4033 4.77906 24.7104
192 1 11.7383 4.42785 29.4164
193 1 10.5832 5.8409 31.7387
194 1 9.98211 4.35633 34.0141
195 1 9.45407 2.84625 36.4399
196 1 8.83234 5.7567 35.9582
197 1 8.37843 4.63139 38.2224
198 1 18.0782 5.65514 17.7934
199 1 16.4613 5.33104 22.2877
200 1 14.6919 5.12618 27.1177
201 1 13.2575 5.10769 31.8927
202 1 11.6178 4.69173 36.3891
203 1 11.1171 5.99719 38.9146
204 1 18.2064 5.81335 24.8113
205 1 16.5854 5.34654 29.569
206 1 14.8785 5.09175 34.0021
207 1 13.3311 4.77125 38.8276
208 1 18.1264 5.77223 31.616
209 1 16.4364 5.37153 36.2849
210 1 17.7625 5.58929 38.4973
211 2 14.4672 1.45017 102.197
212 1 15.013 1.27428 99.3771
213 1 3.65528 0.550135 103.143
214 1 2.60466 1.29907 98.7292
215 1 1.73279 1.78265 101.398
216 2 0.661559 0.728849 96.8146
217 1 14.8581 1.65615 94.5081
218 1 6.03457 1.91189 102.761
219 1 6.91399 1.53786 99.9553
220 1 1.85797 0.295423 94.6247
221 1 4.76393 3.01542 98.6408
222 2 4.29817 1.48711 100.806
223 1 4.10598 1.67453 93.5833
224 1 2.09326 2.9855 95.1808
225 1 0.524098 1.02832 90.8479
226 1 3.23527 2.15614 90.8485
227 2 1.5125 2.04642 92.8907
228 1 0.699372 1.23811 88.116
229 1 8.24636 0.543268 95.497
230 1 7.14749 1.50843 88.9761
231 1 4.91366 0.114761 89.9914
232 1 11.7519 5.23943 103.441
233 1 3.78758 3.41293 102.538
234 1 8.32428 3.34255 101.918
235 1 6.20053 4.73325 103.255
236 2 8.15847 0.679338 102.057
237 2 5.71544 3.89275 100.79
238 1 7.40915 4.03602 98.7465
239 2 6.47583 1.71172 97.4826
240 1 4.8483 3.05766 95.8897
241 1 13.2395 2.82231 103.391
242 1 10.4303 1.80675 101.589
243 1 14.2808 6.19434 98.794
244 2 11.2673 1.73835 99.0172
245 1 10.2142 3.90091 99.8234
246 1 8.97595 1.95459 97.9821
247 1 11.0408 0.813997 96.6492
248 1 7.73026 3.4324 95.6665
249 1 11.3047 3.33834 96.9889
250 2 9.2668 4.69486 97.1005
251 1 8.35559 3.54584 92.9791
252 2 9.07749 2.10402 90.9379
253 1 10.2061 4.27325 90.7374
254 1 6.29496 2.11736 91.3967
255 1 8.55233 0.661443 92.8979
256 1 10.4341 4.34234 94.8018
257 1 7.28994 4.25393 89.9074
258 1 9.40831 2.96624 88.5878
259 1 12.7915 2.7821 100.621
260 2 10.854 3.77156 102.37
261 1 12.3855 5.32692 100.586
262 2 13.4482 3.82644 98.563
263 1 15.0569 4.05022 100.487
264 1 11.4681 5.9415 97.9208
265 1 13.6562 4.83108 96.3331
266 2 6.58205 1.80682 94.0576
267 2 5.15539 2.9202 89.1016
268 1 10.9121 5.5626 88.3771
269 1 2.39349 4.17406 99.8895
270 1 13.6249 2.05364 96.8112
271 1 10.8434 2.25223 92.823
272 1 11.714 1.86802 90.0891
273 2 14.1473 2.13466 89.3127
274 1 12.0526 3.21936 87.8477
275 2 3.24181 4.31228 97.2489
276 1 16.0438 3.33904 97.8385
277 1 16.3209 5.37212 95.8889
278 2 12.5328 2.63932 94.6653
279 1 13.5327 2.40555 91.9477
280 2 14.3869 6.5702 94.2518
281 1 12.2329 4.65624 92.6808
282 1 13.103 4.43211 90.1588
283 1 15.2477 4.22283 93.5594
284 1 15.9014 3.66376 91.0023
285 1 9.51688 0.141369 88.9202
286 1 14.3321 5.82413 102.56
287 1 5.39277 0.321898 95.6599
288 2 16.7882 4.46669 102.441
289 1 16.4944 6.65485 100.74
290 1 4.82034 5.53232 98.7716
291 1 4.09248 5.9682 101.444
292 1 17.1834 6.36264 98.1895
293 1 16.7993 6.72194 93.4175
294 1 17.5166 6.08991 90.7505
295 1 14.9137 6.26089 91.4516
296 2 15.8044 5.56599 88.8121
297 1 5.69775 4.06385 93.4788
298 1 3.60781 5.47761 95.0637
299 1 2.80888 4.15282 92.6641
300 1 4.66131 4.9972 90.503
301 2 4.19278 6.28401 92.8018
302 1 9.75664 5.99889 101.676
303 1 6.90962 5.83783 96.7927
304 1 6.98077 5.97447 100.801
305 1 8.98571 6.54806 98.6633
306 2 7.89983 5.64648 94.398
307 1 6.89229 6.20001 91.9041
308 1 2.63902 3.96347 88.9403
309 2 6.41405 6.60712 89.3428
310 1 9.77472 6.16572 92.7127
311 2 11.4627 6.48183 90.6921
312 1 5.30769 5.02449 87.8061
313 1 3.68816 1.52258 87.7365
314 1 13.3761 1.11325 87.0242
315 2 16.8417 6.7752 84.771
316 1 14.3509 0.0651322 82.6512
317 1 6.09186 2.35293 83.1283
318 1 2.1937 0.138459 83.5051
319 2 0.928573 0.701263 81.25
320 1 3.95088 6.08606 76.9666
321 1 1.87418 0.252603 74.9591
322 1 5.79162 6.61149 78.9727
323 1 18.3094 6.83784 74.0347
324 1 4.20683 1.6338 84.9413
325 2 4.80861 0.116624 82.9253
326 1 6.8088 0.174574 84.8876
327 1 3.1713 2.19238 81.9893
328 1 5.43522 1.23517 80.7218
329 1 2.71302 1.55133 72.7194
330 1 9.41514 0.401706 84.1086
331 2 13.8401 6.50313 81.3806
332 1 11.5005 6.61851 82.2357
333 1 8.00449 1.18325 79.8312
334 2 6.05068 2.45336 78.4075
335 1 4.02771 0.631488 76.827
336 1 4.79893 0.322058 74.1775
337 1 11.0394 6.81416 77.5686
338 1 11.7139 6.3356 75.1041
339 1 6.30397 2.28694 86.7144
340 1 16.632 2.73885 79.8979
341 2 8.71198 1.11396 86.7677
342 2 10.098 4.30477 86.279
343 1 8.36934 2.93568 84.6155
344 1 11.8556 1.82479 82.7612
345 1 11.2396 2.17887 85.4012
346 1 10.6785 4.1983 83.4865
347 1 9.04423 2.37111 82.0296
348 1 8.54725 2.57178 77.5842
349 1 9.24422 2.27943 74.9817
350 1 6.55443 2.08776 75.6926
351 2 7.32278 1.3442 72.9436
352 1 14.6359 3.7004 87.1025
353 1 13.4237 4.43748 82.9385
354 1 12.7524 4.83054 85.5953
355 2 11.7362 3.8174 80.9318
356 1 10.6382 4.21677 78.4935
357 1 17.1222 5.04416 86.6421
358 1 2.60199 4.32554 84.1508
359 1 12.6678 0.115447 77.8517
360 1 10.5766 1.36977 79.276
361 1 12.8048 2.73808 78.7566
362 1 13.9155 6.71913 76.753
363 1 11.7489 0.640496 74.9298
364 2 11.0873 2.1287 76.8629
365 1 1.48949 2.31115 85.6112
366 1 15.7198 5.74546 82.7153
367 2 15.3733 4.43356 84.7737
368 1 14.1299 2.23496 81.0016
369 1 14.0664 2.27154 84.5566
370 1 16.0249 2.71986 82.7641
371 2 14.8738 1.53098 78.3692
372 1 13.8728 2.16384 76.124
373 1 15.0909 4.17047 77.7564
374 1 13.0717 5.54488 79.1025
375 1 9.72613 0.190447 72.8897
376 1 11.4539 3.574 74.8316
377 2 13.3137 2.42896 73.6468
378 1 14.0634 4.79113 74.8954
379 2 12.597 4.57963 76.9085
380 1 11.3524 3.17833 72.1029
381 1 4.15761 3.56715 79.7173
382 1 1.63121 2.12989 77.0752
383 1 2.90104 4.22348 73.2043
384 1 15.9828 2.72286 74.1018
385 2 3.22515 2.37795 75.0639
386 1 12.4019 0.489141 71.9118
387 1 14.8505 6.42024 86.4219
388 1 4.02001 6.39883 85.5565
389 2 3.78904 3.69882 86.3928
390 2 17.572 4.41966 81.5973
391 1 15.5889 5.26919 80.1311
392 1 8.15862 5.33395 87.6531
393 1 5.79004 4.33248 84.9217
394 2 7.48423 4.51004 82.7841
395 1 4.80061 4.78637 82.0762
396 1 7.0838 3.52175 80.5286
397 1 18.4094 6.35146 79.8942
398 1 7.28574 6.21981 81.0222
399 2 4.54881 4.83625 75.0697
400 1 17.1735 4.63696 75.7418
401 1 4.31731 3.27134 77.1591
402 1 5.10045 5.77049 72.5698
403 1 8.36103 5.50505 85.0196
404 2 6.47534 6.58492 86.1717
405 2 17.5675 4.35801 78.3576
406 2 16.0392 5.27956 73.2814
407 1 9.56353 5.01616 81.145
408 1 6.5596 4.75306 76.8379
409 1 7.19886 4.38101 74.3333
410 2 9.48178 4.25115 73.4141
411 1 7.65848 5.76855 72.0118
412 2 8.31524 5.46933 78.8336
413 1 9.22464 4.90687 76.1101
414 1 5.15348 2.94665 73.2777
415 2 1.81936 0.415303 70.4804
416 1 5.9381 6.48933 67.9106
417 1 10.2122 5.65308 71.2989
418 1 8.69442 6.55477 66.853
419 1 4.06107 0.203969 69.4905
420 2 6.82015 5.72568 65.197
421 1 2.01237 0.0427552 62.673
422 1 8.37395 0.550265 70.7403
423 1 9.32418 -0.182793 68.2173
424 1 8.27267 5.31382 63.0058
425 1 7.13639 1.24783 66.9502
426 2 6.62939 -0.129755 68.9154
427 1 6.50018 0.0506388 61.9266
428 1 4.47223 1.31778 63.6465
429 1 6.85483 6.07381 59.0071
430 1 5.55806 0.645081 58.8909
431 2 3.93174 0.448074 61.1389
432 1 6.6377 5.50732 56.3789
433 1 14.5654 5.47529 63.7775
434 1 9.57315 -0.0947722 57.4135
435 1 11.3408 5.35585 58.1518
436 1 14.0016 4.0947 72.0804
437 1 6.07591 1.80601 70.6952
438 1 10.7722 1.8689 69.7252
439 1 8.59189 3.28319 71.3196
440 2 14.565 5.97397 70.6444
441 2 8.08197 2.32153 68.9439
442 1 9.78615 2.3494 66.9458
443 2 9.02468 0.192656 65.6694
444 1 7.45504 1.61936 64.2794
445 1 15.2774 1.51161 71.8393
446 1 12.5312 -0.114844 69.1669
447 1 16.7878 4.76525 67.2596
448 2 14.1385 0.172868 66.9867
449 1 12.8924 2.52215 67.6968
450 1 11.4955 0.361164 66.1734
451 1 17.5142 5.93241 64.5505
452 1 10.2291 1.67473 63.9725
453 1 13.8901 1.88229 65.1715
454 2 11.6939 3.11562 65.4244
455 1 10.5877 2.021 61.2106
456 2 11.205 0.591721 59.1919
457 1 12.5751 2.76271 59.2863
458 1 8.60457 0.450985 59.8963
459 1 14.9594 5.75814 61.1739
460 1 12.763 2.85016 62.9999
461 1 9.64461 2.58325 58.2757
462 1 11.742 1.34333 56.7188
463 1 15.1542 1.1609 69.0821
464 2 13.3664 2.18785 70.398
465 1 14.8091 3.86267 69.1157
466 2 15.4678 2.50668 67.0289
467 1 2.16036 2.50677 68.8423
468 1 13.9989 4.56155 66.2343
469 1 16.1514 3.34998 64.7613
470 2 9.06883 0.264349 62.4464
471 2 7.32837 1.23071 57.415
472 1 13.4554 3.80525 56.9894
473 1 4.98552 2.69909 68.1417
474 1 0.831219 0.551409 65.2193
475 1 13.2354 0.707636 61.1503
476 1 13.9099 0.408501 58.4813
477 2 1.00937 0.178569 57.6748
478 1 14.4503 1.36755 56.1332
479 2 5.52972 2.62118 65.6164
480 1 2.92227 2.01013 66.2687
481 1 3.36618 3.59089 64.1039
482 2 15.2599 1.58782 62.9382
483 1 0.710149 0.780218 60.3763
484 2 16.6738 4.56369 62.5454
485 1 14.894 3.15842 60.9483
486 1 15.7278 2.76479 58.35
487 1 2.50865 2.5648 61.7394
488 1 3.0698 2.1774 59.1395
489 1 15.848 5.33065 57.4346
490 1 16.8565 4.31198 70.9586
491 1 11.7743 5.39475 64.0813
492 2 3.96895 3.20612 70.8298
493 1 3.60167 5.19497 69.0725
494 1 7.25915 3.95481 67.0679
495 1 6.40648 4.39204 69.8441
496 1 4.25191 4.73242 66.4238
497 1 3.99848 5.17775 61.9326
498 1 4.58082 4.70326 59.2795
499 1 17.2392 4.70739 59.9819
500 2 2.69579 3.98811 57.1531
501 1 8.08414 2.70942 61.7506
502 1 5.94009 3.87022 63.3006
503 1 5.3175 2.49941 61.0301
504 1 7.13873 3.36011 58.8475
505 2 6.54845 4.70943 61.0532
506 1 12.3369 4.49894 69.7958
507 1 9.18485 4.24354 65.1357
508 1 9.39309 4.32379 68.9939
509 1 11.183 5.22085 66.8247
510 2 10.3374 3.99481 62.7533
511 1 9.27079 4.86905 60.2308
512 1 5.11844 2.80883 57.1153
513 2 8.8358 4.97457 57.6986
514 1 12.1881 4.61828 61.287
515 2 13.908 4.84783 59.2341
516 1 8.04507 2.9324 55.9325
517 1 5.37152 -0.0653707 56.2198
518 1 3.96953 5.65679 55.3035
519 2 3.52617 4.80186 53.054
520 1 5.07052 4.92267 50.8476
521 1 8.25311 0.443622 51.3665
522 1 8.2413 4.84456 51.9745
523 2 7.16673 5.50387 49.5723
524 1 5.91384 4.25738 45.1516
525 1 7.93262 4.93023 42.631
526 1 7.87849 4.84878 47.1119
527 1 5.1905 4.99157 42.3433
528 1 10.2701 6.49866 53.1937
529 2 10.8701 4.9695 51.1099
530 1 12.8008 4.86682 53.0218
531 1 5.3845 0.326292 50.3719
532 1 11.4443 5.96881 48.7267
533 1 4.93719 0.00502846 40.5001
534 1 15.4964 5.15446 52.3245
535 2 15.9993 4.63363 49.6377
536 1 13.5002 4.63394 50.4677
537 1 14.0995 5.89571 48.117
538 2 8.2267 0.616508 46.6315
539 1 10.1024 5.32725 45.1144
540 1 10.9114 5.04495 42.5064
541 1 13.1552 4.77025 45.7192
542 1 13.7734 4.33627 43.1611
543 1 8.15572 0.119393 55.0836
544 1 3.66567 0.869966 48.1172
545 2 14.6509 5.68392 55.0633
546 2 12.5558 2.68174 54.5734
547 1 10.3811 0.937566 53.1108
548 1 13.9952 -0.123077 50.9514
549 1 13.3721 0.309776 53.604
550 1 12.8489 2.24231 51.7518
551 1 11.0168 0.385492 50.2898
552 1 10.6933 0.590012 45.7724
553 1 11.3891 0.0746229 43.1473
554 1 8.62249 0.175294 44.0024
555 2 13.6268 6.53865 41.2652
556 1 1.58102 1.42917 55.5711
557 1 15.5922 2.46192 51.2305
558 1 14.9497 2.7086 53.8066
559 2 13.8506 1.8533 49.0811
560 1 12.5943 2.18724 46.7423
561 1 3.77389 3.041 54.9299
562 1 4.93543 2.35833 52.3962
563 1 3.43771 4.8043 45.8833
564 1 16.7164 6.02549 47.5261
565 1 14.9766 0.775084 46.837
566 1 15.9535 4.79409 44.9787
567 1 17.833 5.1715 43.094
568 2 13.2745 0.252125 45.1553
569 1 3.56202 0.364132 53.9994
570 1 2.54166 3.77609 51.0497
571 2 2.23226 2.45465 53.1588
572 1 0.991555 0.538482 49.1072
573 1 0.82187 0.194348 52.8391
574 1 2.95672 0.926592 51.0973
575 2 5.70068 6.21331 46.7525
576 1 0.416412 0.283732 44.2042
577 1 1.93475 2.07384 45.8873
578 1 15.0492 3.53713 47.2844
579 1 15.5831 4.96986 41.1515
580 1 13.6711 1.6165 43.0212
581 2 15.6119 0.449969 41.4741
582 1 16.3331 2.84794 43.0547
583 2 14.6787 2.59043 44.9706
584 1 14.361 2.724 40.7834
585 1 6.4436 1.75409 47.919
586 1 3.75011 0.0744577 45.2031
587 1 4.57441 2.54323 41.3542
588 1 2.60472 0.824907 42.358
589 2 5.20782 0.540507 43.1202
590 1 13.0148 0.51375 40.7373
591 1 16.7602 4.38865 54.7426
592 1 6.11221 4.36728 53.8507
593 2 5.97363 1.88303 54.7951
594 2 4.41588 2.66567 49.7251
595 1 2.40514 3.44234 48.2393
596 1 10.7612 3.90078 55.8226
597 1 7.95178 2.36831 53.3086
598 2 9.72977 2.62316 51.1054
599 1 6.99195 3.01991 50.3218
600 1 9.08368 1.65122 48.8482
601 1 5.2646 4.36992 48.1725
602 1 9.25741 4.2974 49.3505
603 2 6.52816 2.85884 43.1879
604 1 3.8036 2.84912 43.9083
605 1 6.34944 1.43953 45.1862
606 1 7.0061 3.36799 40.5684
607 1 10.595 3.58758 53.2027
608 2 8.69033 4.82914 54.4979
609 2 4.3266 2.53191 46.5144
610 2 17.8184 3.83827 40.7844
611 1 11.5473 3.07308 49.2795
612 1 8.6523 2.90764 45.0561
613 1 9.31805 2.38834 42.5808
614 2 11.7626 2.88711 41.4165
615 1 9.67453 4.017 40.5763
616 2 10.2625 3.41207 47.0194
617 1 11.3715 2.97129 44.3476
618 1 7.35836 0.807511 41.4408
