ITEM: TIMESTEP
0
ITEM: NUMBER OF ATOMS
618
ITEM: BOX BOUNDS xy xz yz pp pp ff
0.0000000000000000e+00 1.9317770367296919e+01 4.0025167278329121e+00
0.0000000000000000e+00 6.6702723500479264e+00 0.0000000000000000e+00
0.0000000000000000e+00 1.0921147561319708e+02 0.0000000000000000e+00
ITEM: ATOMS id type x y z c_pe_atom c_stress_atom[1] c_stress_atom[2] c_stress_atom[3] c_stress_atom[4] c_stress_atom[5] c_stress_atom[6]
1 1 4.26302 6.18978 5.62237 -2.9905 1.28475e+06 1.26657e+06 257894 208928 21764.7 60337.6
2 1 6.04352 6.40171 8.20827 -3.28751 627145 453183 -4670.96 -16629.6 -17010.4 -179858
3 1 4.22491 6.23947 12.9342 -3.32383 -75928.2 -292808 -804889 -84293.5 -284092 54642.2
4 1 5.10112 0.449056 5.81243 -3.04316 1.15242e+06 1.58644e+06 -135921 185295 -4804.92 -301855
5 1 3.65069 0.14982 10.4469 -3.30808 142209 547750 514224 13324.4 -271267 -118442
6 1 5.72495 6.55774 15.1497 -3.30217 -444623 82024.1 -370192 94940 707.627 -111479
7 1 4.07168 6.16244 19.9061 -3.32837 -8630.86 -17928.5 -543911 -12275.1 -377232 -153338
8 1 11.878 6.20153 5.63629 -2.90308 2.09729e+06 2.09584e+06 427656 -122581 -29975 -353764
9 1 6.81842 0.756252 8.22699 -3.28226 747155 714183 925669 130967 65704.8 -90002.8
10 1 5.05185 0.603386 12.8727 -3.3152 -165645 507573 285303 -137606 -176403 -58083.8
11 1 3.31991 0.170289 17.6757 -3.31464 -97074.2 586091 -76699.3 311248 467810 -276631
12 1 5.73811 6.38585 22.0052 -3.29942 218421 795678 -188448 -115064 -29720 98942.1
13 1 4.15787 5.8069 26.7918 -3.27576 -384392 -346404 -62025.1 217917 117971 94991.3
14 1 10.1109 1.50335 5.60769 -2.88306 2.26694e+06 2.03318e+06 405910 -168964 169257 121813
15 1 13.571 6.55179 8.0531 -3.27318 211544 530164 721287 -110000 -135239 -214071
16 1 8.53845 1.11206 10.7825 -3.26929 585477 706054 235719 220682 171144 1578.83
17 1 11.7917 6.12176 12.9127 -3.3254 451389 -25600.1 -621536 -224202 -32010.3 150587
18 1 6.64883 0.787626 15.1963 -3.33318 -85565.9 10242.9 227554 126205 -237669 -129589
19 1 5.20889 0.14397 19.9278 -3.25329 56390.9 -44042.1 -678092 268845 481833 -113652
20 1 7.32765 6.59583 24.5151 -3.31146 519252 181984 833854 146772 95179.4 374297
21 1 5.93785 6.35856 29.1445 -3.30483 -396256 -380997 398797 115291 73117.9 318422
22 1 4.14429 5.79927 33.9802 -3.29044 218295 258546 585269 73045.3 294012 -277163
23 1 12.9126 0.348484 5.84951 -3.02846 975896 1.056e+06 25556.1 -433062 -146617 -59086.7
24 1 12.3798 3.2577 5.90248 -2.99913 1.33964e+06 2.07531e+06 -53896.8 174987 -118388 -164140
25 1 11.6929 1.57048 8.34636 -3.27764 -299936 194985 210551 101213 138193 126705
26 1 15.0626 6.6621 10.5011 -3.29699 295890 391446 -92104.6 130710 213757 290203
27 1 10.7309 3.092 10.6045 -3.30373 -159156 -189181 -605944 132482 -268327 -257061
28 1 10.0455 1.40557 13.0053 -3.30185 338118 832431 -177062 44008.8 -496344 226506
29 1 13.4669 6.64156 15.194 -3.33216 416366 -114466 -267282 -185664 156203 444880
30 1 8.26953 1.04166 17.5617 -3.32663 508582 -392426 123091 281817 41728.7 30895.7
31 1 11.8185 6.14863 19.8948 -3.3277 -175925 273218 571202 285010 -26010.4 184714
32 1 6.78582 0.696137 22.3763 -3.31777 635535 -140242 199224 307781 66562.6 52694.6
33 1 5.16763 0.302923 26.9256 -3.31099 375987 472856 445639 117960 286450 -171187
34 1 7.48118 6.65798 31.7139 -3.31833 -107809 -69895.2 130245 259880 194859 -303179
35 1 5.86627 6.2279 36.3273 -3.29521 -387359 387051 51159.9 489210 -121923 -299525
36 1 14.889 2.12513 5.98376 -2.95954 1.54028e+06 1.14611e+06 -83304.6 246482 211815 247331
37 1 14.4369 0.690745 8.32465 -3.30093 710746 -9277.65 -477910 -78463.1 70317.6 496584
38 1 13.9363 3.60809 8.21257 -3.30404 590579 769886 267331 132462 6630.96 -257713
39 1 13.3597 1.94976 10.6778 -3.32138 630854 -27913.2 116086 338293 -137031 -122843
40 1 12.6864 0.42964 12.9662 -3.32061 305530 -8819.29 31768.8 102088 164029 125878
41 1 12.3827 3.34875 12.937 -3.32488 477834 272101 -59061 265826 249927 398480
42 1 11.6979 1.85014 15.1548 -3.31494 700214 539036 163539 67883.5 185702 -15887.4
43 1 11.1872 0.147179 17.5493 -3.31025 90758.4 -164610 110014 80907.8 -31607.2 -366492
44 1 10.6736 2.93475 17.5403 -3.3071 843100 892912 987106 390881 -23219.4 -163078
45 1 10.0151 1.35117 19.9429 -3.32021 771492 615076 759354 171470 80439.9 -211468
46 1 13.4438 6.19468 22.3434 -3.2925 439652 154072 731715 155649 75757.4 61688.5
47 1 8.37836 1.00814 24.7174 -3.31461 640086 920992 676754 121471 -145766 -264427
48 1 11.9055 5.84647 27.0471 -3.27444 595713 178238 43101.2 12145.8 177349 116088
49 1 6.81983 0.44192 29.404 -3.2755 1.06557e+06 686374 535820 126868 113315 238025
50 1 5.27544 0.227942 33.9526 -3.31062 302018 186392 -274533 34726.7 -204594 -114865
51 1 7.40775 6.33706 38.5097 -3.19828 100867 126680 -701699 199305 -846243 245100
52 1 2.5044 1.46604 5.74865 -2.95522 1.74115e+06 1.83604e+06 112356 254289 -316381 13184.5
53 1 17.4184 4.29271 5.95417 -3.00492 1.28132e+06 1.36848e+06 1267.4 555580 -357398 -85280.8
54 1 16.7831 2.62866 8.40678 -3.26845 666537 520356 480081 298039 238987 158235
55 1 0.98296 1.13455 10.6743 -3.31221 726849 352708 198551 116841 -188322 287573
56 1 15.7195 3.9563 10.6232 -3.32783 832422 56128.9 -156145 227378 401631 168146
57 1 15.0231 2.4532 12.8904 -3.3038 561143 221595 571022 500359 -204882 61514.4
58 1 14.4276 0.84463 15.3191 -3.3267 -198983 -410603 121890 37409.6 146911 112306
59 1 13.96 3.73929 15.3947 -3.31542 -22797.6 574078 -109179 312697 34173.3 -44215.3
60 1 13.3818 2.21503 17.6425 -3.32749 300988 292206 85221.3 -8144.71 203522 223325
61 1 12.7844 0.519544 19.8304 -3.29822 75432.9 394266 469682 42441.8 -67731.8 -210467
62 1 12.2742 3.36045 20.0038 -3.3051 403371 261736 186294 290545 -56402.5 -593703
63 1 11.6465 1.59924 22.4172 -3.2926 289737 903416 658655 443098 -29487.9 -9598.21
64 1 15.2525 6.63242 24.6599 -3.31383 447124 661341 -228161 75037.8 228448 146002
65 1 10.6978 2.94149 24.64 -3.32338 618287 870383 -157237 -79086 232550 -370026
66 1 10.158 1.25121 26.8993 -3.3082 1.33794e+06 824249 516229 107904 -60902.6 63954.1
67 1 13.6754 6.27179 29.2161 -3.30244 303960 386557 597536 -27011.9 -365423 396441
68 1 8.50508 0.944455 31.7567 -3.25544 1.06245e+06 386633 -157522 178492 -24955.6 -114767
69 1 11.9482 5.88019 33.8245 -3.31887 432938 158230 110297 310561 288302 332967
70 1 6.84208 0.565962 36.1851 -3.26018 633375 -190080 50945.2 -175107 -74042.3 343808
71 1 4.77915 3.42855 5.62374 -2.96841 1.47023e+06 1.73318e+06 63695.9 160815 -27533.2 77855.7
72 1 4.13096 1.89158 8.03755 -3.288 120256 393144 322434 250500 -24858 -111989
73 1 3.77284 4.64475 8.25879 -3.31352 74419.6 -224045 -92307.6 211024 -300873 27496.2
74 1 3.21463 3.13871 10.6845 -3.31004 -255074 615052 330563 397531 -295647 127847
75 1 2.39487 1.49767 12.999 -3.30909 254360 160074 63222.4 138316 -417466 271854
76 1 17.3861 4.36856 12.964 -3.3179 -336430 228061 26890.6 333535 -489569 -205245
77 1 16.5333 2.69637 15.4022 -3.3005 363354 267471 140728 218491 -100360 -72765.4
78 1 0.788467 1.11957 17.6555 -3.32478 -298802 269736 -346517 42834 -225142 237024
79 1 15.5706 4.05461 17.6269 -3.32473 -165466 -91371.7 -382139 200887 10917.4 -269839
80 1 14.9574 2.28261 19.9652 -3.32855 -438557 -246954 -607629 132826 -170750 -563092
81 1 14.3456 0.666927 22.3022 -3.32365 106018 276702 -586606 114556 -259084 -49560.2
82 1 14.0126 3.59569 22.105 -3.27244 -472144 -536429 -255552 351408 -227707 -399907
83 1 13.4008 1.91324 24.6741 -3.32329 -419139 -193104 384597 -161484 -15090.8 -258746
84 1 12.8935 0.157294 26.922 -3.31919 -41649.9 382046 -339023 51228.2 -245430 290724
85 1 12.4859 3.19033 27.0142 -3.30626 215565 -128588 -61943.2 3671.99 181139 -97934.3
86 1 11.7469 1.59172 29.2527 -3.3264 666725 529788 115948 177909 91677.3 68840.8
87 1 15.2692 6.64299 31.5579 -3.32628 304331 649913 515685 138033 -212000 72231.7
88 1 11.0067 2.86563 31.566 -3.2833 898092 450412 117586 -108566 61812.6 -84904.1
89 1 10.2076 1.40354 33.8063 -3.27687 231091 528895 -458025 25983.3 -166225 -291711
90 1 13.907 6.24297 36.1783 -3.21714 257020 258672 739637 -558617 385344 -102298
91 1 8.74904 1.05342 38.7413 -3.30153 1.04862e+06 673012 1.53627e+06 736526 -141603 298861
92 1 7.32404 2.37527 5.57451 -2.9352 2.01187e+06 2.01994e+06 524048 236015 161493 32251
93 1 6.90014 5.27778 5.81878 -3.02344 1.48345e+06 1.33633e+06 -295192 -30288.4 435433 -78555.3
94 1 6.46599 3.59648 8.17309 -3.31295 532455 267495 339671 -73062.4 -182454 156962
95 1 5.66921 2.08414 10.5596 -3.29206 -25343.8 774578 254810 93679.4 -76544.8 112433
96 1 5.36744 5.00756 10.6452 -3.33481 52871.3 111133 4862.72 98518.6 -5853.94 168519
97 1 4.74675 3.53653 12.9536 -3.31948 24948.4 -197646 -326340 345647 -306604 13396
98 1 4.06361 1.7719 15.2478 -3.31163 269457 587834 447578 -50222.5 -86530.2 -238561
99 1 3.51495 4.81146 15.1777 -3.28202 -504449 -73993.1 -392635 174669 -311799 -46691.9
100 1 2.91805 3.11138 17.5503 -3.33098 90381.4 629635 496892 -176325 -309662 -282933
101 1 2.30806 1.29695 19.8931 -3.29218 -60603.6 341548 -804206 -242318 -16686.1 -11968
102 1 17.122 4.24305 20.0052 -3.32272 26704.4 532908 74597.8 196688 77270.3 -169075
103 1 16.5453 2.636 22.2057 -3.31007 -37077.6 -530200 -260079 134018 -117692 349490
104 1 0.711509 0.983054 24.3698 -3.28113 -212606 137599 -121087 143809 -98695.1 -282260
105 1 15.4721 3.66207 24.6712 -3.27004 -184544 -543688 -580615 156259 531303 -358811
106 1 15.1923 1.95239 26.8447 -3.30144 303075 380114 -261467 184670 -313037 136127
107 1 14.4151 0.388329 29.1893 -3.30939 95700.6 160695 -349899 -125616 2244.75 132455
108 1 14.1392 3.54685 29.2699 -3.29047 5807.24 178905 15149.3 257251 -53782.3 248707
109 1 13.6197 1.8704 31.4637 -3.3038 -60812.6 631438 270599 436857 -68277.4 28542.5
110 1 12.8206 0.164456 33.8997 -3.30692 574728 845262 411879 176404 -18556.5 -349941
111 1 12.463 3.08698 33.9719 -3.32337 303549 336400 215509 -317817 -200725 -143566
112 1 11.7617 1.45115 36.1865 -3.24421 672823 705715 686126 -233539 271729 -254622
113 1 15.1922 6.51763 38.8866 -3.46625 -201811 -75584.9 892404 -719511 -1.11953e+06 -210251
114 1 11.3552 2.64928 38.8298 -3.31724 1.02671e+06 1.64015e+06 973742 878956 928669 -705701
115 1 9.7003 4.3478 5.82942 -2.97177 1.85262e+06 1.60126e+06 -231499 122933 170887 -179631
116 1 9.19955 2.66622 8.40184 -3.24014 85608 -26071.2 187921 321350 -173817 -114943
117 1 8.76069 5.43094 8.22499 -3.30697 -336907 118528 -180419 226440 373887 -128573
118 1 7.94682 3.99554 10.5475 -3.32582 57751.5 255163 198733 151148 -108589 104769
119 1 7.2549 2.34624 12.814 -3.30149 285231 782854 -41090.5 195055 23560.8 -87164.3
120 1 6.98999 5.37004 13.0625 -3.30553 -16578.4 399611 435309 117051 -57493.1 -107649
121 1 6.08545 3.64714 15.3342 -3.31865 138548 454567 289964 13398.4 -221456 -58955.4
122 1 5.63084 1.98426 17.6864 -3.33181 183029 279196 371147 -37772.6 -77495.8 -186143
123 1 5.0291 4.9082 17.5986 -3.31699 20067.3 406577 138026 62134.8 25088.8 -388128
124 1 4.45152 3.24362 19.9369 -3.32055 360407 794485 -60805.9 -113024 136012 1534.15
125 1 4.00496 1.50532 22.0651 -3.31203 578152 653458 481538 -123251 7168.91 69861.8
126 1 3.53786 4.49463 22.2376 -3.3291 34513.3 407241 -262843 121001 -11627.8 -239809
127 1 2.99971 2.73214 24.5198 -3.3262 561117 697642 769562 45255 91559.9 -91391.5
128 1 2.54742 1.22134 26.9983 -3.28183 -32855.9 215285 -57994 397474 233969 203353
129 1 17.3996 4.04526 26.913 -3.32005 -85739.1 -279289 -152817 -103857 -44354.7 -287046
130 1 16.5662 2.38522 29.1727 -3.31246 -215624 -106865 -482927 559216 193948 -43164.9
131 1 0.798604 0.866314 31.5369 -3.31668 97871.7 426807 563183 379785 301117 -112158
132 1 15.9541 3.75489 31.5084 -3.27473 -33617.5 132592 373858 -146694 134953 23619.8
133 1 15.2437 2.14589 33.8057 -3.27434 188029 640305 -37009.3 418433 423085 -594396
134 1 14.5579 0.329258 36.2066 -3.27615 306581 392658 -172124 198102 40165.4 -377424
135 1 14.3567 3.25728 36.0442 -3.20265 202689 934833 -352376 -20830.7 -5563.34 -252453
136 1 13.8021 1.69143 38.3591 -3.18596 -272413 605336 340538 726310 399644 -101695
137 1 11.3468 4.60983 8.29705 -3.30408 -477083 410892 -169600 277650 -4862.52 -97566.9
138 1 10.302 5.76594 10.6462 -3.29995 3082.16 -159575 -476695 145434 -51139.4 139511
139 1 9.62031 4.33321 12.8554 -3.28387 621687 583631 228610 -38572.2 -24385.7 194528
140 1 8.80212 2.69666 15.2526 -3.30387 904758 461530 577354 333208 -26098.4 -130331
141 1 8.41021 5.59238 15.4747 -3.28778 654600 689788 396176 20141.1 -347397 -78124.1
142 1 7.85812 3.82408 17.5674 -3.32938 695797 352567 -270942 -34767 159027 -156212
143 1 7.24631 2.31582 19.9694 -3.31683 498718 -47049.6 308905 78428.5 150866 -176958
144 1 6.82338 5.02161 19.8064 -3.32065 151837 -27033.3 40022.2 251079 39884.4 -233020
145 1 6.23659 3.34827 22.2648 -3.29731 864163 205010 -104199 138999 285260 -239255
146 1 5.69965 1.92115 24.5751 -3.32195 -19330.1 -355520 -140835 390440 341812 -35877.7
147 1 5.16261 4.70521 24.4349 -3.33001 -17209.4 471125 57938.4 149341 -18425.9 -368283
148 1 4.81617 3.10688 26.8784 -3.3139 -691115 -498092 133796 543497 512216 -301435
149 1 4.00981 1.5382 29.2837 -3.31765 73488.9 -306437 -727743 76557.6 -187669 -382050
150 1 3.7746 4.32874 29.0493 -3.28821 -164028 -453016 -563428 464817 -109800 155044
151 1 3.07622 2.76342 31.4645 -3.3062 -1.26072e+06 -129921 151769 810553 79622.9 -359262
152 1 2.48925 1.17147 33.9742 -3.28938 322209 563541 429876 294494 26895.4 -105395
153 1 17.4176 3.99429 33.9867 -3.29854 -366415 85816.5 456233 -301759 -81006.8 -426112
154 1 1.59046 2.25921 36.6654 -3.22654 -140849 -309333 954508 343455 398589 211250
155 1 0.823329 0.657431 38.9531 -3.10068 12758.4 1.44638e+06 316068 564672 -380477 354716
156 1 16.2196 3.67318 38.9067 -3.4702 456648 595238 449454 -427789 1.50828e+06 -29702.4
157 1 14.8295 5.18125 5.9123 -2.91376 1.6576e+06 2.08599e+06 -408079 175737 187450 -359485
158 1 12.9435 4.7984 10.6587 -3.31108 -75670.5 434700 291184 -125331 17259.2 20797.6
159 1 11.263 4.76399 15.2211 -3.28841 846727 424266 356387 176442 -237298 198000
160 1 10.0533 5.82923 17.6448 -3.30591 560078 287549 -402160 38694 -28806.9 -283043
161 1 9.44553 4.12755 19.8931 -3.3042 160984 -681571 -248620 172712 94162.8 -208974
162 1 9.14341 2.57347 22.3109 -3.29665 316526 607438 498867 248184 -33169.3 42761.3
163 1 8.5407 5.32696 22.1351 -3.30358 549117 157613 -107429 255654 202547 -128727
164 1 7.8767 3.84822 24.6565 -3.30464 490563 8946.1 70594.3 145479 266701 -383676
165 1 7.28573 2.23728 26.9835 -3.27155 -67719.6 725970 405079 234111 76826.2 -211201
166 1 6.9349 5.04906 26.778 -3.30499 326245 -214721 -61364.5 141036 532178 -308162
167 1 6.31724 3.47828 29.3831 -3.29906 -187877 757250 -408287 186591 -278075 -176590
168 1 5.54921 1.90979 31.5726 -3.28603 -345856 -346513 -322664 31305.2 188735 -64043.8
169 1 5.27876 4.74212 31.6048 -3.31973 -225491 86122.5 489160 461093 248545 -206281
170 1 4.68559 3.01318 33.9042 -3.33133 -571511 -306113 -153778 40197.6 164337 -431907
171 1 4.10021 1.36758 36.3291 -3.32773 -412061 130179 39654.4 276804 50306.2 -76491
172 1 3.54467 4.26571 36.3095 -3.26752 -353382 -5381.58 460748 297050 -162352 192726
173 1 3.3605 2.52822 38.9382 -3.39212 -583364 1.46454e+06 763322 311903 -771127 -123514
174 1 16.3224 5.41143 8.39214 -3.30961 -39229.7 -169453 -684248 127611 127083 -75807.9
175 1 14.7432 5.1606 12.9562 -3.30831 256278 -196497 453302 -107230 42750.1 -22476.1
176 1 12.9347 5.12066 17.4684 -3.28944 178101 -84871.5 -242519 329059 15611.5 -339847
177 1 11.2253 4.51482 22.1942 -3.32116 13344.7 351991 511712 -40216 247436 -104104
178 1 10.0832 5.85204 24.5957 -3.30023 856807 418995 410351 62697.8 274464 60189.6
179 1 9.6735 4.03635 26.9366 -3.32178 362400 560154 354943 -49136.9 -80156.8 -201422
180 1 9.04598 2.58671 29.3538 -3.31138 900968 1.12614e+06 888925 196893 144889 46034.2
181 1 8.4522 5.40936 29.2963 -3.31501 -48589.3 103042 574997 118050 -123880 1858.15
182 1 7.79162 3.7212 31.5769 -3.26609 -18061.9 439882 -317525 232233 -264201 -44046
183 1 7.36527 2.07789 33.8654 -3.32109 -136049 -157980 -498690 113278 102150 -272422
184 1 6.81718 4.84327 34.0445 -3.31015 59560.5 330328 -171808 68753.9 -364771 -242969
185 1 6.28172 3.2023 36.2945 -3.30619 848240 -103899 -326165 139203 236142 -317791
186 1 5.91765 1.61376 38.8006 -3.25294 585481 -165851 969731 657014 296547 -65206.3
187 1 5.33429 4.38883 38.5581 -3.24062 161229 607615 127785 -247839 108997 -256773
188 1 17.9924 5.9809 10.6185 -3.32066 467989 -216910 -115512 206307 -117857 202406
189 1 16.211 5.64078 15.345 -3.3259 -146334 227720 -428985 120447 163285 -75643.9
190 1 14.5244 5.21885 19.878 -3.33894 250637 272384 -144677 173078 242243 -17567.4
191 1 12.9255 4.75158 24.647 -3.30782 72375.9 374988 -9034.21 14761.2 -32600.3 200316
192 1 11.3282 4.39429 29.2154 -3.31485 809382 -159184 -294849 -61040.6 69459.5 256907
193 1 10.0779 5.70552 31.5712 -3.30497 487708 629729 -280007 97031.3 18722.2 313731
194 1 9.60568 4.10064 33.8435 -3.311 882192 -3576.38 497356 174272 334740 121168
195 1 9.13442 2.33929 36.0393 -3.2427 157500 656312 -673976 142431 -38681.9 -189863
196 1 8.53369 5.20576 36.1044 -3.26098 561704 162475 -886635 287292 10834.7 -16160.6
197 1 8.32463 3.60628 38.2477 -3.18976 1.04221e+06 -772422 -1.66724e+06 239421 85650.8 -159430
198 1 17.8377 6.02332 17.5951 -3.32561 -597003 97728.8 -409247 297831 23923.4 -104319
199 1 16.1698 5.34378 22.3489 -3.31836 -255260 -20390.4 82097.1 124195 -60968.7 -551518
200 1 14.654 4.89904 26.7618 -3.28457 -179492 254584 -815791 -190730 219243 -216764
201 1 13.0326 4.80687 31.5057 -3.32007 823143 338417 -95297 -230483 161895 -154551
202 1 11.686 4.41963 36.2521 -3.23235 1.12808e+06 1.06664e+06 740797 59907.6 366020 -53517.3
203 1 10.5465 5.77879 38.3846 -3.15406 1.27741e+06 586875 130255 37907.6 323149 115021
204 1 17.8438 5.70783 24.4928 -3.3169 -232457 403519 -545250 277229 -101296 -145168
205 1 16.3072 5.31359 29.1291 -3.32708 -460423 177344 -375317 -326745 147847 95493.7
206 1 14.5769 4.9809 33.9005 -3.27647 514943 458223 -97026.3 -91909.1 205432 -147296
207 1 13.3093 4.824 38.6953 -3.30528 315126 1.99132e+06 1.75502e+06 -1.01009e+06 773291 1.39603e+06
208 1 17.8724 5.6362 31.4131 -3.30175 -91107 143122 164270 -249470 35867.1 276593
209 1 16.3956 5.07798 36.3798 -3.24109 -1.11435e+06 454445 483789 72038.9 250499 -239887
210 1 18.0686 5.50339 39.0127 -3.35446 771071 455674 806395 -700857 -330986 -436518
211 2 14.4243 1.23626 102.227 -2.83132 -1.45805e+06 14199.5 -591683 1.06133e+06 -1.34473e+06 -324695
212 1 14.9913 0.905706 99.5477 -3.76449 -56939.6 657818 1.39152e+06 114931 -9570.05 400634
213 1 3.4164 0.146662 103.204 -2.98691 -77515.9 -66709.8 -1.53221e+06 26259.2 -399881 -459972
214 1 2.35884 0.807874 99.0516 -3.639 269424 1.2059e+06 249665 543309 636162 618738
215 1 1.47883 1.41193 101.664 -3.35023 1.03433e+06 690417 -137498 231113 -357419 -615235
216 2 0.519642 0.28408 97.0308 -3.42028 1.86606e+06 3.03776e+06 1.61352e+06 39455.3 -182446 -23558.6
217 1 14.9304 1.27824 94.709 -3.62843 -519571 -444111 683994 666346 -1.03683e+06 -125402
218 1 5.86476 1.59962 102.908 -3.59751 259612 219400 33828.6 59118.8 202291 -291832
219 1 6.7141 0.875476 100.288 -3.86844 668106 849950 -611639 -142684 -672059 87052.8
220 1 5.78407 6.60145 94.7568 -3.63433 -1.98025e+06 -2.32299e+06 -625807 966359 -635473 430447
221 1 4.72156 2.44141 98.9103 -3.69951 -621483 -2.14695e+06 395609 -231968 -254825 -445088
222 2 4.25224 1.00761 101.008 -2.93551 599003 -1.61775e+06 424843 -1.60732e+06 -341116 377554
223 1 4.15397 1.39314 93.8306 -3.78181 -621659 694372 183878 1.05416e+06 -256027 -336097
224 1 2.20705 2.51195 95.4964 -3.47252 543029 -751314 171439 440006 -78840.5 -589167
225 1 0.633778 0.81047 90.781 -3.59876 -211909 -568906 -696221 148849 311568 -216148
226 1 3.25118 1.89029 90.9578 -3.7923 507606 51751.7 715973 346612 226704 93046
227 2 1.67625 1.6866 93.0495 -2.90463 -832483 -2.34835e+06 488794 -1.46341e+06 -615388 629359
228 1 0.707836 0.816373 88.2708 -3.41306 1.41578e+06 192495 -1.88463e+06 -499849 348320 168347
229 1 8.19671 0.0275499 95.7326 -3.60175 1.57392e+06 925041 -235850 393603 -422719 699166
230 1 7.3723 1.27651 89.1016 -3.71083 -1.64677e+06 -1.34458e+06 369175 384052 29836.4 54430.8
231 1 9.03885 6.62064 90.1154 -3.76372 -177290 1.48719e+06 660839 362630 -217074 -838127
232 1 11.9415 4.60695 103.713 -2.94321 888325 2.51281e+06 1.10989e+06 437182 -105087 -307657
233 1 3.55541 2.95866 102.686 -3.46557 766699 867797 937081 -294662 -750648 342245
234 1 8.16901 2.87626 101.982 -3.59128 1.47175e+06 2.26746e+06 791921 459841 -394567 -237993
235 1 6.00717 4.47547 103.404 -2.91767 424488 741519 42237.3 82504.1 -31662.7 844988
236 2 7.97514 0.304746 102.496 -2.57199 1.04476e+06 -11808.1 -831373 -809383 -107378 -1.05674e+06
237 2 5.70083 3.25867 101.008 -2.96248 304254 -712565 119406 -2.15091e+06 -989376 550235
238 1 7.2055 3.6125 98.8638 -3.6751 317091 950016 776558 599153 218602 59669.1
239 2 6.62539 1.31159 97.5419 -3.04887 -903823 -729551 1.46234e+06 -503734 -611907 -280240
240 1 4.87875 2.93826 96.2474 -3.47432 795809 466224 -575579 -204594 -78948.6 890405
241 1 12.3394 1.79095 103.353 -2.84809 1.95629e+06 1.88338e+06 -148828 -393977 -171487 944440
242 1 10.1752 1.17122 101.088 -3.53227 815887 -634492 134943 409347 218761 -458559
243 1 14.2286 6.01199 99.1487 -3.58918 -1.15242e+06 -3.19102e+06 -633089 -1.57604e+06 237542 -604646
244 2 11.5426 1.43379 98.891 -2.91937 -278759 -1.65808e+06 514829 -1.82881e+06 -433337 665617
245 1 10.0838 3.76832 99.9539 -3.71906 1.14525e+06 1.38829e+06 816106 -251157 -86442.8 204844
246 1 9.02622 1.73944 97.9917 -3.6748 78084.3 1.26265e+06 981050 733338 -261403 -272448
247 1 11.0276 0.562548 96.3545 -3.47579 995521 -432036 1.61346e+06 178969 -140749 -413504
248 1 7.80146 3.00132 95.8267 -3.60892 35141.4 -58347.9 -386263 -596019 -1.14789e+06 -1.04846e+06
249 1 11.3661 3.1679 97.1907 -3.67143 -1.42128e+06 -2.302e+06 -254035 699267 -571349 18543.2
250 2 9.22715 4.39129 97.2259 -3.03546 215779 -1.42329e+06 539775 -223824 668831 -1.13846e+06
251 1 8.32501 3.41684 92.9698 -3.74345 176749 1.00616e+06 -44283.4 -96338.7 85629.8 -727962
252 2 8.98396 2.01219 90.9893 -2.89242 -73577.5 -1.93815e+06 400963 -1.6684e+06 -347157 19008
253 1 10.3111 4.05 91.1791 -3.65627 -1.13867e+06 -2.92239e+06 -180090 -2.18922e+06 56308.1 -149020
254 1 6.28582 2.0833 91.6869 -3.92939 1.24547e+06 452351 -487543 -454486 -743897 579738
255 1 8.56491 0.486272 93.1286 -3.71686 -1.072e+06 -963065 282009 -535753 1635.09 -313862
256 1 10.4059 4.06604 94.8939 -3.5574 1.44379e+06 1.63644e+06 -375110 12254.4 -648611 620324
257 1 7.44311 4.09742 90.1828 -3.76759 -194372 -270835 -105944 732816 876060 674953
258 1 9.56978 2.86709 88.6227 -3.52138 -612316 527756 -370002 -159919 411195 291722
259 1 12.8504 2.36195 100.855 -3.57559 -1.71383e+06 -1.54506e+06 -821636 44886.1 621867 409758
260 2 10.6973 3.14464 102.377 -3.21507 -1.47352e+06 -609640 -120359 -395344 22859 119988
261 1 12.4884 5.08339 100.982 -3.60254 -35930.3 -1.2755e+06 -251920 -424846 1.01345e+06 4542.57
262 2 13.1129 3.71439 98.8491 -3.03684 -67462.6 -2.33934e+06 -1.49954e+06 -1.1484e+06 -734821 281292
263 1 15.0385 3.85182 100.681 -3.65944 -191064 844049 -124951 -738781 345118 555823
264 1 11.4514 5.60398 98.2675 -3.69591 775714 -318324 459241 704942 446626 -258965
265 1 13.723 4.65493 96.6548 -3.5998 -92199.7 178209 -1.61963e+06 74966 286156 546023
266 2 6.63666 1.60987 94.3691 -3.03611 -981465 -1.69901e+06 930388 -880997 -1.26011e+06 -235693
267 2 5.23204 2.65858 89.3051 -2.95084 441185 -1.51854e+06 -220967 -499101 467414 -220562
268 1 11.0151 5.31464 88.571 -3.51267 144418 -1.39538e+06 -221135 674995 -198626 -1.01677e+06
269 1 2.49091 3.75852 100.038 -3.69946 -413467 1.12073e+06 1.31012e+06 -252057 -10309.3 -57839.5
270 1 13.6086 1.82192 97.1938 -3.69616 128932 344369 1.88585e+06 -81909.5 -534798 -286190
271 1 10.85 1.94495 93.0019 -3.63475 1.31118e+06 984366 310062 -271783 456600 273178
272 1 11.623 1.53218 90.3606 -3.65229 1.03364e+06 416664 176473 110892 418397 -653453
273 2 14.0895 1.61509 89.4827 -3.56141 1.03734e+06 1.96193e+06 -447267 1.7522e+06 377031 -591730
274 1 12.1735 2.96525 87.958 -3.71399 931027 -93437.1 894477 -1.35946e+06 3.18449e+06 -2.58465e+06
275 2 3.065 3.78477 97.5301 -3.57617 -173952 1.28769e+06 -1.07161e+06 816989 1.11976e+06 -1.18854e+06
276 1 15.8951 3.03929 98.148 -3.56691 670552 1.57e+06 669607 -621021 -329361 -39157.9
277 1 16.353 4.85435 95.9612 -3.70883 440300 -784706 -264184 -712842 2.20366e+06 -1.73664e+06
278 2 12.6355 2.72212 94.891 -3.23327 1.64743e+06 2.1334e+06 2.65427e+06 322505 -1.84884e+06 1.20862e+06
279 1 13.8042 1.95884 92.22 -3.69394 1.03793e+06 152817 3.71377e+06 258748 -2.11556e+06 1.10249e+06
280 2 14.2091 5.80606 94.4041 -3.4111 51721.5 848170 -1.20231e+06 940134 438678 -995718
281 1 12.4867 4.49426 92.9397 -3.64486 1.08247e+06 -8660.79 -1.02736e+06 -387932 -342441 -857259
282 1 13.1386 4.00068 90.3193 -3.6278 1.13912e+06 997789 -48479.8 -108479 663621 -177731
283 1 15.3745 3.83477 93.5489 -3.49041 58810.8 232268 -1.43629e+06 377547 1.21316e+06 -660871
284 1 16.2103 3.44123 91.0856 -3.59176 686801 68473.8 -1.27489e+06 -159506 6746.16 -1.11652e+06
285 1 13.6088 6.6115 89.2713 -3.62405 196735 1.01326e+06 1.71646e+06 339711 -756776 456016
286 1 14.6156 5.72537 102.887 -3.00497 3.75065e+06 1.14237e+06 30652.2 -818703 -135506 109885
287 1 5.20131 0.0344996 95.981 -3.60219 256510 -287042 -818820 -1.0273e+06 -1.311e+06 -261871
288 2 16.9129 4.62296 102.679 -2.51436 1.1241e+06 572083 -546683 700.1 -542348 495280
289 1 16.5661 6.35278 100.785 -3.63735 87275.9 12251.3 -964538 -940727 -683673 -472190
290 1 4.74934 4.97993 99.2351 -3.56041 108394 -1.32047e+06 -1.53686e+06 -68660.8 292494 -1.1411e+06
291 1 4.0819 5.57598 101.734 -3.42705 329296 1.7511e+06 -1.37457e+06 -139428 386469 -105018
292 1 17.0518 5.91476 98.2408 -3.5144 698107 1.04306e+06 -1.85025e+06 2953.04 725939 -850373
293 1 16.7664 6.49265 93.8072 -3.6625 650217 903501 267951 -285499 -356287 99820.5
294 1 17.5454 6.04166 91.1647 -3.69804 1.16157e+06 650913 -368893 -154625 377013 428409
295 1 14.8231 5.88234 91.7605 -3.75863 117698 738984 3.36088e+06 348146 -1.60974e+06 1.16801e+06
296 2 15.7891 5.34244 89.0262 -3.4542 2.31038e+06 3.0563e+06 3.0608e+06 809790 -577790 999381
297 1 5.72258 3.98499 93.9073 -3.72168 763994 -375646 150487 685580 1.00361e+06 727986
298 1 3.53687 5.15873 95.2644 -3.58793 -1.44736e+06 -196297 -1.36468e+06 -6071.02 338896 17716.2
299 1 2.85883 3.87074 92.9319 -3.7255 -1.04328e+06 -2.53752e+06 -739798 -1.57917e+06 -313737 -366953
300 1 4.87545 4.48979 90.9492 -3.75507 -216419 914811 130605 199419 -352823 -735806
301 2 4.1435 6.18806 92.9301 -2.94053 359935 -1.57856e+06 -311921 -1.01161e+06 -865759 263252
302 1 9.75279 5.5721 102.072 -3.63214 1.15963e+06 987679 515159 -165359 421235 -91767.8
303 1 6.72152 5.42094 96.8494 -3.57464 1.51709e+06 328674 -24751.4 385658 -657779 1.07794e+06
304 1 6.9027 5.49405 100.966 -3.66369 -942870 -2.89649e+06 -835224 -1.47434e+06 -157716 -537075
305 1 8.7737 6.30674 98.7221 -3.66963 171671 581832 595605 389086 -390100 -621449
306 2 8.00772 5.37264 94.5282 -3.04157 -412043 -966288 -741772 -838491 5216.6 -1.24464e+06
307 1 6.83208 6.00919 92.2057 -3.92692 1.5177e+06 742748 -1.71741e+06 -341801 -796602 209166
308 1 2.83394 4.02152 89.1479 -3.50705 1.33871e+06 766301 -621418 -852992 -858146 671206
309 2 6.58787 6.32293 89.7112 -2.96867 -1.04268e+06 -1.74744e+06 348688 65292.2 -671648 342159
310 1 9.94995 6.25237 93.0667 -3.64918 300236 260026 927435 263242 475403 -76681.4
311 2 11.5509 6.28789 91.0595 -2.92471 92067.3 -747370 640929 -1.6647e+06 -472436 -85251.2
312 1 5.47388 4.69855 88.1155 -3.68806 627825 -618296 226398 -933421 -169099 966195
313 1 3.50056 1.31404 88.0259 -3.77834 455045 574838 -68809.1 -496478 -465370 370281
314 1 13.1733 0.605264 87.1924 -3.44647 533976 -1.40941e+06 -1.59407e+06 447866 565361 -641169
315 2 16.7116 6.39963 84.9027 -2.89192 -232697 -1.70353e+06 -400584 -1.64873e+06 -845919 -600880
316 1 18.3822 6.59064 82.8281 -3.73961 1.47258e+06 465056 461979 292486 310807 58539.8
317 1 6.02671 2.10287 83.2469 -3.67292 -1.06353e+06 -3.83227e+06 -914784 -1.51879e+06 -69647.3 -219463
318 1 6.13815 6.66378 83.8121 -3.93995 1.15454e+06 1.18009e+06 -414805 -291808 -570915 61686
319 2 1.08973 0.570507 81.4124 -3.03209 -345102 -801278 387208 -248627 734296 -37733.9
320 1 3.90396 6.03719 77.0098 -3.71658 34650.3 904670 253445 -248069 -438647 -75439.1
321 1 1.78506 0.0420391 75.1327 -3.69079 -1.07372e+06 -2.61971e+06 -605380 -2.11734e+06 357341 -225089
322 1 5.79678 6.45634 78.8459 -3.56619 1.70142e+06 1.34051e+06 -14228.8 -426678 -1.36763e+06 286011
323 1 18.2686 6.6229 74.282 -3.7404 1.15992e+06 408217 292798 809622 853665 587836
324 1 4.08628 1.35279 85.1632 -3.70353 -1.17208e+06 1.39203e+06 -11251.7 -262621 -145353 -530778
325 2 8.72231 6.6161 83.0713 -2.95662 -409015 -2.12707e+06 -281792 -1.2269e+06 -725388 249584
326 1 10.6162 6.63427 84.8037 -3.57535 474070 372998 -1.53771e+06 -117445 487531 717081
327 1 3.32749 2.05427 82.2017 -3.78309 -727049 -84363.7 334121 761657 316343 418463
328 1 5.40745 0.882263 80.7157 -3.51247 -1.13181e+06 524120 -31153.7 -241190 3200.39 31109
329 1 2.6112 1.22955 72.6923 -3.48639 49630.5 -974140 -617048 293024 123383 -218188
330 1 9.34756 0.0671797 84.1958 -3.76382 521457 -760591 3.32908e+06 562738 -1.17983e+06 606042
331 2 13.8802 6.33394 81.6077 -3.47661 592190 1.49968e+06 216125 1.72397e+06 316413 -112352
332 1 11.3517 6.3069 82.291 -3.60033 -236788 250849 -1.67694e+06 167473 513306 -521382
333 1 7.99136 0.834325 79.9747 -3.72609 -209143 -190168 -185573 -754391 2.04265e+06 -984423
334 2 5.99038 2.25708 78.4646 -3.33183 271678 2.09193e+06 -123265 510297 960657 -894275
335 1 4.06704 0.336501 77.0333 -3.59049 1.01408e+06 1.38153e+06 59871.3 -687354 -329471 -1.48054e+06
336 1 8.60904 6.604 74.3415 -3.5998 169705 167759 -1.01753e+06 360562 686528 -628795
337 1 10.8674 6.43978 77.7577 -3.64921 885925 961094 -394329 -41132.1 155787 -66727
338 1 11.5444 5.93424 75.2137 -3.67079 867684 255573 -757556 -411722 -5228.83 -975214
339 1 6.10285 1.99956 86.8342 -3.4589 1.91387e+06 966867 -256843 -1.28616e+06 -1.35938e+06 940607
340 1 1.66626 2.49312 80.0089 -3.6768 277085 36189.5 169609 -952299 -296118 505335
341 2 8.46093 0.636232 86.9432 -3.40368 2.62755e+06 2.81547e+06 3.09359e+06 1.06719e+06 -119255 233933
342 2 10.1444 4.23551 86.3243 -3.52931 1.57616e+06 1.88238e+06 -302318 1.07974e+06 1.22214e+06 -1.52868e+06
343 1 8.27465 2.44838 84.8511 -3.56747 1.41375e+06 -1.32599e+06 -249424 -232659 -129052 -1.97683e+06
344 1 11.873 1.61968 83.0322 -3.51911 1.79007e+06 579468 -1.03071e+06 630166 -107221 -826901
345 1 11.1291 1.9115 85.5656 -3.61302 919575 916653 -859950 561157 577114 -85099.1
346 1 10.7874 3.97756 83.7856 -3.77411 199575 -556769 3.33737e+06 804844 -1.45592e+06 887166
347 1 9.04952 2.1253 82.2602 -3.60353 864034 497252 -55720.4 270905 -190319 680442
348 1 8.40241 2.35607 77.6242 -3.62872 -58965.3 482253 -134120 207605 784885 -339704
349 1 8.99881 1.73134 74.9268 -3.60259 355057 776777 -287296 -369490 543017 352222
350 1 6.34228 1.75303 75.7076 -3.79361 445979 858845 2.89306e+06 237581 -591451 331783
351 2 7.19299 1.13234 73.0808 -3.48195 1.8076e+06 3.01625e+06 1.39337e+06 406963 -127046 -462295
352 1 14.6855 3.09324 87.283 -3.49624 -1.01868e+06 638431 -1.22592e+06 129155 664741 611790
353 1 13.4993 4.18461 83.1772 -3.54511 727229 -338991 -804400 -1.66423e+06 2.77039e+06 620489
354 1 12.7825 4.44742 85.657 -3.60567 582956 327550 -1.39452e+06 -503099 -212272 -700014
355 2 11.6829 3.45585 81.0843 -3.36068 3.71203e+06 2.19873e+06 1.90271e+06 455257 -738754 654612
356 1 10.4785 3.85836 78.7695 -3.68151 369670 -41837.2 1.32223e+06 114130 -415734 495848
357 1 16.9886 4.65377 86.8744 -3.59515 -2.63943e+06 -2.08403e+06 -1.09014e+06 368596 -573380 -574388
358 1 2.75628 4.19007 84.3172 -3.95176 949761 466788 -1.05318e+06 -452090 -553903 -93818.2
359 1 16.5098 6.54241 77.7991 -3.71939 1.34283e+06 481845 230036 1.40575e+06 861717 676540
360 1 10.4835 1.06414 79.2829 -3.49979 -944700 335915 -83211.3 -66127.3 244092 -159060
361 1 12.8232 2.54438 78.9613 -3.62938 -1.0649e+06 -1.67613e+06 96495.9 328325 402104 -147864
362 1 13.7655 6.41648 76.8756 -3.68229 -1.28105e+06 -3.88874e+06 -865879 -2.3049e+06 196693 206079
363 1 11.5991 0.421121 74.9409 -3.75011 113925 886931 103256 237213 380120 -555322
364 2 10.8882 1.94055 76.9654 -2.88591 229274 -2.53592e+06 178839 -1.23511e+06 772548 748967
365 1 1.64366 2.03251 85.9243 -3.76051 -582853 39104.1 84079.8 898734 373103 242060
366 1 15.7043 5.41337 82.953 -3.67925 -1.41469e+06 -509002 543074 -1.48347e+06 -42422.7 255436
367 2 15.523 4.0219 85.1298 -2.91226 480910 -2.78295e+06 -604288 -1.9355e+06 605063 343153
368 1 14.2798 2.24947 81.2054 -3.515 2.96061e+06 2.15997e+06 -906160 -1.00944e+06 -1.55083e+06 64757.6
369 1 14.1585 1.84656 84.8436 -3.72811 -577591 -2.19736e+06 -671969 -1.36822e+06 81002.5 -376486
370 1 16.1645 2.56445 83.0079 -3.69043 -692464 689875 385297 11618.5 -545972 -521275
371 2 14.9605 1.39222 78.6887 -3.04024 531424 -638292 264773 234773 773468 59608.5
372 1 13.6111 2.0698 76.2854 -3.87 1.40987e+06 401503 -1.39809e+06 -390697 -863280 51102.8
373 1 15.0413 3.83059 77.7447 -3.71789 -294782 241764 314623 109209 89691.1 -891467
374 1 13.0067 5.13933 79.2674 -3.53447 44483.2 -1.35712e+06 -1.79218e+06 362819 -5327.35 -763224
375 1 13.5332 6.3654 73.1066 -3.5383 1.81898e+06 943106 -862654 -154027 -758369 881101
376 1 11.2999 3.24718 74.9492 -3.72735 14793 -680342 637714 -219481 611163 258069
377 2 13.3781 2.21822 73.6692 -2.99591 -660085 -1.35995e+06 748529 -460466 -803167 37189.4
378 1 14.039 4.41402 74.8859 -3.67303 658577 -951196 261743 710847 165086 444889
379 2 12.5052 4.27779 77.0606 -2.96092 -278446 -1.72749e+06 -293344 -1.497e+06 -367797 -122671
380 1 11.5405 3.64763 72.321 -3.37116 1.76245e+06 1.31804e+06 -509058 -546359 -195303 941819
381 1 4.35239 3.39378 79.8163 -3.48624 869727 973100 -276779 -269737 -163859 -446863
382 1 1.61807 1.9961 77.1264 -3.70544 533573 221450 528523 315464 502623 142106
383 1 2.67019 3.92626 73.2285 -3.63988 -29429.2 -784028 290002 734512 -876189 521401
384 1 15.7809 2.60289 74.1787 -3.6974 -1.15871e+06 709578 561980 544292 -219610 -909619
385 2 3.19596 2.14622 75.0164 -2.94565 -808316 -1.11035e+06 61635 -1.5608e+06 -485448 -532813
386 1 12.1419 0.67718 72.1697 -3.6888 1.03535e+06 -243595 413454 -620311 -197714 118966
387 1 14.6358 5.94861 86.7303 -3.59017 457590 188818 1.82739e+06 -695592 -732844 -479755
388 1 3.93755 6.09029 85.8598 -3.76213 116737 235150 695569 58729.2 74788.1 -895292
389 2 3.73653 3.53083 86.7044 -2.95645 -977014 -323555 81699.5 -550930 427434 -296621
390 2 17.7229 4.30995 81.6432 -2.9654 -534866 -1.59171e+06 1.43171e+06 -454131 -389476 359695
391 1 15.6683 5.28982 80.1325 -3.54877 972267 1.48617e+06 295197 -515418 -342791 223099
392 1 8.36392 5.19168 87.7498 -3.43488 856277 -25923.2 -331630 -458432 -888498 519753
393 1 5.71923 4.01279 85.0815 -3.70779 1.10079e+06 9714.16 679255 166751 -85080.8 19164.3
394 2 7.31663 4.25384 82.9694 -2.94814 -185740 -1.04456e+06 -348851 -2.52544e+06 -665037 -1.0329e+06
395 1 4.89292 4.63717 82.1377 -3.7316 -312930 984990 160846 209974 -303177 -1.03292e+06
396 1 7.07717 3.32102 80.7494 -3.59204 -283046 -294648 -1.58874e+06 268027 -634073 -272997
397 1 18.4018 6.03206 79.9951 -3.663 864577 -108111 512316 -408624 17557.4 590507
398 1 7.19307 6.1049 81.135 -3.70617 -1.69894e+06 -706968 393200 212692 -147647 -84371.7
399 2 4.58439 4.54234 74.8862 -2.94569 453656 -1.93942e+06 -486170 -1.46219e+06 -188760 336566
400 1 17.2093 4.43843 75.7655 -3.84637 1.63234e+06 854482 -1.82395e+06 -533140 -1.27206e+06 632963
401 1 4.11241 3.20557 77.0248 -3.75323 -1.06888e+06 9631.31 1.097e+06 -970010 -55876.3 -145105
402 1 5.21535 5.30432 72.6732 -3.52341 -221972 418663 -1.93274e+06 343789 29302 662500
403 1 8.41678 5.01868 85.0531 -3.61619 -345690 -1.98831e+06 -58913.8 -449876 -647334 -320404
404 2 6.46915 6.23204 86.427 -2.95581 -717366 -693167 1.22628e+06 -460897 -367411 586244
405 2 17.5359 4.35163 78.3704 -2.94606 -454274 -1.74094e+06 907422 -239656 -301937 218548
406 2 15.9657 5.18761 73.3425 -3.08813 -372841 -2.03121e+06 86183.7 -126048 -143067 -308520
407 1 9.44916 4.63789 81.3507 -3.65093 -71189.1 -366185 1.48225e+06 -530135 -564403 377406
408 1 6.40743 4.44365 76.9055 -3.6915 374302 550474 -247500 -516816 570393 534967
409 1 7.15941 4.09734 74.2439 -3.64482 217695 964203 -164372 166408 298980 -216850
410 2 9.67257 4.5421 73.5049 -3.60598 -106886 1.89095e+06 38351.3 1.74301e+06 879096 -615039
411 1 7.76069 5.66493 71.9994 -3.70721 -1.42895e+06 -464735 90602.3 -96824.7 1.53606e+06 -933280
412 2 8.24121 5.06615 78.9759 -3.26074 2.62793e+06 2.29917e+06 2.46005e+06 853620 -781004 704480
413 1 9.25673 4.56614 76.2291 -3.74663 341426 392910 3.65198e+06 482597 -1.04907e+06 1.107e+06
414 1 5.0671 2.48821 73.2041 -3.68738 627894 916336 2.27909e+06 -777933 43823.9 -171070
415 2 1.69518 0.0306931 70.4848 -3.47375 437122 2.28528e+06 192026 1.34886e+06 264223 -124063
416 1 6.18157 6.61199 67.6724 -3.75401 190528 903406 2.96379e+06 303886 -1.96325e+06 667008
417 1 10.2185 6.00503 71.2727 -3.53771 -1.6245e+06 71380.1 -1.94548e+06 -144072 668077 197640
418 1 4.9766 0.184441 67.0299 -3.63086 827909 722787 -920550 -359992 750632 561069
419 1 4.14486 0.360823 69.5496 -3.63865 -112440 527915 -1.12321e+06 211217 578742 -251791
420 2 7.31546 6.33254 65.0319 -3.19371 2.03767e+06 2.742e+06 1.5924e+06 369123 -821840 1.00379e+06
421 1 2.14881 0.1766 62.8065 -3.63612 775469 -766752 1.32161e+06 -246946 -343671 271642
422 1 8.5516 0.767783 70.9206 -3.68006 -1.29959e+06 -1.72352e+06 423626 719006 -318958 76485.2
423 1 9.56758 0.0948368 68.2391 -3.89826 1.73377e+06 952306 -590869 -405218 -795716 -84403.7
424 1 8.54896 5.53647 62.8147 -3.66941 -1.47123e+06 -1.81631e+06 -554669 368692 268732 197290
425 1 7.33199 1.50358 66.8444 -3.69285 -237163 -1.76309e+06 506048 -356759 -170911 -256920
426 2 6.83629 0.202205 69.0343 -2.88381 546085 -2.09916e+06 211824 -1.34361e+06 -129842 158167
427 1 6.73436 0.258552 61.8782 -3.79355 -1.97883e+06 282344 186421 402762 194206 -655527
428 1 4.84316 1.4354 63.2999 -3.40311 467234 -1.11373e+06 -2.59822e+06 440692 734302 -479923
429 1 7.14617 6.25898 58.876 -3.68993 -59340.7 -42036.6 479146 -495345 -107429 55150.4
430 1 5.74908 0.835956 59.1001 -3.70625 159240 285821 71398.6 527815 874878 839070
431 2 4.07381 0.571299 61.062 -2.89829 -1.36194e+06 -1.52875e+06 -340180 -1.31008e+06 -531800 404551
432 1 6.96847 6.1792 56.2888 -3.34041 969890 667136 -947460 -522894 -587229 530598
433 1 15.1116 5.92716 63.8298 -3.42145 1.63118e+06 488848 -1.53298e+06 -210727 -66704.6 533907
434 1 9.818 0.191091 57.241 -3.73046 -933360 -338956 218226 215911 -392484 428050
435 1 11.5821 5.55898 58.3273 -3.77431 100434 249436 110990 -228039 -24919 -870672
436 1 14.5851 3.77892 71.908 -3.69213 608107 209649 -620495 -733600 -771365 -84957.1
437 1 6.30942 2.09235 70.675 -3.59561 543505 45203.3 1.35859e+06 242115 -636298 141290
438 1 10.9889 1.98671 69.9194 -3.66143 -885490 705764 604525 752633 256765 -836164
439 1 8.95153 3.38092 71.1357 -3.51029 268030 -949946 -852690 22827.7 542765 203219
440 2 14.5792 6.03593 70.6393 -3.02503 498661 -703617 339507 -425931 334060 -770767
441 2 8.36169 2.4089 68.8722 -2.96739 -418529 -1.68131e+06 -104151 -1.76482e+06 -441978 -672035
442 1 10.0315 2.60382 66.9076 -3.72312 646561 -252224 270170 439680 511107 171367
443 2 9.34593 0.482297 65.5933 -3.05959 -772931 -1.60004e+06 875624 -240388 -531272 9401.29
444 1 7.62543 1.79271 64.1834 -3.54844 1.39275e+06 868394 -1.12848e+06 -244918 188952 944451
445 1 15.1912 0.960806 71.8754 -3.53149 1.77339e+06 808619 -95365.2 -33481.3 -306520 476502
446 1 12.6487 0.211296 69.0065 -3.63862 708321 -1.40982e+06 158918 536412 129658 -614937
447 1 16.9824 4.83397 67.3349 -3.67458 -1.48473e+06 -3.18603e+06 -1.25067e+06 -1.62135e+06 -489144 -444848
448 2 14.3107 0.250035 66.9996 -2.90749 -949388 -1.01912e+06 -409251 -2.20113e+06 -361832 418645
449 1 12.9536 2.70892 67.8046 -3.9078 1.32553e+06 1.76344e+06 -95028.6 -850623 -592551 603902
450 1 11.8272 0.648856 66.2097 -3.79137 -1.12684e+06 1.28346e+06 285435 -976.121 -87286 -948486
451 1 17.8489 5.92514 64.7079 -3.45993 -21137.3 -1.81915e+06 -577049 934969 -570117 -889307
452 1 10.5175 2.10643 63.9557 -3.72543 143368 -267778 -220516 -796081 -630748 -435238
453 1 14.0326 2.01711 65.1953 -3.67057 -1.74746e+06 -627905 122114 575499 -336776 636807
454 2 12.0015 3.41243 65.3492 -2.94665 -477732 -447515 210280 -239765 696824 -944869
455 1 10.8789 2.17208 61.1347 -3.73084 -288263 1.11036e+06 158887 58575.5 385682 -303896
456 2 11.5167 0.735769 59.0411 -2.92569 157902 -2.17974e+06 -136216 -1.29049e+06 -511219 -191238
457 1 12.8338 2.92996 59.2164 -3.72751 -411638 -2.89782e+06 -855879 -1.38358e+06 151508 193670
458 1 8.80381 0.743006 59.8833 -3.92521 1.32809e+06 227273 -1.96381e+06 -736477 -1.06237e+06 129399
459 1 15.0962 6.00431 61.2169 -3.70543 171254 -1.18716e+06 447915 -411314 -75964.5 -381552
460 1 13.0829 2.88833 62.8979 -3.48436 2.14249e+06 1.7392e+06 -266961 -1.13287e+06 -562689 1.05696e+06
461 1 9.97422 2.89 58.3022 -3.75598 740421 425875 1.012e+06 884205 397690 409656
462 1 12.1966 1.67546 56.7296 -3.42397 -556753 342319 -1.56896e+06 -506860 311529 124176
463 1 15.2956 1.22143 69.1276 -3.76923 -232713 -605319 1.15803e+06 -241820 267948 -150280
464 2 13.3349 2.20258 70.4412 -2.99336 -1.34396e+06 -666722 1.30076e+06 -1.06614e+06 -727770 222576
465 1 15.0335 3.97126 69.2502 -3.65321 972907 797100 28758.7 -2193.77 162690 -463076
466 2 15.6233 2.6476 67.0742 -2.9368 1.5465e+06 -2.40955e+06 -615105 -1.46053e+06 -712312 333836
467 1 2.33694 2.71784 69.0384 -3.61265 657666 737664 85561 -491062 251702 819727
468 1 14.3049 4.9103 66.183 -3.69801 333685 241199 205345 1.2099e+06 1.09834e+06 253658
469 1 16.3432 3.66223 64.9345 -3.48009 -1.2573e+06 -814774 -2.53824e+06 67726.2 405726 120329
470 2 9.23719 0.514907 62.4422 -3.01225 -864117 -1.28619e+06 503769 -95616.3 -317369 288615
471 2 7.70872 1.35653 57.5776 -3.01051 -589903 -1.40557e+06 1.01507e+06 -182090 282690 136468
472 1 13.7168 4.10208 56.8377 -3.54135 575407 -504644 -1.49933e+06 717257 -132836 -236911
473 1 5.10084 2.69792 68.3447 -3.72003 554240 -149159 2.79031e+06 305846 -1.34789e+06 336250
474 1 1.00096 0.827672 65.354 -3.64782 -1.29988e+06 -826515 915582 340152 -704563 7132.13
475 1 13.4371 0.840623 60.8773 -3.5866 711346 724826 -1.47107e+06 -89822.9 855816 681309
476 1 14.2348 0.481279 58.4238 -3.53843 -487993 222827 -1.78088e+06 49582.1 473198 -941190
477 2 1.25039 0.496257 57.573 -3.6142 108426 1.43238e+06 -219013 1.70209e+06 705426 -452768
478 1 14.6917 1.81882 55.9628 -3.71821 -515046 -405768 446770 -206874 2.23698e+06 -853288
479 2 5.46148 2.37482 65.517 -3.26838 717298 1.31813e+06 -542230 1.23403e+06 268219 -619735
480 1 3.07744 2.26827 66.2826 -3.58814 809167 605206 -581809 -337671 -322287 69066.9
481 1 3.55096 3.6941 64.0336 -3.69075 -441412 -1.32042e+06 -787670 -116575 1.40614e+06 -1.50112e+06
482 2 15.3169 1.34291 62.9764 -3.47378 2.15681e+06 3.14838e+06 2.34558e+06 994503 -506613 -189166
483 1 0.876452 0.849741 60.2724 -3.76552 271362 478489 2.79789e+06 359531 -985947 340119
484 2 16.8558 4.79827 62.5575 -3.463 492264 1.85475e+06 129972 1.62452e+06 408238 -556569
485 1 15.1211 3.29447 61.0422 -3.6518 1.22695e+06 393129 265779 -483968 123449 -1.66191e+06
486 1 15.7878 2.94488 58.3172 -3.65337 763849 943412 336542 275114 83816.5 84340.9
487 1 2.58685 2.73736 61.7079 -3.57016 116536 445640 -888787 606120 892475 -485730
488 1 3.33849 2.37907 59.0813 -3.63634 1.12212e+06 751400 -167882 108854 -121303 -955623
489 1 16.2462 5.61634 57.3976 -3.64971 500390 -304098 1.08663e+06 107904 -597501 295773
490 1 17.2298 4.92257 70.9566 -3.5179 1.37351e+06 1.04178e+06 -475722 393731 -822347 1.06718e+06
491 1 12.0488 5.57544 64.1086 -3.67282 650128 -238457 1189.92 -1.00663e+06 -502774 240651
492 2 4.05133 3.52908 70.8635 -3.40225 1.91394e+06 2.25666e+06 1.69502e+06 774251 -1.95538e+06 992594
493 1 3.84516 5.10315 68.9142 -3.63373 675605 -106087 -1.28514e+06 -152099 -565464 -323389
494 1 7.50724 4.14091 66.9184 -3.55906 1.65907e+06 451404 155641 -277231 220499 -940890
495 1 6.81458 4.52031 69.4956 -3.65423 386562 212033 -470937 -44304.2 846162 -113018
496 1 4.54941 4.88565 66.2336 -3.67447 504755 563423 -19495 248512 -327236 -478141
497 1 4.1928 5.26849 61.7616 -3.64955 215452 410096 21355.9 -36289.6 55695.4 -439718
498 1 4.86614 4.86082 59.1409 -3.68303 57616.3 312321 -899052 -513309 603118 427426
499 1 17.4635 4.80144 59.7066 -3.74155 56325.1 116273 5.08292e+06 629951 -2.46631e+06 1.44528e+06
500 2 3.18536 4.24659 57.0221 -3.37048 1.77643e+06 2.31397e+06 3.43385e+06 668146 -1.37594e+06 871280
501 1 8.39745 2.7999 61.914 -3.68112 648015 293571 -436772 473678 1.00234e+06 623806
502 1 6.16172 4.23223 63.5115 -3.54066 278116 414933 928006 38447.3 -226571 350285
503 1 5.44671 2.7779 60.9922 -3.71338 -821199 -3.38429e+06 -808007 -1.62573e+06 362137 125006
504 1 7.37449 3.39002 59.0105 -3.71656 -170468 655740 590721 301845 -207104 -746660
505 2 6.74986 4.89726 61.0827 -2.95573 120669 -2.13585e+06 625186 -1.57428e+06 -257471 8515.12
506 1 12.3506 4.75224 70.0161 -3.73669 606550 800427 365262 -26624.8 813629 303247
507 1 9.58807 4.59624 65.1002 -3.56935 1.22693e+06 1.23929e+06 -747950 -561261 -359057 841931
508 1 9.64107 4.63446 68.817 -3.70802 -685436 -2.72613e+06 -715778 -1.45639e+06 160505 -380787
509 1 11.6372 5.37006 66.8564 -3.71431 323645 841792 440637 -246791 -353762 -587368
510 2 10.6094 4.28754 62.6206 -2.94784 -699562 -1.02562e+06 -276652 -965483 895066 -538251
511 1 9.42845 5.05655 60.3099 -3.88381 1.80278e+06 451397 -1.3514e+06 -350226 -308017 79375.2
512 1 5.46177 2.8458 57.1855 -3.54405 873144 1.06136e+06 -460298 -638572 -734157 282292
513 2 9.07617 5.04362 57.5861 -2.97688 -490207 -1.38836e+06 572034 -17788.8 -189096 619767
514 1 12.4796 4.93884 61.1109 -3.69028 494450 -1120.18 472426 74484.3 390883 657586
515 2 14.1826 5.11791 59.0283 -2.86634 43253.9 -1.43658e+06 6666.57 -2.17277e+06 -193075 -809044
516 1 8.09289 3.33952 56.0568 -3.67431 937385 16529.2 -63897.2 -841110 -215691 102638
517 1 5.88609 0.108291 56.0713 -3.61635 702282 -1.70272e+06 455477 -474120 101846 766186
518 1 4.43876 6.10242 55.2869 -3.58546 -372397 -835539 -1.39373e+06 -16008.6 95016.6 -153250
519 2 3.8713 5.18836 52.9192 -2.98676 -513768 -1.54282e+06 124366 -1.62661e+06 55599.3 -252959
520 1 5.26108 5.34652 50.8147 -3.66743 -409049 514890 314630 761432 811137 -67850
521 1 8.50053 0.887431 51.0242 -3.69646 -444308 -2.04517e+06 -96039.1 -1.7642e+06 478214 71506.3
522 1 8.70482 5.34726 51.8469 -3.81247 501952 718021 110162 -695027 -426905 -269433
523 2 7.21471 5.99911 49.3819 -3.13426 1.1518e+06 -1.65215e+06 -970658 345341 1.28173e+06 195793
524 1 5.94289 4.64496 45.0763 -3.65844 261750 235272 413244 569664 187579 -1.12785e+06
525 1 7.93385 5.33169 42.9694 -3.65453 -450608 -3.21415e+06 -58091.2 -1.93918e+06 -208890 315934
526 1 7.96005 5.18823 47.0277 -3.563 1.35518e+06 87926.6 -747672 512527 -764460 -405887
527 1 5.09308 5.47778 42.135 -3.38892 1.05923e+06 -314880 341532 332065 -705915 -97836.9
528 1 6.53886 0.277305 52.9755 -3.70958 -247038 1.22991e+06 423692 -283648 -362360 -1.07073e+06
529 2 11.1525 5.29331 51.1095 -3.01192 -591987 -1.7378e+06 406162 -964293 507824 68928
530 1 13.0822 5.32651 53.0295 -3.59885 -666126 1.39351e+06 -829981 -1.19797e+06 500730 -502864
531 1 5.68404 0.758125 50.0595 -3.65751 1.80326e+06 958977 -198000 2.15966e+06 136759 817099
532 1 11.5425 6.15138 48.6248 -3.41268 -1.56328e+06 896235 379944 -84203.8 668306 -196784
533 1 8.90751 6.48087 40.6553 -3.47413 515060 79971.8 -504061 119964 -122185 46067.4
534 1 15.77 5.44607 52.3975 -3.74611 448218 139389 2.41539e+06 420473 -319619 701049
535 2 15.9514 4.87819 49.5698 -3.32932 -39039.4 122919 -452738 17698.7 866121 -154135
536 1 13.5859 4.87687 50.4418 -3.56364 -117627 642094 -1.08188e+06 -50370.8 874376 -569022
537 1 14.0384 6.20646 48.0185 -3.68573 -756177 363669 -86914.3 -1.18948e+06 2.28599e+06 -1.27066e+06
538 2 8.26767 1.11149 46.4524 -3.4077 337244 1.44839e+06 -421175 617388 968591 -566899
539 1 10.193 5.73496 45.0824 -3.47768 1.66425e+06 -212202 808098 -580403 782764 -2.22317e+06
540 1 10.9809 5.40004 42.5502 -3.61207 1.00242e+06 436598 -1.59305e+06 359876 690631 530094
541 1 13.0537 5.21333 45.7726 -3.6268 1.5855e+06 958816 -204694 -1.38841e+06 -230795 897861
542 1 13.8209 4.76631 43.1604 -3.76678 725161 -761836 442262 -445239 197186 -1.06482e+06
543 1 8.46224 0.628632 54.8896 -3.55043 803233 1.08463e+06 1.07743e+06 -192051 -1.27063e+06 664021
544 1 3.84372 1.0816 48.004 -3.61272 -49764.3 -1.51646e+06 -328618 -866651 -265604 1.16213e+06
545 2 14.9401 5.99699 54.969 -3.35216 2.79937e+06 2.73922e+06 1.25313e+06 861307 -390326 283023
546 2 12.6442 3.01054 54.5753 -3.5744 461126 3.54015e+06 -288556 1.38014e+06 282918 -147294
547 1 10.6102 1.11807 53.0827 -3.60176 1.46609e+06 256076 153588 -19396.5 -153976 -668681
548 1 14.2971 0.213003 50.9526 -3.56397 1.32398e+06 -204450 470620 243213 193385 -825169
549 1 13.617 0.595108 53.5414 -3.62045 822799 273918 -695981 393656 716036 698986
550 1 13.0893 2.59555 51.9023 -3.74769 -104749 135329 3.51892e+06 423162 -985024 1.14357e+06
551 1 11.3914 0.767377 50.3439 -3.66669 1.67633e+06 1.48372e+06 1.49393e+06 312135 150162 285651
552 1 10.6758 0.983991 45.7614 -3.54484 197624 114151 -309166 333228 640544 -535036
553 1 11.3454 0.436523 43.1508 -3.74237 -315896 704217 -151915 -171000 796352 618378
554 1 8.76576 0.464327 43.7981 -3.72712 -248193 458810 2.38747e+06 291626 -980622 938614
555 2 13.3277 6.58798 41.0614 -3.54143 609558 2.36249e+06 3.88025e+06 858918 -345227 1.04284e+06
556 1 1.94442 1.83846 55.3334 -3.49675 -1.03438e+06 -6201.73 -307867 38765.4 28311 -225209
557 1 15.7637 2.69999 51.1394 -3.64203 -591195 570826 -1.77898e+06 -477166 318584 302829
558 1 15.2484 3.19286 53.7358 -3.61218 502212 -218362 -1.21455e+06 218660 760236 -155278
559 2 14.0593 2.33138 49.142 -3.25033 1.17516e+06 951319 2.81315e+06 -495377 -633619 610591
560 1 12.7572 2.69465 46.7311 -3.68298 1.26811e+06 -54410.6 1.83632e+06 -8776.89 260160 579555
561 1 4.19688 3.39786 54.8404 -3.7023 -824373 -406521 1.40894e+06 336638 194465 -16894.5
562 1 5.14666 2.84469 52.2267 -3.89299 1.78236e+06 1.41464e+06 -278562 -365862 -579938 493936
563 1 3.43462 5.32231 45.8755 -3.76054 -41048.8 232812 739975 939302 65801.9 232890
564 1 16.6955 6.39004 47.6728 -3.42216 -284084 1.00602e+06 1.11107e+06 -380612 296041 375614
565 1 14.9701 1.1753 46.8323 -3.72722 -1.05972e+06 -1.58365e+06 19887.9 -102051 -898801 -127846
566 1 16.002 5.15988 45.1545 -3.68668 -1.05848e+06 -4.16996e+06 -1.37763e+06 -1.98067e+06 575445 143001
567 1 17.6774 5.70426 43.0765 -3.72265 -7786.28 -84290.5 -395683 -894242 1.18499e+06 581435
568 2 13.2308 0.678402 45.1274 -2.89561 -354555 -2.47945e+06 -86096.7 -942898 -599687 265697
569 1 4.00369 0.666159 53.9333 -3.78011 337616 1.04391e+06 501386 498513 884914 20272.4
570 1 2.69348 4.22012 50.9111 -3.74064 25406.1 -808503 363882 -932324 94663.5 171002
571 2 2.45879 2.82783 52.8923 -2.8712 63623.6 -2.10484e+06 -156264 -1.40596e+06 241500 442090
572 1 1.11884 1.007 48.9802 -3.59198 776701 1.8502e+06 -321621 -173730 -998497 -301294
573 1 1.14111 0.697857 52.9033 -3.7092 -1.20895e+06 -3.59394e+06 -1.10356e+06 -2.07534e+06 484540 483935
574 1 2.9787 1.2223 50.9751 -3.66557 557177 1.13766e+06 155310 314495 257531 -630710
575 2 5.82422 6.5865 46.6151 -3.10635 -434072 -1.73161e+06 168327 -284630 1.12085e+06 -164733
576 1 0.563031 0.720373 44.0513 -3.85708 1.86955e+06 1.02762e+06 938520 62528.9 -222908 -340356
577 1 1.99148 2.48354 45.7878 -3.67963 -1.1138e+06 700830 328741 621109 232133 -1.19003e+06
578 1 15.3137 3.80335 47.3528 -3.52613 -641887 -657360 -2.15978e+06 -469511 284643 -266729
579 1 15.6745 5.13186 41.1648 -3.71689 964814 -1.93202e+06 -245715 -1.56997e+06 -44203.9 42121.8
580 1 13.5729 2.10439 43.108 -3.56869 63081.3 -1.21542e+06 -415528 -706541 245041 168494
581 2 15.5208 0.904121 41.5185 -3.33177 426838 654403 -540014 838124 -548272 -8290.81
582 1 16.2769 3.28105 43.1337 -3.63262 21631.5 -1.03489e+06 -1.75876e+06 -626131 989706 -935360
583 2 14.8222 2.97041 45.0364 -2.93806 -387727 -1.36786e+06 -1.74917e+06 -2.90506e+06 15300.4 18024.8
584 1 14.2933 3.02492 40.7211 -3.49991 180534 10878 -556330 -1.27356e+06 496039 396273
585 1 6.54468 2.29968 47.6785 -3.52689 1.25834e+06 1.6874e+06 212947 -24992.1 -256244 -437768
586 1 3.69735 0.602625 45.0603 -3.68621 543457 1.30308e+06 952988 1.1189e+06 723282 126392
587 1 4.85195 2.8997 41.103 -3.49552 -354319 833201 -804797 15550.2 -28360.1 -680650
588 1 2.72534 1.07304 42.0749 -3.59382 902388 -1518.63 980445 524969 -472975 109902
589 2 5.28606 0.924343 43.001 -2.91655 90664.3 -645653 1.11538e+06 -2.02994e+06 324918 -1.78487e+06
590 1 13.0076 0.661143 40.7444 -3.58197 179111 -243226 -218057 -789714 50236.5 -351667
591 1 17.273 4.81783 54.6959 -3.64991 781572 536506 2.06476e+06 -299527 -420658 415729
592 1 6.45396 4.78523 53.735 -3.7525 736378 1.15822e+06 960801 422617 622633 -1.12294e+06
593 2 6.28352 2.12696 54.801 -2.98178 -562033 -960528 274511 -376500 736864 -358950
594 2 4.6364 2.96652 49.6525 -3.00699 -303557 -1.50336e+06 1.25852e+06 -45369.2 -360344 664891
595 1 2.55949 3.74647 48.1927 -3.63601 -212097 1.21948e+06 -319719 -339571 -504106 -70451.9
596 1 10.9766 4.29527 55.9154 -3.51683 955937 660543 -804356 484318 -491799 -271381
597 1 8.23157 2.86036 53.1802 -3.73291 723746 420982 526819 544591 492596 215433
598 2 9.79732 3.01094 51.1308 -2.87698 -354592 -1.56342e+06 888683 -1.98398e+06 -160660 -226051
599 1 7.12495 3.53508 50.235 -3.66535 -77573.1 1.31281e+06 780213 171129 620859 -586888
600 1 9.26182 2.051 48.6742 -3.55644 653247 -398692 -837502 218073 -105169 115096
601 1 5.13393 4.78366 48.0203 -3.66125 361157 -1.01426e+06 -352200 -779460 -247580 743628
602 1 9.35281 4.71228 49.2023 -3.68025 -1.69938e+06 -1.03847e+06 481299 -135857 -25695.4 123783
603 2 6.56959 3.34412 43.0209 -2.83031 857312 -2.68865e+06 -11936.5 -2.07489e+06 322469 316111
604 1 3.81926 3.24679 43.5458 -3.83449 1.60813e+06 1.30255e+06 1.27661e+06 -557610 367845 -202574
605 1 6.31072 1.87028 45.0145 -3.77024 1.02244e+06 -1.54229e+06 221201 -802058 -302810 -297597
606 1 7.20327 4.1879 40.6251 -3.41776 -839378 900195 -685163 -446335 469140 -548133
607 1 10.9471 3.88582 53.2439 -3.61013 -1.53462e+06 -506835 408617 -844977 288287 -126300
608 2 9.08409 5.03091 54.5605 -2.92725 -481603 -1.42727e+06 596018 4948.76 -627932 273378
609 2 4.3733 2.95033 46.4001 -3.04099 -1.41308e+06 -868780 2.22075e+06 -250638 58172 524993
610 2 2.59727 3.74181 41.2136 -3.47629 672538 1.75821e+06 1.4031e+06 1.69796e+06 1.13269e+06 -25348
611 1 11.6784 3.45015 49.2975 -3.63838 91393.5 -455933 2.28684e+06 -366303 -144054 -34165.2
612 1 8.60512 3.48446 44.9963 -3.59786 570001 511559 -921566 -480893 645766 230508
613 1 9.38499 2.75123 42.4833 -3.48966 2.86191e+06 168408 -2.74761e+06 -119223 -1.03264e+06 526597
614 2 11.8636 3.02151 41.4116 -3.75578 1.50738e+06 1.07824e+06 4.44257e+06 1.89853e+06 -1.10151e+06 802069
615 1 9.86888 3.99917 40.3771 -3.08371 -2.2184e+06 -1.79717e+06 -3.1318e+06 964008 899806 714965
616 2 10.3621 3.79748 46.8984 -3.35118 2.72568e+06 954973 1.41028e+06 510222 -201226 251637
617 1 11.3349 3.39165 44.2957 -3.73659 -868817 -22232.9 5.14465e+06 907352 -1.55121e+06 1.02416e+06
618 1 7.35942 1.2117 41.4506 -3.47352 341052 691520 755631 -225863 -733604 384211
