ITEM: TIMESTEP
5000
ITEM: NUMBER OF ATOMS
618
ITEM: BOX BOUNDS xy xz yz pp pp ff
0.0000000000000000e+00 1.9317770367296919e+01 4.0025167278329121e+00
0.0000000000000000e+00 6.6702723500479264e+00 0.0000000000000000e+00
0.0000000000000000e+00 1.0921147561319708e+02 0.0000000000000000e+00
ITEM: ATOMS id type x y z
1 1 4.26302 6.18978 5.62237
2 1 6.04352 6.40171 8.20827
3 1 4.22491 6.23947 12.9342
4 1 5.10112 0.449056 5.81243
5 1 7.6532 6.82009 10.4469
6 1 5.72495 6.55774 15.1497
7 1 4.07168 6.16244 19.9061
8 1 11.878 6.20153 5.63629
9 1 6.81842 0.756252 8.22699
10 1 5.05185 0.603386 12.8727
11 1 7.32243 6.84056 17.6757
12 1 5.73811 6.38585 22.0052
13 1 4.15787 5.8069 26.7918
14 1 10.1109 1.50335 5.60769
15 1 13.571 6.55179 8.0531
16 1 8.53845 1.11206 10.7825
17 1 11.7917 6.12176 12.9127
18 1 6.64883 0.787626 15.1963
19 1 5.20889 0.14397 19.9278
20 1 7.32765 6.59583 24.5151
21 1 5.93785 6.35856 29.1445
22 1 4.14429 5.79927 33.9802
23 1 12.9126 0.348484 5.84951
24 1 12.3798 3.2577 5.90248
25 1 11.6929 1.57048 8.34636
26 1 15.0626 6.6621 10.5011
27 1 10.7309 3.092 10.6045
28 1 10.0455 1.40557 13.0053
29 1 13.4669 6.64156 15.194
30 1 8.26953 1.04166 17.5617
31 1 11.8185 6.14863 19.8948
32 1 6.78582 0.696137 22.3763
33 1 5.16763 0.302923 26.9256
34 1 3.47866 -0.012294 31.7139
35 1 5.86627 6.2279 36.3273
36 1 14.889 2.12513 5.98376
37 1 14.4369 0.690745 8.32465
38 1 13.9363 3.60809 8.21257
39 1 13.3597 1.94976 10.6778
40 1 12.6864 0.42964 12.9662
41 1 12.3827 3.34875 12.937
42 1 11.6979 1.85014 15.1548
43 1 15.1897 6.81745 17.5493
44 1 10.6736 2.93475 17.5403
45 1 10.0151 1.35117 19.9429
46 1 13.4438 6.19468 22.3434
47 1 8.37836 1.00814 24.7174
48 1 11.9055 5.84647 27.0471
49 1 6.81983 0.44192 29.404
50 1 5.27544 0.227942 33.9526
51 1 3.40523 -0.333215 38.5097
52 1 2.5044 1.46604 5.74865
53 1 17.4184 4.29271 5.95417
54 1 1.46785 2.62866 8.40678
55 1 0.98296 1.13455 10.6743
56 1 15.7195 3.9563 10.6232
57 1 15.0231 2.4532 12.8904
58 1 14.4276 0.84463 15.3191
59 1 13.96 3.73929 15.3947
60 1 13.3818 2.21503 17.6425
61 1 12.7844 0.519544 19.8304
62 1 12.2742 3.36045 20.0038
63 1 11.6465 1.59924 22.4172
64 1 15.2525 6.63242 24.6599
65 1 10.6978 2.94149 24.64
66 1 10.158 1.25121 26.8993
67 1 13.6754 6.27179 29.2161
68 1 8.50508 0.944455 31.7567
69 1 11.9482 5.88019 33.8245
70 1 6.84208 0.565962 36.1851
71 1 4.77915 3.42855 5.62374
72 1 4.13096 1.89158 8.03755
73 1 3.77284 4.64475 8.25879
74 1 3.21463 3.13871 10.6845
75 1 2.39487 1.49767 12.999
76 1 17.3861 4.36856 12.964
77 1 1.21809 2.69637 15.4022
78 1 0.788467 1.11957 17.6555
79 1 15.5706 4.05461 17.6269
80 1 14.9574 2.28261 19.9652
81 1 14.3456 0.666927 22.3022
82 1 14.0126 3.59569 22.105
83 1 13.4008 1.91324 24.6741
84 1 12.8935 0.157294 26.922
85 1 12.4859 3.19033 27.0142
86 1 11.7469 1.59172 29.2527
87 1 11.2667 -0.0272824 31.5579
88 1 11.0067 2.86563 31.566
89 1 10.2076 1.40354 33.8063
90 1 13.907 6.24297 36.1783
91 1 8.74904 1.05342 38.7413
92 1 7.32404 2.37527 5.57451
93 1 6.90014 5.27778 5.81878
94 1 6.46599 3.59648 8.17309
95 1 5.66921 2.08414 10.5596
96 1 5.36744 5.00756 10.6452
97 1 4.74675 3.53653 12.9536
98 1 4.06361 1.7719 15.2478
99 1 3.51495 4.81146 15.1777
100 1 2.91805 3.11138 17.5503
101 1 2.30806 1.29695 19.8931
102 1 17.122 4.24305 20.0052
103 1 1.23001 2.636 22.2057
104 1 0.711509 0.983054 24.3698
105 1 15.4721 3.66207 24.6712
106 1 15.1923 1.95239 26.8447
107 1 14.4151 0.388329 29.1893
108 1 14.1392 3.54685 29.2699
109 1 13.6197 1.8704 31.4637
110 1 12.8206 0.164456 33.8997
111 1 12.463 3.08698 33.9719
112 1 11.7617 1.45115 36.1865
113 1 15.1922 6.51763 38.8866
114 1 11.3552 2.64928 38.8298
115 1 9.7003 4.3478 5.82942
116 1 9.19955 2.66622 8.40184
117 1 8.76069 5.43094 8.22499
118 1 7.94682 3.99554 10.5475
119 1 7.2549 2.34624 12.814
120 1 6.98999 5.37004 13.0625
121 1 6.08545 3.64714 15.3342
122 1 5.63084 1.98426 17.6864
123 1 5.0291 4.9082 17.5986
124 1 4.45152 3.24362 19.9369
125 1 4.00496 1.50532 22.0651
126 1 3.53786 4.49463 22.2376
127 1 2.99971 2.73214 24.5198
128 1 2.54742 1.22134 26.9983
129 1 17.3996 4.04526 26.913
130 1 1.25097 2.38522 29.1727
131 1 0.798604 0.866314 31.5369
132 1 15.9541 3.75489 31.5084
133 1 15.2437 2.14589 33.8057
134 1 14.5579 0.329258 36.2066
135 1 14.3567 3.25728 36.0442
136 1 13.8021 1.69143 38.3591
137 1 11.3468 4.60983 8.29705
138 1 10.302 5.76594 10.6462
139 1 9.62031 4.33321 12.8554
140 1 8.80212 2.69666 15.2526
141 1 8.41021 5.59238 15.4747
142 1 7.85812 3.82408 17.5674
143 1 7.24631 2.31582 19.9694
144 1 6.82338 5.02161 19.8064
145 1 6.23659 3.34827 22.2648
146 1 5.69965 1.92115 24.5751
147 1 5.16261 4.70521 24.4349
148 1 4.81617 3.10688 26.8784
149 1 4.00981 1.5382 29.2837
150 1 3.7746 4.32874 29.0493
151 1 3.07622 2.76342 31.4645
152 1 2.48925 1.17147 33.9742
153 1 17.4176 3.99429 33.9867
154 1 1.59046 2.25921 36.6654
155 1 0.823329 0.657431 38.9531
156 1 16.2196 3.67318 38.9067
157 1 14.8295 5.18125 5.9123
158 1 12.9435 4.7984 10.6587
159 1 11.263 4.76399 15.2211
160 1 10.0533 5.82923 17.6448
161 1 9.44553 4.12755 19.8931
162 1 9.14341 2.57347 22.3109
163 1 8.5407 5.32696 22.1351
164 1 7.8767 3.84822 24.6565
165 1 7.28573 2.23728 26.9835
166 1 6.9349 5.04906 26.778
167 1 6.31724 3.47828 29.3831
168 1 5.54921 1.90979 31.5726
169 1 5.27876 4.74212 31.6048
170 1 4.68559 3.01318 33.9042
171 1 4.10021 1.36758 36.3291
172 1 3.54467 4.26571 36.3095
173 1 3.3605 2.52822 38.9382
174 1 16.3224 5.41143 8.39214
175 1 14.7432 5.1606 12.9562
176 1 12.9347 5.12066 17.4684
177 1 11.2253 4.51482 22.1942
178 1 10.0832 5.85204 24.5957
179 1 9.6735 4.03635 26.9366
180 1 9.04598 2.58671 29.3538
181 1 8.4522 5.40936 29.2963
182 1 7.79162 3.7212 31.5769
183 1 7.36527 2.07789 33.8654
184 1 6.81718 4.84327 34.0445
185 1 6.28172 3.2023 36.2945
186 1 5.91765 1.61376 38.8006
187 1 5.33429 4.38883 38.5581
188 1 17.9924 5.9809 10.6185
189 1 16.211 5.64078 15.345
190 1 14.5244 5.21885 19.878
191 1 12.9255 4.75158 24.647
192 1 11.3282 4.39429 29.2154
193 1 10.0779 5.70552 31.5712
194 1 9.60568 4.10064 33.8435
195 1 9.13442 2.33929 36.0393
196 1 8.53369 5.20576 36.1044
197 1 8.32463 3.60628 38.2477
198 1 17.8377 6.02332 17.5951
199 1 16.1698 5.34378 22.3489
200 1 14.654 4.89904 26.7618
201 1 13.0326 4.80687 31.5057
202 1 11.686 4.41963 36.2521
203 1 10.5465 5.77879 38.3846
204 1 17.8438 5.70783 24.4928
205 1 16.3072 5.31359 29.1291
206 1 14.5769 4.9809 33.9005
207 1 13.3093 4.824 38.6953
208 1 17.8724 5.6362 31.4131
209 1 16.3956 5.07798 36.3798
210 1 18.0686 5.50339 39.0127
211 2 14.4243 1.23626 102.227
212 1 14.9913 0.905706 99.5477
213 1 3.4164 0.146662 103.204
214 1 2.35884 0.807874 99.0516
215 1 1.47883 1.41193 101.664
216 2 0.519642 0.28408 97.0308
217 1 14.9304 1.27824 94.709
218 1 5.86476 1.59962 102.908
219 1 6.7141 0.875476 100.288
220 1 5.78407 6.60145 94.7568
221 1 4.72156 2.44141 98.9103
222 2 4.25224 1.00761 101.008
223 1 4.15397 1.39314 93.8306
224 1 2.20705 2.51195 95.4964
225 1 0.633778 0.81047 90.781
226 1 3.25118 1.89029 90.9578
227 2 1.67625 1.6866 93.0495
228 1 0.707836 0.816373 88.2708
229 1 12.1992 6.69782 95.7326
230 1 7.3723 1.27651 89.1016
231 1 9.03885 6.62064 90.1154
232 1 11.9415 4.60695 103.713
233 1 3.55541 2.95866 102.686
234 1 8.16901 2.87626 101.982
235 1 6.00717 4.47547 103.404
236 2 7.97514 0.304746 102.496
237 2 5.70083 3.25867 101.008
238 1 7.2055 3.6125 98.8638
239 2 6.62539 1.31159 97.5419
240 1 4.87875 2.93826 96.2474
241 1 12.3394 1.79095 103.353
242 1 10.1752 1.17122 101.088
243 1 14.2286 6.01199 99.1487
244 2 11.5426 1.43379 98.891
245 1 10.0838 3.76832 99.9539
246 1 9.02622 1.73944 97.9917
247 1 11.0276 0.562548 96.3545
248 1 7.80146 3.00132 95.8267
249 1 11.3661 3.1679 97.1907
250 2 9.22715 4.39129 97.2259
251 1 8.32501 3.41684 92.9698
252 2 8.98396 2.01219 90.9893
253 1 10.3111 4.05 91.1791
254 1 6.28582 2.0833 91.6869
255 1 8.56491 0.486272 93.1286
256 1 10.4059 4.06604 94.8939
257 1 7.44311 4.09742 90.1828
258 1 9.56978 2.86709 88.6227
259 1 12.8504 2.36195 100.855
260 2 10.6973 3.14464 102.377
261 1 12.4884 5.08339 100.982
262 2 13.1129 3.71439 98.8491
263 1 15.0385 3.85182 100.681
264 1 11.4514 5.60398 98.2675
265 1 13.723 4.65493 96.6548
266 2 6.63666 1.60987 94.3691
267 2 5.23204 2.65858 89.3051
268 1 11.0151 5.31464 88.571
269 1 2.49091 3.75852 100.038
270 1 13.6086 1.82192 97.1938
271 1 10.85 1.94495 93.0019
272 1 11.623 1.53218 90.3606
273 2 14.0895 1.61509 89.4827
274 1 12.1735 2.96525 87.958
275 2 3.065 3.78477 97.5301
276 1 15.8951 3.03929 98.148
277 1 16.353 4.85435 95.9612
278 2 12.6355 2.72212 94.891
279 1 13.8042 1.95884 92.22
280 2 14.2091 5.80606 94.4041
281 1 12.4867 4.49426 92.9397
282 1 13.1386 4.00068 90.3193
283 1 15.3745 3.83477 93.5489
284 1 16.2103 3.44123 91.0856
285 1 13.6088 6.6115 89.2713
286 1 14.6156 5.72537 102.887
287 1 9.20383 6.70477 95.981
288 2 16.9129 4.62296 102.679
289 1 16.5661 6.35278 100.785
290 1 4.74934 4.97993 99.2351
291 1 4.0819 5.57598 101.734
292 1 17.0518 5.91476 98.2408
293 1 16.7664 6.49265 93.8072
294 1 17.5454 6.04166 91.1647
295 1 14.8231 5.88234 91.7605
296 2 15.7891 5.34244 89.0262
297 1 5.72258 3.98499 93.9073
298 1 3.53687 5.15873 95.2644
299 1 2.85883 3.87074 92.9319
300 1 4.87545 4.48979 90.9492
301 2 4.1435 6.18806 92.9301
302 1 9.75279 5.5721 102.072
303 1 6.72152 5.42094 96.8494
304 1 6.9027 5.49405 100.966
305 1 8.7737 6.30674 98.7221
306 2 8.00772 5.37264 94.5282
307 1 6.83208 6.00919 92.2057
308 1 2.83394 4.02152 89.1479
309 2 6.58787 6.32293 89.7112
310 1 9.94995 6.25237 93.0667
311 2 11.5509 6.28789 91.0595
312 1 5.47388 4.69855 88.1155
313 1 3.50056 1.31404 88.0259
314 1 13.1733 0.605264 87.1924
315 2 16.7116 6.39963 84.9027
316 1 14.3797 -0.0796296 82.8281
317 1 6.02671 2.10287 83.2469
318 1 2.13564 -0.00649263 83.8121
319 2 1.08973 0.570507 81.4124
320 1 19.2192 6.03719 77.0098
321 1 1.78506 0.0420391 75.1327
322 1 5.79678 6.45634 78.8459
323 1 14.2661 -0.0473735 74.282
324 1 4.08628 1.35279 85.1632
325 2 8.72231 6.6161 83.0713
326 1 10.6162 6.63427 84.8037
327 1 3.32749 2.05427 82.2017
328 1 5.40745 0.882263 80.7157
329 1 2.6112 1.22955 72.6923
330 1 9.34756 0.0671797 84.1958
331 2 13.8802 6.33394 81.6077
332 1 11.3517 6.3069 82.291
333 1 7.99136 0.834325 79.9747
334 2 5.99038 2.25708 78.4646
335 1 4.06704 0.336501 77.0333
336 1 4.60653 -0.0662674 74.3415
337 1 10.8674 6.43978 77.7577
338 1 11.5444 5.93424 75.2137
339 1 6.10285 1.99956 86.8342
340 1 1.66626 2.49312 80.0089
341 2 8.46093 0.636232 86.9432
342 2 10.1444 4.23551 86.3243
343 1 8.27465 2.44838 84.8511
344 1 11.873 1.61968 83.0322
345 1 11.1291 1.9115 85.5656
346 1 10.7874 3.97756 83.7856
347 1 9.04952 2.1253 82.2602
348 1 8.40241 2.35607 77.6242
349 1 8.99881 1.73134 74.9268
350 1 6.34228 1.75303 75.7076
351 2 7.19299 1.13234 73.0808
352 1 14.6855 3.09324 87.283
353 1 13.4993 4.18461 83.1772
354 1 12.7825 4.44742 85.657
355 2 11.6829 3.45585 81.0843
356 1 10.4785 3.85836 78.7695
357 1 16.9886 4.65377 86.8744
358 1 2.75628 4.19007 84.3172
359 1 16.5098 6.54241 77.7991
360 1 10.4835 1.06414 79.2829
361 1 12.8232 2.54438 78.9613
362 1 13.7655 6.41648 76.8756
363 1 11.5991 0.421121 74.9409
364 2 10.8882 1.94055 76.9654
365 1 1.64366 2.03251 85.9243
366 1 15.7043 5.41337 82.953
367 2 15.523 4.0219 85.1298
368 1 14.2798 2.24947 81.2054
369 1 14.1585 1.84656 84.8436
370 1 16.1645 2.56445 83.0079
371 2 14.9605 1.39222 78.6887
372 1 13.6111 2.0698 76.2854
373 1 15.0413 3.83059 77.7447
374 1 13.0067 5.13933 79.2674
375 1 13.5332 6.3654 73.1066
376 1 11.2999 3.24718 74.9492
377 2 13.3781 2.21822 73.6692
378 1 14.039 4.41402 74.8859
379 2 12.5052 4.27779 77.0606
380 1 11.5405 3.64763 72.321
381 1 4.35239 3.39378 79.8163
382 1 1.61807 1.9961 77.1264
383 1 2.67019 3.92626 73.2285
384 1 15.7809 2.60289 74.1787
385 2 3.19596 2.14622 75.0164
386 1 12.1419 0.67718 72.1697
387 1 14.6358 5.94861 86.7303
388 1 3.93755 6.09029 85.8598
389 2 3.73653 3.53083 86.7044
390 2 17.7229 4.30995 81.6432
391 1 15.6683 5.28982 80.1325
392 1 8.36392 5.19168 87.7498
393 1 5.71923 4.01279 85.0815
394 2 7.31663 4.25384 82.9694
395 1 4.89292 4.63717 82.1377
396 1 7.07717 3.32102 80.7494
397 1 18.4018 6.03206 79.9951
398 1 7.19307 6.1049 81.135
399 2 4.58439 4.54234 74.8862
400 1 17.2093 4.43843 75.7655
401 1 4.11241 3.20557 77.0248
402 1 5.21535 5.30432 72.6732
403 1 8.41678 5.01868 85.0531
404 2 6.46915 6.23204 86.427
405 2 17.5359 4.35163 78.3704
406 2 15.9657 5.18761 73.3425
407 1 9.44916 4.63789 81.3507
408 1 6.40743 4.44365 76.9055
409 1 7.15941 4.09734 74.2439
410 2 9.67257 4.5421 73.5049
411 1 7.76069 5.66493 71.9994
412 2 8.24121 5.06615 78.9759
413 1 9.25673 4.56614 76.2291
414 1 5.0671 2.48821 73.2041
415 2 1.69518 0.0306931 70.4848
416 1 2.17905 -0.0582867 67.6724
417 1 10.2185 6.00503 71.2727
418 1 4.9766 0.184441 67.0299
419 1 4.14486 0.360823 69.5496
420 2 7.31546 6.33254 65.0319
421 1 2.14881 0.1766 62.8065
422 1 8.5516 0.767783 70.9206
423 1 9.56758 0.0948368 68.2391
424 1 8.54896 5.53647 62.8147
425 1 7.33199 1.50358 66.8444
426 2 6.83629 0.202205 69.0343
427 1 6.73436 0.258552 61.8782
428 1 4.84316 1.4354 63.2999
429 1 7.14617 6.25898 58.876
430 1 5.74908 0.835956 59.1001
431 2 4.07381 0.571299 61.062
432 1 6.96847 6.1792 56.2888
433 1 15.1116 5.92716 63.8298
434 1 9.818 0.191091 57.241
435 1 11.5821 5.55898 58.3273
436 1 14.5851 3.77892 71.908
437 1 6.30942 2.09235 70.675
438 1 10.9889 1.98671 69.9194
439 1 8.95153 3.38092 71.1357
440 2 14.5792 6.03593 70.6393
441 2 8.36169 2.4089 68.8722
442 1 10.0315 2.60382 66.9076
443 2 9.34593 0.482297 65.5933
444 1 7.62543 1.79271 64.1834
445 1 15.1912 0.960806 71.8754
446 1 12.6487 0.211296 69.0065
447 1 16.9824 4.83397 67.3349
448 2 14.3107 0.250035 66.9996
449 1 12.9536 2.70892 67.8046
450 1 11.8272 0.648856 66.2097
451 1 17.8489 5.92514 64.7079
452 1 10.5175 2.10643 63.9557
453 1 14.0326 2.01711 65.1953
454 2 12.0015 3.41243 65.3492
455 1 10.8789 2.17208 61.1347
456 2 11.5167 0.735769 59.0411
457 1 12.8338 2.92996 59.2164
458 1 8.80381 0.743006 59.8833
459 1 15.0962 6.00431 61.2169
460 1 13.0829 2.88833 62.8979
461 1 9.97422 2.89 58.3022
462 1 12.1966 1.67546 56.7296
463 1 15.2956 1.22143 69.1276
464 2 13.3349 2.20258 70.4412
465 1 15.0335 3.97126 69.2502
466 2 15.6233 2.6476 67.0742
467 1 2.33694 2.71784 69.0384
468 1 14.3049 4.9103 66.183
469 1 16.3432 3.66223 64.9345
470 2 9.23719 0.514907 62.4422
471 2 7.70872 1.35653 57.5776
472 1 13.7168 4.10208 56.8377
473 1 5.10084 2.69792 68.3447
474 1 1.00096 0.827672 65.354
475 1 13.4371 0.840623 60.8773
476 1 14.2348 0.481279 58.4238
477 2 1.25039 0.496257 57.573
478 1 14.6917 1.81882 55.9628
479 2 5.46148 2.37482 65.517
480 1 3.07744 2.26827 66.2826
481 1 3.55096 3.6941 64.0336
482 2 15.3169 1.34291 62.9764
483 1 0.876452 0.849741 60.2724
484 2 16.8558 4.79827 62.5575
485 1 15.1211 3.29447 61.0422
486 1 15.7878 2.94488 58.3172
487 1 2.58685 2.73736 61.7079
488 1 3.33849 2.37907 59.0813
489 1 16.2462 5.61634 57.3976
490 1 17.2298 4.92257 70.9566
491 1 12.0488 5.57544 64.1086
492 2 4.05133 3.52908 70.8635
493 1 3.84516 5.10315 68.9142
494 1 7.50724 4.14091 66.9184
495 1 6.81458 4.52031 69.4956
496 1 4.54941 4.88565 66.2336
497 1 4.1928 5.26849 61.7616
498 1 4.86614 4.86082 59.1409
499 1 17.4635 4.80144 59.7066
500 2 3.18536 4.24659 57.0221
501 1 8.39745 2.7999 61.914
502 1 6.16172 4.23223 63.5115
503 1 5.44671 2.7779 60.9922
504 1 7.37449 3.39002 59.0105
505 2 6.74986 4.89726 61.0827
506 1 12.3506 4.75224 70.0161
507 1 9.58807 4.59624 65.1002
508 1 9.64107 4.63446 68.817
509 1 11.6372 5.37006 66.8564
510 2 10.6094 4.28754 62.6206
511 1 9.42845 5.05655 60.3099
512 1 5.46177 2.8458 57.1855
513 2 9.07617 5.04362 57.5861
514 1 12.4796 4.93884 61.1109
515 2 14.1826 5.11791 59.0283
516 1 8.09289 3.33952 56.0568
517 1 5.88609 0.108291 56.0713
518 1 4.43876 6.10242 55.2869
519 2 3.8713 5.18836 52.9192
520 1 5.26108 5.34652 50.8147
521 1 8.50053 0.887431 51.0242
522 1 8.70482 5.34726 51.8469
523 2 7.21471 5.99911 49.3819
524 1 5.94289 4.64496 45.0763
525 1 7.93385 5.33169 42.9694
526 1 7.96005 5.18823 47.0277
527 1 5.09308 5.47778 42.135
528 1 6.53886 0.277305 52.9755
529 2 11.1525 5.29331 51.1095
530 1 13.0822 5.32651 53.0295
531 1 5.68404 0.758125 50.0595
532 1 11.5425 6.15138 48.6248
533 1 8.90751 6.48087 40.6553
534 1 15.77 5.44607 52.3975
535 2 15.9514 4.87819 49.5698
536 1 13.5859 4.87687 50.4418
537 1 14.0384 6.20646 48.0185
538 2 8.26767 1.11149 46.4524
539 1 10.193 5.73496 45.0824
540 1 10.9809 5.40004 42.5502
541 1 13.0537 5.21333 45.7726
542 1 13.8209 4.76631 43.1604
543 1 8.46224 0.628632 54.8896
544 1 3.84372 1.0816 48.004
545 2 14.9401 5.99699 54.969
546 2 12.6442 3.01054 54.5753
547 1 10.6102 1.11807 53.0827
548 1 14.2971 0.213003 50.9526
549 1 13.617 0.595108 53.5414
550 1 13.0893 2.59555 51.9023
551 1 11.3914 0.767377 50.3439
552 1 10.6758 0.983991 45.7614
553 1 11.3454 0.436523 43.1508
554 1 8.76576 0.464327 43.7981
555 2 9.32519 -0.0822929 41.0614
556 1 1.94442 1.83846 55.3334
557 1 15.7637 2.69999 51.1394
558 1 15.2484 3.19286 53.7358
559 2 14.0593 2.33138 49.142
560 1 12.7572 2.69465 46.7311
561 1 4.19688 3.39786 54.8404
562 1 5.14666 2.84469 52.2267
563 1 3.43462 5.32231 45.8755
564 1 16.6955 6.39004 47.6728
565 1 14.9701 1.1753 46.8323
566 1 16.002 5.15988 45.1545
567 1 17.6774 5.70426 43.0765
568 2 13.2308 0.678402 45.1274
569 1 4.00369 0.666159 53.9333
570 1 2.69348 4.22012 50.9111
571 2 2.45879 2.82783 52.8923
572 1 1.11884 1.007 48.9802
573 1 1.14111 0.697857 52.9033
574 1 2.9787 1.2223 50.9751
575 2 1.8217 -0.0837674 46.6151
576 1 0.563031 0.720373 44.0513
577 1 1.99148 2.48354 45.7878
578 1 15.3137 3.80335 47.3528
579 1 15.6745 5.13186 41.1648
580 1 13.5729 2.10439 43.108
581 2 15.5208 0.904121 41.5185
582 1 16.2769 3.28105 43.1337
583 2 14.8222 2.97041 45.0364
584 1 14.2933 3.02492 40.7211
585 1 6.54468 2.29968 47.6785
586 1 3.69735 0.602625 45.0603
587 1 4.85195 2.8997 41.103
588 1 2.72534 1.07304 42.0749
589 2 5.28606 0.924343 43.001
590 1 13.0076 0.661143 40.7444
591 1 17.273 4.81783 54.6959
592 1 6.45396 4.78523 53.735
593 2 6.28352 2.12696 54.801
594 2 4.6364 2.96652 49.6525
595 1 2.55949 3.74647 48.1927
596 1 10.9766 4.29527 55.9154
597 1 8.23157 2.86036 53.1802
598 2 9.79732 3.01094 51.1308
599 1 7.12495 3.53508 50.235
600 1 9.26182 2.051 48.6742
601 1 5.13393 4.78366 48.0203
602 1 9.35281 4.71228 49.2023
603 2 6.56959 3.34412 43.0209
604 1 3.81926 3.24679 43.5458
605 1 6.31072 1.87028 45.0145
606 1 7.20327 4.1879 40.6251
607 1 10.9471 3.88582 53.2439
608 2 9.08409 5.03091 54.5605
609 2 4.3733 2.95033 46.4001
610 2 17.9125 3.74181 41.2136
611 1 11.6784 3.45015 49.2975
612 1 8.60512 3.48446 44.9963
613 1 9.38499 2.75123 42.4833
614 2 11.8636 3.02151 41.4116
615 1 9.86888 3.99917 40.3771
616 2 10.3621 3.79748 46.8984
617 1 11.3349 3.39165 44.2957
618 1 7.35942 1.2117 41.4506
