ITEM: TIMESTEP
15000
ITEM: NUMBER OF ATOMS
618
ITEM: BOX BOUNDS xy xz yz pp pp ff
0.0000000000000000e+00 1.9317770367296919e+01 4.0025167278329121e+00
0.0000000000000000e+00 6.6702723500479264e+00 0.0000000000000000e+00
0.0000000000000000e+00 1.0921147561319708e+02 0.0000000000000000e+00
ITEM: ATOMS id type x y z
1 1 4.25581 5.98442 5.8149
2 1 5.9286 6.2332 8.4599
3 1 4.25922 6.01678 13.1251
4 1 5.25009 0.232976 5.90325
5 1 3.6043 0.0357304 10.7278
6 1 5.78228 6.40733 15.5089
7 1 4.33078 6.11431 20.1593
8 1 11.9493 6.02887 5.98056
9 1 6.82808 0.633759 8.39398
10 1 5.03189 0.4308 13.2545
11 1 3.61026 0.0963128 17.6412
12 1 5.83681 6.37521 22.3869
13 1 4.09695 6.23898 27.157
14 1 10.0718 1.21106 5.90333
15 1 13.5353 6.3556 8.3362
16 1 8.57333 0.92977 10.6575
17 1 11.9113 6.04935 13.1659
18 1 6.88269 0.820726 15.3813
19 1 5.32708 0.465887 19.9271
20 1 3.25621 0.0859928 24.6718
21 1 5.62848 6.62023 29.3424
22 1 3.94161 6.10263 34.1047
23 1 12.99 0.198532 5.86702
24 1 12.4507 3.111 5.80008
25 1 11.752 1.64408 8.46214
26 1 15.1944 6.62633 10.8254
27 1 10.7732 2.76842 10.8403
28 1 10.1906 1.33617 13.2086
29 1 13.5709 6.45149 15.4062
30 1 8.46719 0.945764 17.6435
31 1 11.9097 5.89611 20.1367
32 1 6.69629 0.596499 22.3865
33 1 4.9698 0.22991 26.8809
34 1 3.14928 0.205635 31.5788
35 1 5.80775 6.26778 36.6669
36 1 15.1203 2.23175 6.09572
37 1 14.315 0.573548 8.42093
38 1 13.9675 3.42431 8.24876
39 1 13.5195 2.04585 10.8394
40 1 12.9619 0.406625 12.9655
41 1 12.3787 3.26872 13.1176
42 1 11.8048 1.75907 15.3015
43 1 11.1935 0.110863 17.7287
44 1 10.6701 2.91061 17.7462
45 1 10.2252 1.27015 19.961
46 1 13.5738 6.3268 22.3922
47 1 8.40687 0.772644 24.5533
48 1 11.5736 6.0556 26.9184
49 1 6.79473 0.781828 29.3138
50 1 4.92608 0.308886 33.9614
51 1 6.11627 6.56107 40.2483
52 1 2.55171 1.19254 5.82873
53 1 17.3334 3.93802 6.06267
54 1 16.5914 2.47423 8.55165
55 1 0.813776 0.886554 10.6691
56 1 15.7228 3.91893 10.6474
57 1 15.2333 2.1903 13.0124
58 1 14.6079 0.767269 15.3303
59 1 13.9582 3.63331 15.2504
60 1 13.4215 2.08061 17.5341
61 1 12.8587 0.403747 19.8531
62 1 12.4524 2.97173 20.0497
63 1 11.6809 1.71758 22.3317
64 1 11.1158 0.0888483 24.6776
65 1 10.5551 3.00341 24.6468
66 1 9.91455 1.21578 26.9878
67 1 13.3639 6.26879 29.1767
68 1 8.31267 1.11017 31.5567
69 1 11.719 6.33925 33.9528
70 1 6.5517 0.747994 36.5926
71 1 4.77621 3.14821 5.85582
72 1 4.07912 1.51248 8.25658
73 1 3.62863 4.27725 8.38492
74 1 3.05243 2.91349 10.6427
75 1 2.45919 1.38547 12.9499
76 1 17.3315 4.21466 13.1329
77 1 16.7939 2.71546 15.4534
78 1 0.742737 1.08105 17.7684
79 1 15.5545 3.77343 17.7189
80 1 15.1548 2.16655 20.2131
81 1 14.3524 0.579677 22.3432
82 1 14.019 3.40358 22.4335
83 1 13.3306 1.86912 24.7776
84 1 12.511 0.29484 26.9999
85 1 12.0423 3.22867 26.8648
86 1 11.6338 1.79103 29.4261
87 1 10.9471 0.144683 31.8003
88 1 10.5277 3.11763 31.5078
89 1 10.0076 1.34987 34.0545
90 1 9.28886 0.0874999 36.4432
91 1 8.28649 0.954127 39.0189
92 1 7.43473 2.32881 6.05579
93 1 6.88924 5.14468 5.85083
94 1 6.50496 3.58358 8.58385
95 1 5.74005 1.85517 10.7126
96 1 5.30375 4.81599 10.7061
97 1 4.91363 3.09018 12.8822
98 1 4.20734 1.59188 15.458
99 1 3.5865 4.50489 15.2965
100 1 3.14725 3.06313 17.8038
101 1 2.62653 1.33284 19.9403
102 1 17.1523 4.26611 19.9115
103 1 16.7389 2.58839 22.3084
104 1 0.615467 0.875626 24.6965
105 1 15.5088 3.89659 24.4545
106 1 14.7709 2.22011 27.0111
107 1 14.14 0.69845 29.2545
108 1 13.8081 3.65641 29.365
109 1 13.1967 2.09743 31.7842
110 1 12.599 0.502121 33.9665
111 1 12.1122 3.42528 33.9422
112 1 11.4808 1.94679 36.3275
113 1 10.9409 0.287101 38.8575
114 1 10.7343 2.88799 38.9033
115 1 9.85352 4.15227 5.70992
116 1 9.11531 2.46782 8.34791
117 1 8.63117 5.41614 8.43373
118 1 8.11949 3.8114 10.8231
119 1 7.41127 2.13561 13.0549
120 1 6.94199 5.20757 13.0536
121 1 6.23127 3.54827 15.3224
122 1 5.88035 2.0193 17.7759
123 1 5.26486 4.8377 17.5853
124 1 4.83427 3.26833 19.9753
125 1 4.15545 1.66085 22.2621
126 1 3.62321 4.47026 22.2963
127 1 2.85808 2.90999 24.5796
128 1 2.18704 1.35014 26.8909
129 1 17.1986 4.24009 26.8894
130 1 16.576 2.73054 29.2092
131 1 15.9278 1.10463 31.7004
132 1 15.5823 3.78312 31.756
133 1 14.9169 2.26762 34.1152
134 1 14.2257 0.582972 36.3287
135 1 13.7596 3.81442 36.2185
136 1 13.1729 2.31042 38.3954
137 1 11.3107 4.40087 8.3761
138 1 10.2382 5.82374 10.8456
139 1 9.63536 4.27786 12.9849
140 1 9.02219 2.66813 15.3323
141 1 8.44359 5.41484 15.4491
142 1 8.13676 3.73436 17.6742
143 1 7.60732 2.1494 20.0871
144 1 7.02204 5.05538 20.0621
145 1 6.17199 3.49781 22.2658
146 1 5.72346 1.85309 24.7624
147 1 5.29406 4.85858 24.603
148 1 4.54439 3.23316 26.8582
149 1 3.90435 1.51682 29.0948
150 1 3.51343 4.48725 29.2445
151 1 2.89825 2.98762 31.5225
152 1 2.39891 1.23678 34.0988
153 1 17.2126 4.13588 34.2103
154 1 16.6556 2.44967 36.4239
155 1 15.5447 0.93866 38.8385
156 1 15.624 3.82206 38.6226
157 1 14.6689 5.10513 5.79812
158 1 12.855 4.7318 10.7272
159 1 11.2424 4.53933 15.3427
160 1 10.3015 5.73654 17.5697
161 1 9.65412 4.16125 20.0421
162 1 9.01989 2.60039 22.4119
163 1 8.42829 5.39307 22.3833
164 1 7.78254 3.68462 24.6269
165 1 7.30826 2.31415 26.9375
166 1 6.69843 5.03908 27.0631
167 1 6.21573 3.74747 29.3543
168 1 5.59496 1.97012 31.4738
169 1 4.9995 4.87036 31.731
170 1 4.39942 3.12326 33.8749
171 1 3.93416 1.6871 36.2613
172 1 3.43855 4.48884 36.5828
173 1 2.9206 2.39296 38.816
174 1 16.1928 5.35847 8.47642
175 1 14.5765 5.07851 13.0304
176 1 12.9905 4.84677 17.7766
177 1 11.3527 4.43961 22.3819
178 1 10.1022 5.65695 24.5984
179 1 9.41363 4.23116 26.9073
180 1 9.02652 2.70118 29.3411
181 1 8.47727 5.51341 29.1865
182 1 7.85637 4.02064 31.6974
183 1 7.22986 2.23114 33.8436
184 1 6.53295 5.20438 34.1776
185 1 6.15724 3.41539 36.4464
186 1 5.77771 1.96695 38.8848
187 1 4.48441 4.64382 38.9788
188 1 17.975 5.68651 10.7387
189 1 16.2118 5.40947 15.4709
190 1 14.419 4.90888 20.1727
191 1 12.7577 4.6327 24.6883
192 1 11.0535 4.51962 29.2352
193 1 10.0054 5.87363 31.6747
194 1 9.55223 4.25883 33.7161
195 1 8.85207 2.78467 36.0135
196 1 8.40338 5.44355 36.2049
197 1 8.08323 3.6976 38.2546
198 1 17.8352 5.87015 17.7199
199 1 16.4324 5.51698 22.2595
200 1 14.4294 4.9747 26.9482
201 1 12.7744 4.95583 31.6688
202 1 11.171 4.74261 36.1672
203 1 10.3548 5.66225 38.48
204 1 17.7398 5.72661 24.7046
205 1 16.0535 5.49719 29.3412
206 1 14.4211 5.1801 33.9994
207 1 13.2259 5.18313 38.9581
208 1 17.7128 5.83936 31.7811
209 1 15.9503 5.37226 36.2964
210 1 17.416 5.89519 38.7768
211 2 14.8366 1.97886 102.143
212 1 15.2736 1.57766 99.2534
213 1 3.65352 0.794246 102.995
214 1 2.5923 1.4599 98.5324
215 1 1.92001 2.21709 101.299
216 2 0.803835 1.0825 96.7165
217 1 15.0901 1.83684 94.4322
218 1 6.15761 2.02813 102.517
219 1 6.98929 1.6528 99.9767
220 1 2.09354 0.494281 94.5311
221 1 4.79407 3.05828 98.6928
222 2 4.39535 1.62848 100.738
223 1 4.35483 1.85321 93.5779
224 1 2.27494 3.23109 94.93
225 1 0.71406 1.15888 90.5719
226 1 3.37221 2.41051 90.5924
227 2 1.62764 2.22176 92.5706
228 1 0.598479 0.936841 87.9639
229 1 8.37166 0.657375 95.3196
230 1 7.4587 1.66718 88.8562
231 1 5.10508 0.370668 89.8197
232 1 11.8684 5.36605 103.125
233 1 3.90449 3.73073 102.155
234 1 8.55468 3.14832 101.965
235 1 6.37714 4.86229 102.917
236 2 8.50658 0.891415 102.002
237 2 6.01165 3.9601 100.696
238 1 7.42158 4.18485 98.6093
239 2 6.77948 2.05882 97.1991
240 1 5.03727 3.37551 95.8998
241 1 13.2435 3.00934 103.185
242 1 10.7089 1.88161 101.194
243 1 14.3763 6.46977 98.9956
244 2 11.7132 1.88926 98.7588
245 1 10.2001 4.13097 99.5865
246 1 9.19243 2.20843 97.8622
247 1 11.208 0.983249 96.4216
248 1 7.95806 3.62576 95.5586
249 1 11.5031 3.62295 96.9341
250 2 9.41818 4.9353 97.0441
251 1 8.4964 3.77774 92.7091
252 2 9.1358 2.37834 90.5004
253 1 10.4886 4.48771 90.7851
254 1 6.38026 2.39482 91.4956
255 1 8.77244 1.07588 92.5931
256 1 10.4964 4.5823 94.6267
257 1 7.45533 4.39757 89.7915
258 1 9.58852 3.23282 88.2317
259 1 13.0101 2.84951 100.511
260 2 11.0938 3.82234 102.071
261 1 12.4219 5.61126 100.54
262 2 13.345 4.22131 98.4854
263 1 15.2719 4.30386 100.388
264 1 11.6464 6.25336 97.7784
265 1 13.7533 5.15178 96.4164
266 2 6.73831 2.15579 94.0793
267 2 5.30099 3.00731 89.0876
268 1 11.2817 5.56821 88.5279
269 1 2.66438 4.43294 99.491
270 1 13.8539 2.36384 96.9078
271 1 10.9957 2.51361 92.6202
272 1 11.7764 1.95891 90.1395
273 2 14.2039 1.98476 89.1547
274 1 12.1417 3.20372 87.7088
275 2 3.20446 4.39505 97.1259
276 1 16.0015 3.7589 97.7899
277 1 16.4473 5.46568 95.6944
278 2 13.0471 3.35484 94.5277
279 1 13.8532 2.59796 91.9149
280 2 14.5465 6.46076 94.1805
281 1 12.6762 5.12268 92.6796
282 1 13.3745 4.48936 90.0339
283 1 15.6609 4.40531 93.2425
284 1 16.2475 3.93339 90.582
285 1 9.79162 0.41541 88.9304
286 1 14.6803 6.13079 102.533
287 1 5.59294 0.426732 95.6333
288 2 17.0636 4.8244 102.198
289 1 12.7026 0.131077 100.551
290 1 5.14453 5.75885 98.7241
291 1 4.41961 6.4022 101.305
292 1 17.3917 6.56612 98.0754
293 1 13.0945 0.321428 93.4594
294 1 17.7777 6.44077 90.7347
295 1 15.0012 6.4541 91.4222
296 2 15.9932 5.86908 88.7832
297 1 5.9039 4.43407 93.521
298 1 3.75195 5.82672 95.0272
299 1 3.11522 4.3041 92.5842
300 1 4.90813 4.97036 90.7102
301 2 4.35195 6.49818 92.7288
302 1 9.78035 6.06305 101.581
303 1 7.06995 5.96029 96.7656
304 1 7.28272 6.24668 100.682
305 1 5.00123 0.245364 98.5476
306 2 8.15215 5.74121 94.2056
307 1 7.06697 6.60629 91.8884
308 1 3.0851 4.6544 88.7851
309 2 2.60752 0.0355976 89.2314
310 1 10.1555 6.5439 92.6932
311 2 7.78469 0.0405964 90.7302
312 1 5.75198 5.01511 87.6587
313 1 3.28753 1.80777 87.7965
314 1 13.2867 0.925216 86.9869
315 2 12.7451 0.0134329 84.5777
316 1 14.3878 0.316527 82.7165
317 1 6.05579 2.40045 82.8621
318 1 2.14546 0.223951 83.4934
319 2 1.02644 0.979565 81.1091
320 1 4.02594 6.55822 77.0607
321 1 1.68001 0.693542 74.9726
322 1 2.16108 0.665051 78.6069
323 1 14.3423 0.407099 73.9089
324 1 4.12895 1.83298 84.7736
325 2 4.86964 0.252769 82.7334
326 1 6.79244 0.369977 84.7284
327 1 3.29571 2.28697 81.8918
328 1 5.34959 1.12895 80.4427
329 1 2.62331 1.80723 72.6388
330 1 9.56223 0.402791 84.0734
331 2 10.0873 0.56046 81.2922
332 1 11.6514 6.6008 82.1276
333 1 7.89835 1.48968 79.7506
334 2 5.84195 2.43307 78.2872
335 1 4.10635 1.12294 76.607
336 1 4.87385 0.602684 73.9777
337 1 6.99012 0.168149 77.44
338 1 11.7702 6.65877 74.814
339 1 5.97462 2.28582 86.6736
340 1 16.206 3.39319 79.8096
341 2 8.45409 0.963959 86.7075
342 2 10.343 4.75066 86.2552
343 1 8.14667 2.85179 84.8219
344 1 11.9032 1.9011 82.7548
345 1 11.1462 2.23389 85.4086
346 1 10.6374 4.27343 83.4229
347 1 8.93735 2.40607 82.1798
348 1 8.43867 3.23426 77.6664
349 1 9.19663 2.59975 75.099
350 1 6.44325 2.41564 75.7241
351 2 7.38833 1.70372 73.0342
352 1 14.6612 3.50238 87.0292
353 1 13.4201 4.25229 82.641
354 1 12.6769 4.87881 85.4047
355 2 11.6576 3.50387 80.9242
356 1 10.6746 4.4871 78.689
357 1 16.954 4.95306 86.5107
358 1 2.71541 4.43578 83.9916
359 1 12.7643 0.55615 77.7079
360 1 10.5558 1.87654 79.1227
361 1 12.9409 3.06694 78.7329
362 1 9.85776 0.420496 76.8617
363 1 11.7626 1.03786 74.827
364 2 11.1191 2.55023 76.955
365 1 1.55233 2.19515 85.6041
366 1 15.7002 5.80821 82.6039
367 2 15.3697 4.45277 84.5478
368 1 13.9795 2.09891 80.8542
369 1 14.0309 2.2817 84.5885
370 1 16.0589 3.04327 82.5881
371 2 15.0331 1.98649 78.3306
372 1 13.705 2.59716 76.0353
373 1 15.1652 4.53887 77.634
374 1 13.2574 5.81386 79.2764
375 1 9.84785 0.693906 72.9258
376 1 11.4535 3.88402 74.7325
377 2 13.2815 2.68559 73.3972
378 1 14.1384 5.08515 74.7123
379 2 12.779 4.83852 76.8734
380 1 11.288 3.22503 72.0835
381 1 3.86282 3.55222 79.6298
382 1 1.74946 2.73862 77.0372
383 1 2.83507 4.45633 73.0509
384 1 15.8727 3.09798 74.1505
385 2 3.22762 2.84851 74.8627
386 1 12.7517 0.810866 71.7346
387 1 14.7704 6.34478 86.4667
388 1 3.9929 6.37302 85.542
389 2 3.77072 3.79636 86.4374
390 2 17.616 4.75526 81.4562
391 1 16.0407 6.16884 80.0406
392 1 8.46919 5.80039 87.4644
393 1 5.82713 4.47718 84.8613
394 2 7.28111 4.61622 82.8114
395 1 4.79439 4.98461 81.8232
396 1 6.76675 3.67728 80.462
397 1 18.7835 6.37865 79.7158
398 1 7.0907 6.32149 80.8808
399 2 4.56731 5.2402 74.8883
400 1 17.3171 5.11075 75.6831
401 1 4.33729 3.79515 76.9128
402 1 4.92264 6.04459 72.4226
403 1 8.49176 5.61119 84.7899
404 2 6.46324 6.61119 86.0501
405 2 17.5789 4.84803 78.265
406 2 16.0788 5.67524 73.2856
407 1 9.37075 5.05132 81.1547
408 1 6.59391 5.25333 76.708
409 1 7.0815 4.84175 74.1985
410 2 9.49799 4.64942 73.399
411 1 7.58167 6.14553 71.8684
412 2 8.36659 5.78663 78.7306
413 1 9.27137 5.33197 75.9925
414 1 5.22911 3.28263 73.0727
415 2 1.81355 0.829162 70.3648
416 1 1.95271 0.052415 67.6994
417 1 10.2288 5.9463 71.2663
418 1 4.67159 0.186149 66.9352
419 1 4.1025 0.611329 69.5678
420 2 6.90287 6.32547 65.0682
421 1 5.72139 6.66907 62.6749
422 1 8.35608 0.876613 70.8302
423 1 9.26295 0.282496 68.1505
424 1 7.96588 5.47181 62.8256
425 1 6.95641 1.68464 66.9432
426 2 6.5714 0.147995 68.9056
427 1 6.32932 0.295877 61.7849
428 1 4.06069 1.60067 63.2909
429 1 6.52467 6.23034 58.8798
430 1 5.28044 0.591006 58.8927
431 2 3.68292 0.560539 60.9648
432 1 6.84715 6.50822 56.2226
433 1 14.628 6.3394 63.7475
434 1 9.32514 0.0506562 57.1959
435 1 11.0869 5.30895 58.0954
436 1 13.9775 4.58512 71.9784
437 1 6.02497 2.19819 70.7436
438 1 10.7848 2.22418 69.6391
439 1 8.36088 3.53443 71.2087
440 2 14.6288 6.36034 70.4546
441 2 7.91769 2.58419 69.0191
442 1 9.57309 2.87026 66.9595
443 2 8.85529 0.52383 65.548
444 1 6.95495 1.64291 64.132
445 1 15.3796 1.99749 71.6624
446 1 12.6568 0.236975 69.0747
447 1 16.5401 4.98839 67.0088
448 2 14.0545 0.358661 66.9189
449 1 12.7845 2.74865 67.7834
450 1 11.3585 0.921845 66.3204
451 1 17.3181 6.14989 64.6544
452 1 9.68843 2.34453 64.1954
453 1 13.7278 2.1074 65.0982
454 2 11.6902 3.43593 65.3149
455 1 10.4473 2.10795 61.0364
456 2 11.0205 0.574515 58.9743
457 1 12.3468 2.72647 58.9879
458 1 8.44545 0.567381 59.7141
459 1 14.6051 5.92244 61.0512
460 1 12.3536 2.42783 62.8521
461 1 9.44199 2.57894 58.0782
462 1 11.6834 1.47906 56.6181
463 1 15.1975 1.3871 69.1765
464 2 13.3914 2.70494 70.3772
465 1 14.7825 4.33195 68.9727
466 2 15.4405 2.70972 66.9515
467 1 2.06567 2.86547 68.7892
468 1 13.7285 4.78942 65.9658
469 1 15.8421 3.65623 64.5599
470 2 8.86568 0.589862 62.4065
471 2 7.13662 1.36636 57.4315
472 1 13.0477 4.08752 56.6491
473 1 4.72045 2.93713 68.3078
474 1 0.67992 0.724763 65.1904
475 1 12.9037 0.600964 60.7739
476 1 13.5739 0.216479 58.0965
477 2 1.06896 0.794202 57.5048
478 1 14.4381 1.83634 55.8905
479 2 5.25895 2.89256 65.4127
480 1 2.67752 2.45003 66.1356
481 1 3.08919 3.89717 63.9102
482 2 14.7172 1.18858 62.8693
483 1 15.5286 0.770229 60.1935
484 2 16.4689 5.12971 62.384
485 1 14.3768 3.18514 60.9424
486 1 15.187 2.87757 58.3588
487 1 1.7715 2.58578 61.7762
488 1 2.82893 2.20845 59.0384
489 1 15.6491 5.35986 57.3121
490 1 16.712 4.6725 70.8356
491 1 12.0064 5.42099 63.9109
492 2 3.79081 3.53947 70.9067
493 1 3.61312 5.54206 68.9261
494 1 7.09611 4.37181 67.0735
495 1 6.21606 4.79132 69.8568
496 1 4.08156 4.91885 66.4207
497 1 3.65826 5.1075 61.4767
498 1 4.25857 4.67049 58.9081
499 1 16.8982 4.60756 59.715
500 2 2.59851 4.05733 57.0197
501 1 7.87385 2.80956 61.7475
502 1 5.6817 3.98482 63.1181
503 1 5.07503 2.61854 60.7123
504 1 7.00224 3.51059 58.7266
505 2 6.37034 4.84851 60.7908
506 1 12.3607 4.82198 69.7783
507 1 9.2697 5.11036 65.006
508 1 9.24827 4.74685 68.9886
509 1 11.2976 5.51277 66.9322
510 2 10.0946 4.27545 62.5782
511 1 9.05752 4.90439 60.187
512 1 4.67404 2.41337 56.9167
513 2 8.53895 5.11055 57.5466
514 1 12.0498 4.76072 61.0231
515 2 13.7285 4.89428 58.9678
516 1 7.36834 3.53448 56.0985
517 1 9.88388 6.59598 55.962
518 1 4.25529 6.12023 55.4727
519 2 3.62913 5.26959 52.904
520 1 5.06625 5.38848 50.9201
521 1 8.36007 1.02755 51.1078
522 1 8.3565 5.53467 51.7894
523 2 7.01394 6.07464 49.3002
524 1 6.04015 4.68875 45.0708
525 1 7.80043 5.31345 42.7249
526 1 7.88488 5.05783 47.0425
527 1 4.96637 5.24143 42.3496
528 1 6.39474 0.328008 53.2835
529 2 11.0183 5.65225 51.1559
530 1 12.8323 5.52669 53.115
531 1 5.54696 1.0514 50.2697
532 1 11.6529 6.46035 48.9518
533 1 4.73185 0.145604 40.7816
534 1 15.6244 5.59007 52.1791
535 2 15.9478 5.05696 49.5451
536 1 13.6188 5.18683 50.5079
537 1 14.0382 6.33764 48.0316
538 2 7.99813 0.615289 46.472
539 1 10.0226 5.69304 45.2372
540 1 10.6617 5.30925 42.6036
541 1 12.9512 5.19859 45.7387
542 1 13.7093 4.72354 43.2137
543 1 8.53512 1.31132 55.0155
544 1 3.75496 1.2222 47.9991
545 2 14.7999 6.40615 54.722
546 2 12.0967 2.7614 54.4958
547 1 10.4483 1.47494 52.8038
548 1 14.1755 0.390019 51.0648
549 1 13.4401 0.632997 53.6575
550 1 12.9093 2.69399 51.8013
551 1 11.4159 1.05405 50.2339
552 1 10.4532 0.965915 45.7473
553 1 11.2829 0.510593 43.1979
554 1 8.44719 0.384095 43.8739
555 2 9.39257 0.0926978 41.1591
556 1 1.59088 2.20678 55.3039
557 1 15.5678 2.90373 51.194
558 1 14.8588 3.28088 53.733
559 2 13.7536 2.28252 49.0736
560 1 12.5289 2.55408 46.7996
561 1 3.87438 3.5125 54.721
562 1 4.76845 3.009 52.2375
563 1 3.41517 5.11462 45.8571
564 1 16.6475 6.48076 47.4051
565 1 14.8344 1.20105 46.775
566 1 15.7527 5.20755 45.1732
567 1 17.6589 5.64511 43.0231
568 2 13.1769 0.604373 45.0186
569 1 3.87256 0.952846 53.943
570 1 17.7809 4.40331 50.9726
571 2 2.25269 2.8955 53.0108
572 1 0.972224 0.959501 49.1001
573 1 0.98506 0.709084 52.9656
574 1 2.79169 1.38569 50.8864
575 2 1.63285 0.0134285 46.5916
576 1 0.463292 0.725282 44.1922
577 1 1.97132 2.50106 45.9476
578 1 15.0802 3.8345 47.4318
579 1 15.4396 5.35215 41.0123
580 1 13.6064 2.1125 43.1085
581 2 15.4221 0.902787 41.4997
582 1 16.4217 3.27649 43.1875
583 2 14.4251 3.013 45.1512
584 1 14.0759 3.15774 40.7311
585 1 6.47559 2.19604 47.755
586 1 3.58862 0.534534 45.1897
587 1 4.38493 2.84019 41.2821
588 1 2.63202 1.16553 42.4338
589 2 5.20749 0.797915 43.2273
590 1 12.831 0.945384 40.8075
591 1 16.8835 4.85328 54.6439
592 1 6.17606 4.86713 53.7467
593 2 5.99769 2.21331 54.751
594 2 4.40767 3.06854 49.6379
595 1 2.37596 3.87127 48.3689
596 1 10.2333 3.76575 55.7513
597 1 7.81363 2.98684 52.9211
598 2 9.50834 3.20435 50.8437
599 1 6.86557 3.52019 50.1974
600 1 9.17449 2.25158 48.5844
601 1 5.23508 4.79697 47.9641
602 1 9.27147 5.05631 49.1336
603 2 6.51158 3.07173 43.0817
604 1 3.89653 3.07588 43.8456
605 1 6.22553 1.64893 45.233
606 1 6.84373 3.84552 40.4783
607 1 10.5064 4.13607 53.0873
608 2 8.54766 5.23902 54.3634
609 2 4.38965 2.94412 46.4747
610 2 17.6876 4.00298 40.6482
611 1 11.6689 3.68883 49.2675
612 1 8.44198 3.1907 45.0387
613 1 9.19601 2.69085 42.5358
614 2 11.6824 3.1224 41.4453
615 1 9.54451 4.28268 40.5418
616 2 10.5006 3.94178 46.8997
617 1 11.2445 3.26582 44.3313
618 1 7.12726 1.20744 41.5154
