ITEM: TIMESTEP
15000
ITEM: NUMBER OF ATOMS
618
ITEM: BOX BOUNDS xy xz yz pp pp ff
0.0000000000000000e+00 1.9317770367296919e+01 4.0025167278329121e+00
0.0000000000000000e+00 6.6702723500479264e+00 0.0000000000000000e+00
0.0000000000000000e+00 1.0921147561319708e+02 0.0000000000000000e+00
ITEM: ATOMS id type x y z
1 1 4.25581 5.98442 5.8149
2 1 5.9286 6.2332 8.4599
3 1 4.07065 5.67882 13.2122
4 1 5.25009 0.232976 5.90325
5 1 7.60889 6.5061 10.8338
6 1 5.75181 5.9537 15.6202
7 1 4.0892 5.85736 20.356
8 1 11.9493 6.02887 5.98056
9 1 6.82808 0.633759 8.39398
10 1 5.20562 0.148557 13.061
11 1 7.50446 6.50267 17.6046
12 1 5.93904 6.15825 22.4102
13 1 4.41667 5.7139 26.8997
14 1 10.0718 1.21106 5.90333
15 1 13.5353 6.3556 8.3362
16 1 8.46129 0.908941 10.7416
17 1 11.934 5.82384 13.1073
18 1 6.85667 0.331468 15.3169
19 1 5.23116 0.0231861 20.0957
20 1 7.51857 6.35121 24.5289
21 1 5.86485 5.97585 29.5032
22 1 4.07071 5.69687 34.0531
23 1 12.99 0.198532 5.86702
24 1 12.4507 3.111 5.80008
25 1 11.752 1.64408 8.46214
26 1 15.184 6.58229 10.8328
27 1 10.8279 2.75512 10.8567
28 1 10.2625 1.21122 13.1225
29 1 13.501 6.10619 15.3902
30 1 8.29588 0.645745 17.666
31 1 11.877 5.51761 20.1621
32 1 6.69611 0.391812 22.3383
33 1 9.13496 6.6024 26.8781
34 1 7.44519 6.46387 31.7539
35 1 5.94957 6.07348 36.7023
36 1 15.1203 2.23175 6.09572
37 1 14.315 0.573548 8.42093
38 1 13.9675 3.42431 8.24876
39 1 13.5276 1.81964 10.8011
40 1 12.803 0.250871 13.1327
41 1 12.5541 3.03261 13.2105
42 1 11.8777 1.44655 15.4631
43 1 15.0769 6.60791 17.781
44 1 10.6532 2.69013 17.7512
45 1 10.0671 0.980612 20.0708
46 1 13.4326 6.15649 22.2845
47 1 8.52714 0.583916 24.6486
48 1 11.8879 5.64913 27.0195
49 1 6.74216 0.343105 29.2155
50 1 4.99836 0.0227232 33.9713
51 1 5.88668 6.2583 40.0352
52 1 2.55171 1.19254 5.82873
53 1 17.3334 3.93802 6.06267
54 1 16.5914 2.47423 8.55165
55 1 0.666081 0.757367 10.7716
56 1 15.8484 3.67108 10.758
57 1 15.0341 2.08157 13.1472
58 1 14.5007 0.222597 15.4293
59 1 14.1538 3.30764 15.6062
60 1 13.3813 1.62033 17.8608
61 1 12.98 0.0772508 20.1317
62 1 12.1726 2.9236 20.0886
63 1 11.69 1.11673 22.5934
64 1 15.2104 6.36046 24.8702
65 1 10.6855 2.55832 24.7288
66 1 10.0692 1.05729 26.9795
67 1 13.5304 5.96592 29.4195
68 1 8.45364 0.683766 31.7541
69 1 11.8626 5.75203 34.1368
70 1 6.62581 0.462688 36.3535
71 1 4.77621 3.14821 5.85582
72 1 4.07912 1.51248 8.25658
73 1 3.62863 4.27725 8.38492
74 1 3.0008 2.62743 10.7862
75 1 2.45655 0.925857 13.048
76 1 17.2831 3.79556 12.9703
77 1 1.42595 2.18679 15.4073
78 1 0.573223 0.609791 17.758
79 1 15.6122 3.58069 17.6971
80 1 14.9133 1.99954 20.0675
81 1 14.4722 0.481717 22.5596
82 1 13.832 3.13147 22.4472
83 1 13.365 1.62287 24.8793
84 1 16.8929 6.56967 26.9777
85 1 12.4061 2.80421 27.2657
86 1 11.6244 1.10417 29.2772
87 1 15.1002 6.37114 31.6881
88 1 10.5931 2.60995 31.7047
89 1 9.92626 0.973284 34.0484
90 1 13.3317 6.24749 36.3688
91 1 8.17232 1.00021 38.9325
92 1 7.43473 2.32881 6.05579
93 1 6.88924 5.14468 5.85083
94 1 6.50496 3.58358 8.58385
95 1 5.79642 1.81997 10.7616
96 1 5.34159 4.7532 10.7579
97 1 4.5614 2.93362 13.0332
98 1 4.25252 1.31011 15.3415
99 1 3.39706 4.14219 15.4246
100 1 2.9594 2.54879 17.6801
101 1 2.45156 1.01673 20.1007
102 1 17.2208 3.90042 20.0261
103 1 16.6766 2.40682 22.3427
104 1 0.886858 0.752146 24.6672
105 1 15.369 3.58259 24.7788
106 1 15.1746 1.86758 27.001
107 1 14.5347 0.202634 29.2954
108 1 14.1497 3.00576 29.5042
109 1 13.4052 1.48028 31.5122
110 1 12.682 0.145019 33.8538
111 1 12.2526 2.79207 33.8775
112 1 11.5662 1.27712 36.1858
113 1 14.7477 6.60644 38.6711
114 1 10.758 2.771 38.7371
115 1 9.85352 4.15227 5.70992
116 1 9.11531 2.46782 8.34791
117 1 8.63117 5.41614 8.43373
118 1 8.20186 3.53961 10.7407
119 1 7.58683 2.09735 13.0254
120 1 6.89934 4.92818 13.1264
121 1 6.18999 3.29678 15.3667
122 1 5.67783 1.62152 17.6597
123 1 5.16338 4.54551 17.9287
124 1 4.65563 2.83816 20.1573
125 1 4.01144 1.35733 22.5127
126 1 3.58059 4.20264 22.5017
127 1 2.97803 2.70392 24.8576
128 1 2.57526 0.960757 26.8951
129 1 17.1712 3.82362 27.1146
130 1 1.40042 1.99793 29.4274
131 1 0.734205 0.772601 31.7839
132 1 15.6726 3.62025 31.616
133 1 14.782 1.97973 33.8718
134 1 14.3383 0.338192 36.2321
135 1 13.8333 3.2008 36.2922
136 1 13.0718 1.66197 38.412
137 1 11.3107 4.40087 8.3761
138 1 10.3733 5.7093 10.6188
139 1 9.53137 4.00208 13.1665
140 1 9.07622 2.20552 15.517
141 1 8.62349 4.98757 15.4359
142 1 7.93838 3.63697 17.8038
143 1 7.32116 1.89973 20.0342
144 1 6.96032 4.83529 19.9786
145 1 6.29148 3.35821 22.3808
146 1 5.6745 1.57586 24.6625
147 1 5.43832 4.57698 24.7581
148 1 4.73501 2.89739 27.0621
149 1 4.17317 1.2323 29.2388
150 1 3.66143 4.17405 29.4524
151 1 2.94626 2.47598 31.6765
152 1 2.34063 0.969709 34.1493
153 1 17.0992 3.91317 33.94
154 1 16.5631 2.24785 36.1989
155 1 15.4815 0.81583 38.7837
156 1 15.6532 3.69725 38.6052
157 1 14.6689 5.10513 5.79812
158 1 12.9307 4.61903 10.7061
159 1 11.354 4.23621 15.4664
160 1 10.1875 5.47741 17.6968
161 1 9.63839 3.71836 20.1227
162 1 8.95811 2.25242 22.4104
163 1 8.61741 5.08724 22.2343
164 1 8.03791 3.56695 24.8144
165 1 7.3396 1.88485 26.9361
166 1 6.99889 4.75869 27.0975
167 1 6.33303 3.21398 29.3271
168 1 5.71693 1.62361 31.6799
169 1 5.29626 4.39357 31.7683
170 1 4.52638 2.86061 33.9773
171 1 3.9964 1.1748 36.233
172 1 3.48591 4.16534 36.4087
173 1 2.79721 2.14329 38.7065
174 1 16.1928 5.35847 8.47642
175 1 14.6569 5.0233 13.0485
176 1 12.9899 4.52311 17.7536
177 1 11.2531 4.23147 22.5066
178 1 10.2475 5.59877 24.7147
179 1 9.72678 3.73968 27.1425
180 1 9.03001 2.18766 29.391
181 1 8.56444 5.13397 29.4258
182 1 7.91695 3.54555 31.7455
183 1 7.17628 2.11741 34.0772
184 1 6.74381 4.96556 34.1992
185 1 6.16021 3.31868 36.3349
186 1 5.38457 1.76161 38.5728
187 1 4.25637 4.24532 39.0627
188 1 17.9383 5.57505 10.5619
189 1 16.2392 5.17304 15.4184
190 1 14.5662 4.69656 20.0889
191 1 12.9003 4.43404 24.7963
192 1 11.3814 4.32754 29.49
193 1 10.1108 5.52172 31.8111
194 1 9.70948 3.86382 33.9259
195 1 9.16262 2.25697 36.2738
196 1 8.49998 5.17582 36.3913
197 1 7.95339 3.53813 38.2854
198 1 17.7451 5.40277 17.8415
199 1 16.1413 5.10269 22.1616
200 1 14.4678 4.73817 27.1099
201 1 12.9483 4.46043 31.8214
202 1 11.2194 4.30735 36.4051
203 1 10.3865 5.58988 38.7041
204 1 17.7744 5.35821 24.6915
205 1 16.2005 5.03807 29.2391
206 1 14.5338 4.80323 34.1128
207 1 12.9375 4.67543 38.8922
208 1 17.7999 5.44806 31.716
209 1 16.0752 5.17156 36.0641
210 1 17.2964 5.6012 38.5905
211 2 14.4394 1.21295 102.233
212 1 15.0793 1.0172 99.6189
213 1 3.71698 0.570709 103.076
214 1 2.37739 1.0453 98.8624
215 1 1.66295 1.76416 101.581
216 2 0.647951 0.467383 96.8576
217 1 14.9973 1.3935 94.4308
218 1 6.09101 1.74896 102.716
219 1 6.9941 1.38593 100.077
220 1 2.08434 0.150616 94.7503
221 1 4.71809 2.5094 98.7446
222 2 4.26045 1.42657 100.876
223 1 4.3279 1.44506 93.6582
224 1 2.33047 2.78707 95.0946
225 1 0.624609 0.803021 90.8033
226 1 3.2706 1.89853 90.7162
227 2 1.81515 1.701 92.8198
228 1 0.69345 0.592461 88.0204
229 1 8.45918 0.236944 95.6548
230 1 7.31367 1.36955 89.0509
231 1 9.08469 6.52021 90.0585
232 1 11.8127 5.04392 103.44
233 1 3.75827 3.35176 102.268
234 1 8.50257 3.23579 101.967
235 1 6.09827 4.57286 103.1
236 2 8.22285 0.521932 102.354
237 2 5.79514 3.6496 100.775
238 1 7.44092 3.79323 98.7189
239 2 6.72035 1.50377 97.5025
240 1 5.14191 2.85242 96.1442
241 1 13.3564 2.54844 103.518
242 1 10.4367 1.62436 101.576
243 1 14.4172 5.90987 98.7872
244 2 11.4726 1.49792 99.0698
245 1 10.3242 3.73777 99.7905
246 1 9.13601 1.78401 98.0708
247 1 11.1442 0.597348 96.6124
248 1 7.89834 3.18159 95.8896
249 1 11.4598 3.04435 97.066
250 2 9.35584 4.49453 97.2401
251 1 8.40434 3.39877 92.9081
252 2 8.93827 1.97921 90.8653
253 1 10.3813 4.05332 90.9166
254 1 6.28383 1.90617 91.6571
255 1 8.68994 0.470801 92.8715
256 1 10.3719 4.16607 94.8492
257 1 7.3818 3.97683 90.1556
258 1 9.69941 2.82955 88.6048
259 1 12.9247 2.43383 100.855
260 2 11.0332 3.47172 102.433
261 1 12.5543 5.18987 100.542
262 2 13.5084 3.60593 98.4266
263 1 15.0869 3.80166 100.461
264 1 11.5381 5.78986 97.9119
265 1 13.6869 4.46023 96.1469
266 2 6.86429 1.50898 94.1992
267 2 5.21909 2.5763 89.3102
268 1 11.2648 5.38726 88.3696
269 1 2.50307 4.02261 99.8896
270 1 13.859 1.70939 96.9036
271 1 10.8814 2.00502 92.7163
272 1 11.6681 1.68992 90.2511
273 2 14.1347 1.63844 89.3785
274 1 12.2298 2.8885 87.8068
275 2 3.16777 3.9227 97.2446
276 1 15.9889 3.17998 97.8866
277 1 16.4288 5.04524 95.8521
278 2 12.6999 2.34762 94.6534
279 1 13.7499 2.04696 91.9057
280 2 14.5809 6.25228 94.2203
281 1 12.5843 4.4192 92.8157
282 1 13.3549 4.17022 90.0452
283 1 15.4683 3.80139 93.3712
284 1 16.1934 3.41485 90.941
285 1 9.74285 0.0381757 89.2694
286 1 14.5079 5.51448 102.566
287 1 5.4853 0.0193569 96.0504
288 2 16.737 4.4241 102.353
289 1 16.4446 6.42905 100.833
290 1 4.82835 5.16921 98.8491
291 1 4.21497 5.8949 101.441
292 1 17.246 6.03582 98.2369
293 1 16.9517 6.51388 93.4184
294 1 17.676 5.91444 90.8389
295 1 15.0531 5.76763 91.5058
296 2 15.9535 5.39363 88.9296
297 1 5.9009 3.87969 93.6027
298 1 3.78575 5.23741 95.1049
299 1 2.9498 3.96872 92.7992
300 1 4.86146 4.60262 90.6912
301 2 4.31063 6.13172 92.8334
302 1 9.88137 5.73507 101.716
303 1 6.87722 5.71141 97.0136
304 1 7.17006 5.80206 100.828
305 1 8.98486 6.36026 98.7947
306 2 8.03461 5.46934 94.487
307 1 6.97577 6.15677 92.1868
308 1 2.91712 3.98062 88.8755
309 2 6.63309 6.36368 89.465
310 1 10.0547 6.06527 92.9155
311 2 11.698 6.21561 90.8088
312 1 5.71124 4.64844 87.9305
313 1 3.57733 1.27568 87.9383
314 1 13.2545 0.571826 87.1121
315 2 16.9561 6.46024 84.7467
316 1 14.4773 0.00348896 82.7028
317 1 6.29804 2.14823 83.0969
318 1 6.09818 6.61752 83.6673
319 2 1.05803 0.639364 81.228
320 1 3.80307 5.91672 76.8109
321 1 5.56183 6.57668 74.7568
322 1 5.61561 6.3828 78.6726
323 1 18.074 6.52317 73.9562
324 1 4.169 1.50412 84.9669
325 2 4.85235 0.164005 82.9825
326 1 6.89728 0.0922921 84.9912
327 1 3.25101 2.09616 82.1339
328 1 5.30803 1.05885 80.6143
329 1 2.28702 1.08094 72.4299
330 1 9.68838 0.00688152 84.1068
331 2 13.862 6.43936 81.3163
332 1 11.5274 6.29253 82.295
333 1 8.03295 0.969905 79.7789
334 2 5.90571 2.08479 78.376
335 1 3.57681 0.168751 76.7419
336 1 8.38116 6.55935 74.1708
337 1 10.7122 6.25715 77.5188
338 1 11.2496 5.97918 74.8561
339 1 6.20906 2.13325 86.8614
340 1 1.57902 2.55914 79.8384
341 2 8.7637 0.89677 86.7407
342 2 10.1735 4.15617 86.3207
343 1 8.34464 2.57941 84.9068
344 1 12.1895 1.55634 82.7885
345 1 11.251 1.97244 85.4301
346 1 10.8011 4.06925 83.6391
347 1 9.16854 2.2247 82.322
348 1 8.34701 2.06462 77.3855
349 1 8.91474 1.80095 74.7775
350 1 6.14722 1.68968 75.6274
351 2 6.9846 1.27132 72.8664
352 1 14.7799 3.17071 87.3351
353 1 13.493 4.06887 83.0097
354 1 12.8233 4.56023 85.6598
355 2 11.6559 3.38531 80.9628
356 1 10.2531 3.69144 78.5149
357 1 17.0119 4.63627 86.666
358 1 2.65695 4.19719 84.0659
359 1 16.4772 6.42554 77.5667
360 1 10.4795 0.756786 78.9501
361 1 12.6526 2.42464 78.5106
362 1 13.6919 6.36409 76.5901
363 1 11.5461 0.360079 74.7048
364 2 10.9237 1.81241 76.7003
365 1 1.6218 2.0103 85.8829
366 1 15.8154 5.50043 82.6845
367 2 15.4473 4.19829 84.8588
368 1 14.1833 2.29529 80.7492
369 1 14.1346 2.03378 84.8399
370 1 16.0151 2.57005 82.8384
371 2 14.8405 1.31599 78.3949
372 1 13.6506 1.88058 76.0131
373 1 15.0827 3.89518 77.6182
374 1 12.6779 5.01439 79.058
375 1 13.212 6.38765 72.8621
376 1 11.195 3.31848 74.6923
377 2 13.1112 2.13427 73.3837
378 1 13.9251 4.30542 74.6817
379 2 12.3547 4.18597 76.6651
380 1 11.3095 3.41038 72.0378
381 1 4.22999 3.39326 79.6644
382 1 1.32182 1.87204 76.7875
383 1 2.60033 3.81367 72.8904
384 1 15.6388 2.50862 73.831
385 2 2.98496 1.94 74.8303
386 1 11.8293 0.640207 71.977
387 1 14.8971 6.10957 86.6205
388 1 4.07769 6.00136 85.6562
389 2 3.87064 3.4477 86.431
390 2 17.676 4.37023 81.4549
391 1 15.6001 5.17447 79.9202
392 1 8.43245 5.05542 87.6516
393 1 5.83829 4.15712 84.9975
394 2 7.52559 4.27406 82.8507
395 1 4.90933 4.77406 81.9882
396 1 7.04893 3.42919 80.5755
397 1 18.4646 6.06199 79.9562
398 1 7.16891 6.16057 80.8964
399 2 4.3692 4.47043 74.7269
400 1 17.0872 4.46445 75.5161
401 1 4.01159 2.98425 76.9566
402 1 4.87923 5.32562 72.4592
403 1 8.4573 5.28661 85.0147
404 2 6.68641 6.4536 86.304
405 2 17.5187 4.23885 78.1483
406 2 15.8108 5.13957 73.2354
407 1 9.58831 4.82289 81.1296
408 1 6.28057 4.32378 76.7501
409 1 6.92985 3.94457 74.0506
410 2 9.57911 4.34631 73.262
411 1 7.40043 5.49201 71.7771
412 2 8.06385 5.17956 78.6396
413 1 8.89801 4.59937 76.0007
414 1 4.93787 2.50234 73.0249
415 2 5.32608 6.53647 70.13
416 1 5.87927 6.57612 67.4911
417 1 9.95685 6.01161 71.1525
418 1 4.64339 0.184871 66.8604
419 1 3.83076 0.416215 69.4189
420 2 6.75658 5.99327 64.9148
421 1 5.53817 6.475 62.6306
422 1 8.24108 0.674983 70.6518
423 1 9.23189 0.262473 68.1258
424 1 7.86167 4.98434 62.7383
425 1 6.94117 1.46737 66.7689
426 2 6.609 0.0897355 68.7901
427 1 10.2133 6.59637 61.6258
428 1 4.05525 0.975442 63.2056
429 1 6.45314 5.90557 58.8976
430 1 5.08228 0.148095 58.8884
431 2 3.49537 0.244937 60.9553
432 1 6.49859 5.91573 56.1688
433 1 14.6613 6.20941 63.6184
434 1 13.1249 6.43665 57.1553
435 1 10.8176 5.22412 58.0377
436 1 14.0996 3.90483 71.7941
437 1 5.98282 2.11989 70.4735
438 1 10.6186 2.06197 69.5198
439 1 8.74835 3.27358 71.0131
440 2 14.1855 6.04415 70.5244
441 2 8.02694 2.46067 68.7105
442 1 9.46044 2.65274 66.7135
443 2 8.87795 0.292148 65.4317
444 1 6.77386 0.913653 64.109
445 1 14.7807 0.941896 71.5562
446 1 12.4076 0.1129 68.8554
447 1 16.7415 4.79494 66.9695
448 2 13.9627 0.292534 66.6886
449 1 12.6696 2.61575 67.519
450 1 11.2515 0.718888 66.0664
451 1 17.5288 6.13593 64.4995
452 1 9.33564 2.12461 64.0061
453 1 13.6776 2.13347 64.9755
454 2 11.4747 3.26298 65.2252
455 1 10.2415 2.05947 60.9579
456 2 10.931 0.42108 58.8953
457 1 12.2754 2.67637 59.0504
458 1 8.33062 0.453195 59.6014
459 1 14.668 5.67324 60.9372
460 1 12.1458 2.12782 62.8858
461 1 9.24977 2.48543 57.9942
462 1 11.3982 1.2776 56.6991
463 1 14.9099 1.2339 68.9945
464 2 13.0903 2.2075 70.3137
465 1 14.73 4.17088 68.937
466 2 15.3563 2.60548 66.965
467 1 1.90931 2.65828 68.9629
468 1 13.8136 4.76687 66.0621
469 1 15.8635 3.83652 64.6664
470 2 8.71885 0.0702034 62.1119
471 2 6.94332 1.0306 57.4138
472 1 13.1435 3.87924 56.4873
473 1 4.58656 2.73504 68.105
474 1 0.643698 0.782803 65.0139
475 1 12.7761 0.415779 60.816
476 1 13.5151 0.286764 58.261
477 2 0.668916 0.262127 57.4077
478 1 14.0409 1.32082 55.8232
479 2 4.99714 2.20112 65.3664
480 1 2.51677 2.24969 66.227
481 1 3.05455 3.4341 63.8634
482 2 14.7938 1.38194 62.6945
483 1 15.5046 0.832141 60.1499
484 2 16.51 4.93253 62.43
485 1 14.149 3.02593 60.8631
486 1 15.0465 2.61514 58.1801
487 1 2.03021 2.22337 61.7693
488 1 2.69141 2.00387 59.029
489 1 15.5509 5.21377 57.3045
490 1 16.7973 4.90091 70.8191
491 1 12.2585 5.0446 63.7566
492 2 3.91402 3.46942 70.6456
493 1 3.54444 5.19498 68.6813
494 1 7.08909 4.22848 66.711
495 1 6.5337 4.55454 69.3165
496 1 4.23792 4.78031 65.9004
497 1 3.48612 5.04044 61.6256
498 1 4.09763 4.53811 59.0733
499 1 16.7875 4.33518 59.7175
500 2 2.30961 3.77524 57.0613
501 1 7.57992 2.33251 61.7081
502 1 5.6792 3.48588 63.4791
503 1 4.86569 2.34429 60.8016
504 1 6.65861 2.94141 58.8844
505 2 6.12023 4.5144 61.0582
506 1 12.1652 4.66594 69.6301
507 1 9.35762 4.94092 64.9135
508 1 9.42344 4.58375 68.7708
509 1 11.1997 5.28542 66.7842
510 2 10.1962 4.03757 62.5677
511 1 8.7061 4.49704 60.2198
512 1 4.65737 2.18732 57.1075
513 2 8.28609 4.8232 57.5873
514 1 11.9856 4.52904 60.8971
515 2 13.5205 4.8094 58.9338
516 1 7.31422 3.18476 56.0328
517 1 9.36685 6.52106 55.8091
518 1 3.9232 5.70983 55.2757
519 2 3.29993 4.81445 52.9192
520 1 4.77051 5.02932 50.7509
521 1 7.97017 0.587225 51.1475
522 1 7.81926 5.08821 51.9199
523 2 6.75153 5.53309 49.304
524 1 5.72288 4.44965 44.9805
525 1 7.62793 5.02043 42.635
526 1 7.50989 4.70493 46.9049
527 1 4.897 5.10997 42.2834
528 1 9.97159 6.53489 53.0132
529 2 10.5861 5.02397 50.9594
530 1 12.5567 5.23563 53.0077
531 1 4.987 0.384598 50.1133
532 1 11.2298 5.88437 48.7578
533 1 4.39577 0.0183666 40.5325
534 1 15.1562 5.15472 52.2275
535 2 15.653 4.66698 49.5607
536 1 13.252 4.53933 50.3729
537 1 13.793 6.10167 48.0015
538 2 7.78568 0.480849 46.4485
539 1 9.68386 5.3836 45.0363
540 1 10.6169 4.94755 42.5102
541 1 12.639 4.84666 45.8416
542 1 13.5844 4.43383 43.2448
543 1 8.12103 0.662255 54.8404
544 1 3.28349 0.815598 48.0319
545 2 14.4856 5.97051 54.8928
546 2 11.8964 2.52114 54.4668
547 1 10.1742 1.06086 52.8222
548 1 17.7828 6.553 50.9034
549 1 12.8397 0.160436 53.5106
550 1 12.3714 2.31854 51.6994
551 1 10.7163 0.436709 50.2567
552 1 10.1606 0.597341 45.67
553 1 11.1985 0.161678 43.1355
554 1 8.27899 0.093974 43.8332
555 2 13.194 6.46243 41.0219
556 1 1.23495 1.73942 55.3258
557 1 15.1614 2.48765 51.1107
558 1 14.3798 2.96047 53.6225
559 2 13.6446 2.07239 49.0705
560 1 12.3259 2.2629 46.8656
561 1 3.53384 3.08808 54.8431
562 1 4.61232 2.45955 52.1044
563 1 3.2285 4.89966 45.9435
564 1 16.5586 6.29378 47.7231
565 1 14.7809 1.07528 46.7513
566 1 15.778 4.68629 45.1574
567 1 17.4588 5.34768 43.0951
568 2 12.9804 0.393283 45.2201
569 1 3.49126 0.45618 53.8632
570 1 17.5817 3.83728 50.9187
571 2 1.89217 2.43713 53.0008
572 1 0.610496 0.493721 49.0172
573 1 0.539243 0.247829 52.9826
574 1 2.44395 0.87002 50.888
575 2 5.48046 6.42457 46.6597
576 1 15.4282 0.323775 44.2241
577 1 1.69824 2.25976 45.8727
578 1 14.79 3.67196 47.3499
579 1 15.4162 5.02325 41.0099
580 1 13.4481 1.73837 42.9141
581 2 15.2096 0.601445 41.3171
582 1 16.0589 3.01204 43.0007
583 2 14.2633 2.72244 45.0226
584 1 13.9115 2.85688 40.7291
585 1 5.96213 1.69589 47.7902
586 1 3.4604 0.354863 45.1168
587 1 4.08142 2.59137 41.2426
588 1 2.26242 0.945131 42.3446
589 2 4.99277 0.543755 42.9744
590 1 12.636 0.649808 40.6848
591 1 16.5344 4.48093 54.8223
592 1 5.83476 4.35879 53.8001
593 2 5.61899 1.84492 54.6578
594 2 4.17078 2.58055 49.509
595 1 2.07131 3.43645 48.3226
596 1 10.2165 3.7435 55.7973
597 1 7.51489 2.54251 53.1506
598 2 9.11921 2.72565 50.9457
599 1 6.65535 2.98689 50.0081
600 1 8.62975 1.7117 48.689
601 1 4.85572 4.36639 47.9743
602 1 8.9072 4.47772 49.1887
603 2 6.20992 2.80588 43.0023
604 1 3.69655 2.86059 43.8348
605 1 5.99825 1.50688 45.095
606 1 6.57857 3.52259 40.5749
607 1 10.1754 3.75021 53.0368
608 2 8.37895 4.76855 54.4238
609 2 4.09701 2.53624 46.4412
610 2 17.4622 3.88838 40.6028
611 1 11.1958 3.07089 49.2271
612 1 8.24063 3.01136 44.8848
613 1 8.92914 2.43358 42.4625
614 2 11.4099 2.74766 41.3742
615 1 9.17144 3.98837 40.5494
616 2 9.97064 3.56009 46.9529
617 1 11.1236 2.93608 44.2157
618 1 6.89009 0.835251 41.3119
