LAMMPS (29 Aug 2024)
OMP_NUM_THREADS environment is not set. Defaulting to 1 thread. (src/comm.cpp:98)
  using 1 OpenMP thread(s) per MPI task
# 120 MPa compression-ramp controlled sanity run for Al/Fe4Al13 trial_001.
# DO NOT USE NPT. DO NOT RUN 147/200 MPa from this input.
# Reference: 60 MPa passed visual sanity check; this is still not physical validation.

units           metal
dimension       3
boundary        p p f
atom_style      atomic

read_data       ../../../02_interface_relax/trial_001/data.interface_nvt_300k_long
Reading data file ...
  triclinic box = (0 0 0) to (15.315254 6.6702724 109.21148) with tilt (4.0025167 0 0)
WARNING: Triclinic box skew is large. LAMMPS will run inefficiently. (src/domain.cpp:221)
  1 by 1 by 1 MPI processor grid
  reading atoms ...
  618 atoms
  reading velocities ...
  618 velocities
  read_data CPU = 0.011 seconds

mass            1 26.9815385
mass            2 55.845

pair_style      meam
pair_coeff      * * ../../../../potentials/meam/Jelinek_2012/Jelinek_2012_meamf AlS SiS MgS CuS FeS ../../../../potentials/meam/Jelinek_2012/Jelinek_2012_meam.alsimgcufe AlS FeS

neighbor        2.0 bin
neigh_modify    delay 0 every 1 check yes

variable interface_z equal 40.16445
variable region_width equal 8.0
variable z_bottom_fixed_hi equal 9.709919949401659
variable z_fe_load_lo equal ${interface_z}
variable z_fe_load_lo equal 40.16445
variable z_fe_load_hi equal ${interface_z}+${region_width}
variable z_fe_load_hi equal 40.16445+${region_width}
variable z_fe_load_hi equal 40.16445+8
variable z_al_monitor_lo equal ${interface_z}-${region_width}
variable z_al_monitor_lo equal 40.16445-${region_width}
variable z_al_monitor_lo equal 40.16445-8
variable z_al_monitor_hi equal ${interface_z}
variable z_al_monitor_hi equal 40.16445

group al_slab id 1:210
210 atoms in group al_slab
group fe4al13_slab id 211:618
408 atoms in group fe4al13_slab

region bottom_fixed_region block INF INF INF INF INF ${z_bottom_fixed_hi} units box
region bottom_fixed_region block INF INF INF INF INF 9.70991994940166 units box
region fe_load_region block INF INF INF INF ${z_fe_load_lo} ${z_fe_load_hi} units box
region fe_load_region block INF INF INF INF 40.16445 ${z_fe_load_hi} units box
region fe_load_region block INF INF INF INF 40.16445 48.16445 units box
region al_monitor_region block INF INF INF INF ${z_al_monitor_lo} ${z_al_monitor_hi} units box
region al_monitor_region block INF INF INF INF 32.16445 ${z_al_monitor_hi} units box
region al_monitor_region block INF INF INF INF 32.16445 40.16445 units box

group bottom_fixed_region_group region bottom_fixed_region
28 atoms in group bottom_fixed_region_group
group fe_load_region_group region fe_load_region
52 atoms in group fe_load_region_group
group al_monitor_region_group region al_monitor_region
42 atoms in group al_monitor_region_group
group fixed_bottom intersect al_slab bottom_fixed_region_group
28 atoms in group fixed_bottom
group fe_load intersect fe4al13_slab fe_load_region_group
52 atoms in group fe_load
group al_monitor intersect al_slab al_monitor_region_group
42 atoms in group al_monitor
group mobile subtract all fixed_bottom
590 atoms in group mobile

velocity mobile create 300.0 24680 mom yes rot no dist gaussian
velocity fixed_bottom set 0.0 0.0 0.0

fix hold_bottom fixed_bottom setforce 0.0 0.0 0.0
compute temp_mobile mobile temp
fix nvt_mobile mobile nvt temp 300.0 300.0 0.1
fix_modify nvt_mobile temp temp_mobile
WARNING: Temperature for fix modify is not for group all (src/fix_nh.cpp:1399)

compute pe_atom all pe/atom
compute stress_atom all stress/atom NULL virial

# 120 MPa equivalent compression toward Al side (-z).
variable f_atom_final equal -0.0014714153049055854
variable fz_ramp equal ramp(0.0,v_f_atom_final)

dump d1 all custom 100 dump.interface_stress_120mpa_compression_ramp.lammpstrj id type x y z c_pe_atom c_stress_atom[1] c_stress_atom[2] c_stress_atom[3] c_stress_atom[4] c_stress_atom[5] c_stress_atom[6]
dump_modify d1 sort id

thermo 100
thermo_style custom step temp c_temp_mobile pe ke etotal press vol lx ly lz xy xz yz v_fz_ramp

# Ramp to full 120 MPa-equivalent force over 5000 steps.
fix load_fe_ramp fe_load addforce 0.0 0.0 v_fz_ramp
run 5000

CITE-CITE-CITE-CITE-CITE-CITE-CITE-CITE-CITE-CITE-CITE-CITE-CITE

Your simulation uses code contributions which should be cited:

- Type Label Framework: https://doi.org/10.1021/acs.jpcb.3c08419

@Article{Gissinger24,
 author = {Jacob R. Gissinger, Ilia Nikiforov, Yaser Afshar, Brendon Waters, Moon-ki Choi, Daniel S. Karls, Alexander Stukowski, Wonpil Im, Hendrik Heinz, Axel Kohlmeyer, and Ellad B. Tadmor},
 title = {Type Label Framework for Bonded Force Fields in LAMMPS},
 journal = {J. Phys. Chem. B},
 year =    2024,
 volume =  128,
 number =  13,
 pages =   {3282–-3297}
}

CITE-CITE-CITE-CITE-CITE-CITE-CITE-CITE-CITE-CITE-CITE-CITE-CITE

Neighbor list info ...
  update: every = 1 steps, delay = 0 steps, check = yes
  max neighbors/atom: 2000, page size: 100000
  master list distance cutoff = 7
  ghost atom cutoff = 7
  binsize = 3.5, bins = 6 2 32
  2 neighbor lists, perpetual/occasional/extra = 2 0 0
  (1) pair meam, perpetual
      attributes: full, newton on
      pair build: full/bin/atomonly
      stencil: full/bin/3d
      bin: standard
  (2) pair meam, perpetual, half/full from (1)
      attributes: half, newton on
      pair build: halffull/newton/tri
      stencil: none
      bin: none
Per MPI rank memory allocation (min/avg/max) = 10.32 | 10.32 | 10.32 Mbytes
   Step          Temp      c_temp_mobile      PotEng         KinEng         TotEng         Press          Volume           Lx             Ly             Lz             Xy             Xz             Yz         v_fz_ramp   
         0   286.38574      300           -2123.0231      22.840268     -2100.1828     -4879.2272      11156.707      15.315254      6.6702724      109.21148      4.0025167      0              0              0            
       100   287.55985      301.22993     -2122.7071      22.933907     -2099.7732     -4215.5505      11156.707      15.315254      6.6702724      109.21148      4.0025167      0              0             -2.9428306e-05
       200   302.3561       316.72956     -2122.0798      24.11396      -2097.9658     -3456.1095      11156.707      15.315254      6.6702724      109.21148      4.0025167      0              0             -5.8856612e-05
       300   302.30022      316.67103     -2121.8551      24.109504     -2097.7456     -3660.5276      11156.707      15.315254      6.6702724      109.21148      4.0025167      0              0             -8.8284918e-05
       400   293.40247      307.35029     -2121.8326      23.399877     -2098.4327     -4450.652       11156.707      15.315254      6.6702724      109.21148      4.0025167      0              0             -0.00011771322
       500   277.61121      290.80835     -2121.4169      22.140468     -2099.2764     -4455.97        11156.707      15.315254      6.6702724      109.21148      4.0025167      0              0             -0.00014714153
       600   279.72712      293.02484     -2121.987       22.30922      -2099.6778     -5331.8922      11156.707      15.315254      6.6702724      109.21148      4.0025167      0              0             -0.00017656984
       700   262.7139       275.20285     -2120.5877      20.952356     -2099.6353     -5161.9882      11156.707      15.315254      6.6702724      109.21148      4.0025167      0              0             -0.00020599814
       800   291.49607      305.35327     -2121.571       23.247835     -2098.3232     -5351.0297      11156.707      15.315254      6.6702724      109.21148      4.0025167      0              0             -0.00023542645
       900   294.44384      308.44117     -2120.7867      23.48293      -2097.3038     -5076.9388      11156.707      15.315254      6.6702724      109.21148      4.0025167      0              0             -0.00026485475
      1000   300.55718      314.84513     -2122.1899      23.97049      -2098.2194     -4241.8387      11156.707      15.315254      6.6702724      109.21148      4.0025167      0              0             -0.00029428306
      1100   279.14877      292.419       -2122.1021      22.263094     -2099.839      -5260.5335      11156.707      15.315254      6.6702724      109.21148      4.0025167      0              0             -0.00032371137
      1200   284.58506      298.11372     -2122.7033      22.696657     -2100.0066     -5841.7225      11156.707      15.315254      6.6702724      109.21148      4.0025167      0              0             -0.00035313967
      1300   298.42344      312.60995     -2123.2912      23.800316     -2099.4909     -5682.5993      11156.707      15.315254      6.6702724      109.21148      4.0025167      0              0             -0.00038256798
      1400   293.93988      307.91325     -2122.5815      23.442737     -2099.1387     -4427.8398      11156.707      15.315254      6.6702724      109.21148      4.0025167      0              0             -0.00041199629
      1500   297.01856      311.13829     -2121.6608      23.688272     -2097.9726     -4193.5474      11156.707      15.315254      6.6702724      109.21148      4.0025167      0              0             -0.00044142459
      1600   306.23133      320.78902     -2121.1598      24.423024     -2096.7367     -3301.4105      11156.707      15.315254      6.6702724      109.21148      4.0025167      0              0             -0.0004708529 
      1700   285.67744      299.25803     -2120.6405      22.783778     -2097.8568     -4626.898       11156.707      15.315254      6.6702724      109.21148      4.0025167      0              0             -0.0005002812 
      1800   275.51047      288.60774     -2121.5422      21.972927     -2099.5693     -4714.6059      11156.707      15.315254      6.6702724      109.21148      4.0025167      0              0             -0.00052970951
      1900   281.2071       294.57517     -2122.2026      22.427253     -2099.7753     -5154.8748      11156.707      15.315254      6.6702724      109.21148      4.0025167      0              0             -0.00055913782
      2000   284.92277      298.46749     -2122.4863      22.723591     -2099.7627     -4170.773       11156.707      15.315254      6.6702724      109.21148      4.0025167      0              0             -0.00058856612
      2100   287.74255      301.42131     -2122.2513      22.948478     -2099.3028     -3955.9198      11156.707      15.315254      6.6702724      109.21148      4.0025167      0              0             -0.00061799443
      2200   299.01092      313.22536     -2121.6094      23.84717      -2097.7623     -3896.837       11156.707      15.315254      6.6702724      109.21148      4.0025167      0              0             -0.00064742273
      2300   285.08858      298.64118     -2119.9947      22.736815     -2097.2579     -3283.0869      11156.707      15.315254      6.6702724      109.21148      4.0025167      0              0             -0.00067685104
      2400   294.6339       308.64027     -2122.0725      23.498088     -2098.5744     -4446.1801      11156.707      15.315254      6.6702724      109.21148      4.0025167      0              0             -0.00070627935
      2500   278.5809       291.82413     -2122.4518      22.217804     -2100.234      -4056.052       11156.707      15.315254      6.6702724      109.21148      4.0025167      0              0             -0.00073570765
      2600   290.05212      303.84068     -2123.2225      23.132675     -2100.0898     -5621.9782      11156.707      15.315254      6.6702724      109.21148      4.0025167      0              0             -0.00076513596
      2700   283.24295      296.70781     -2121.9797      22.58962      -2099.39       -5316.5449      11156.707      15.315254      6.6702724      109.21148      4.0025167      0              0             -0.00079456426
      2800   296.70747      310.81241     -2121.9598      23.663462     -2098.2964     -2812.0444      11156.707      15.315254      6.6702724      109.21148      4.0025167      0              0             -0.00082399257
      2900   291.58137      305.44262     -2120.9204      23.254637     -2097.6658     -4557.1933      11156.707      15.315254      6.6702724      109.21148      4.0025167      0              0             -0.00085342088
      3000   279.75853      293.05775     -2121.1299      22.311725     -2098.8181     -3839.153       11156.707      15.315254      6.6702724      109.21148      4.0025167      0              0             -0.00088284918
      3100   282.59082      296.02468     -2122.9507      22.53761      -2100.4131     -4875.9587      11156.707      15.315254      6.6702724      109.21148      4.0025167      0              0             -0.00091227749
      3200   281.13912      294.50397     -2122.9079      22.421832     -2100.4861     -5480.7207      11156.707      15.315254      6.6702724      109.21148      4.0025167      0              0             -0.0009417058 
      3300   283.31597      296.7843      -2121.8007      22.595443     -2099.2052     -4388.8003      11156.707      15.315254      6.6702724      109.21148      4.0025167      0              0             -0.0009711341 
      3400   293.62329      307.58161     -2121.7146      23.417488     -2098.2971     -4068.3031      11156.707      15.315254      6.6702724      109.21148      4.0025167      0              0             -0.0010005624 
      3500   284.6927       298.22648     -2121.2937      22.705242     -2098.5885     -4283.8136      11156.707      15.315254      6.6702724      109.21148      4.0025167      0              0             -0.0010299907 
      3600   288.51021      302.22546     -2122.1165      23.009702     -2099.1068     -3449.1626      11156.707      15.315254      6.6702724      109.21148      4.0025167      0              0             -0.001059419  
      3700   280.74671      294.0929      -2121.8726      22.390535     -2099.4821     -4893.4941      11156.707      15.315254      6.6702724      109.21148      4.0025167      0              0             -0.0010888473 
      3800   278.51643      291.7566      -2122.0811      22.212663     -2099.8685     -4011.501       11156.707      15.315254      6.6702724      109.21148      4.0025167      0              0             -0.0011182756 
      3900   280.80945      294.15863     -2122.6511      22.395539     -2100.2556     -5134.0526      11156.707      15.315254      6.6702724      109.21148      4.0025167      0              0             -0.0011477039 
      4000   281.04876      294.40931     -2122.4959      22.414625     -2100.0813     -4621.3171      11156.707      15.315254      6.6702724      109.21148      4.0025167      0              0             -0.0011771322 
      4100   293.05655      306.98793     -2122.3444      23.372288     -2098.9721     -3636.5356      11156.707      15.315254      6.6702724      109.21148      4.0025167      0              0             -0.0012065606 
      4200   289.06546      302.80711     -2121.3013      23.053985     -2098.2473     -3638.1231      11156.707      15.315254      6.6702724      109.21148      4.0025167      0              0             -0.0012359889 
      4300   285.57821      299.15408     -2121.02        22.775864     -2098.2441     -3647.2574      11156.707      15.315254      6.6702724      109.21148      4.0025167      0              0             -0.0012654172 
      4400   271.21889      284.11215     -2121.7704      21.630658     -2100.1397     -3825.6197      11156.707      15.315254      6.6702724      109.21148      4.0025167      0              0             -0.0012948455 
      4500   265.37336      277.98873     -2122.2235      21.164457     -2101.0591     -4772.6692      11156.707      15.315254      6.6702724      109.21148      4.0025167      0              0             -0.0013242738 
      4600   286.89332      300.53171     -2123.1552      22.880749     -2100.2744     -3904.0187      11156.707      15.315254      6.6702724      109.21148      4.0025167      0              0             -0.0013537021 
      4700   296.87622      310.98918     -2123.0334      23.67692      -2099.3565     -4054.8324      11156.707      15.315254      6.6702724      109.21148      4.0025167      0              0             -0.0013831304 
      4800   277.66838      290.86824     -2121.2418      22.145028     -2099.0968     -3499.9025      11156.707      15.315254      6.6702724      109.21148      4.0025167      0              0             -0.0014125587 
      4900   293.34737      307.29257     -2122.6231      23.395482     -2099.2276     -3638.8142      11156.707      15.315254      6.6702724      109.21148      4.0025167      0              0             -0.001441987  
      5000   276.96582      290.13228     -2121.4555      22.088996     -2099.3665     -3348.8488      11156.707      15.315254      6.6702724      109.21148      4.0025167      0              0             -0.0014714153 
Loop time of 73.9653 on 1 procs for 5000 steps with 618 atoms

Performance: 5.841 ns/day, 4.109 hours/ns, 67.599 timesteps/s, 41.776 katom-step/s
185.3% CPU use with 1 MPI tasks x 1 OpenMP threads

MPI task timing breakdown:
Section |  min time  |  avg time  |  max time  |%varavg| %total
---------------------------------------------------------------
Pair    | 73.412     | 73.412     | 73.412     |   0.0 | 99.25
Neigh   | 0.011031   | 0.011031   | 0.011031   |   0.0 |  0.01
Comm    | 0.12584    | 0.12584    | 0.12584    |   0.0 |  0.17
Output  | 0.14794    | 0.14794    | 0.14794    |   0.0 |  0.20
Modify  | 0.22824    | 0.22824    | 0.22824    |   0.0 |  0.31
Other   |            | 0.04011    |            |       |  0.05

Nlocal:            618 ave         618 max         618 min
Histogram: 1 0 0 0 0 0 0 0 0 0
Nghost:           3354 ave        3354 max        3354 min
Histogram: 1 0 0 0 0 0 0 0 0 0
Neighs:          26326 ave       26326 max       26326 min
Histogram: 1 0 0 0 0 0 0 0 0 0
FullNghs:        52652 ave       52652 max       52652 min
Histogram: 1 0 0 0 0 0 0 0 0 0

Total # of neighbors = 52652
Ave neighs/atom = 85.197411
Neighbor list builds = 4
Dangerous builds = 0
unfix load_fe_ramp

# Hold final 120 MPa-equivalent force for 10000 steps.
fix load_fe_hold fe_load addforce 0.0 0.0 ${f_atom_final}
fix load_fe_hold fe_load addforce 0.0 0.0 -0.00147141530490559
run 10000
Per MPI rank memory allocation (min/avg/max) = 12.57 | 12.57 | 12.57 Mbytes
   Step          Temp      c_temp_mobile      PotEng         KinEng         TotEng         Press          Volume           Lx             Ly             Lz             Xy             Xz             Yz         v_fz_ramp   
      5000   276.96582      290.13228     -2121.4555      22.088996     -2099.3665     -3348.8488      11156.707      15.315254      6.6702724      109.21148      4.0025167      0              0              0            
      5100   286.79632      300.4301      -2122.3278      22.873013     -2099.4548     -3656.161       11156.707      15.315254      6.6702724      109.21148      4.0025167      0              0             -1.4714153e-05
      5200   283.31012      296.77817     -2122.0534      22.594976     -2099.4584     -4292.3987      11156.707      15.315254      6.6702724      109.21148      4.0025167      0              0             -2.9428306e-05
      5300   300.05744      314.32163     -2123.0465      23.930634     -2099.1159     -5358.0742      11156.707      15.315254      6.6702724      109.21148      4.0025167      0              0             -4.4142459e-05
      5400   286.20707      299.81284     -2121.5144      22.826018     -2098.6884     -4153.6743      11156.707      15.315254      6.6702724      109.21148      4.0025167      0              0             -5.8856612e-05
      5500   288.06146      301.75538     -2121.3846      22.973912     -2098.4107     -4032.7524      11156.707      15.315254      6.6702724      109.21148      4.0025167      0              0             -7.3570765e-05
      5600   298.62311      312.81912     -2122.8448      23.816241     -2099.0286     -5378.3782      11156.707      15.315254      6.6702724      109.21148      4.0025167      0              0             -8.8284918e-05
      5700   290.95312      304.78451     -2123.6576      23.204533     -2100.453      -5072.958       11156.707      15.315254      6.6702724      109.21148      4.0025167      0              0             -0.00010299907
      5800   280.3852       293.7142      -2123.0344      22.361703     -2100.6727     -5436.8189      11156.707      15.315254      6.6702724      109.21148      4.0025167      0              0             -0.00011771322
      5900   297.34879      311.48422     -2122.5401      23.71461      -2098.8254     -4240.6243      11156.707      15.315254      6.6702724      109.21148      4.0025167      0              0             -0.00013242738
      6000   303.55496      317.98542     -2121.9494      24.209574     -2097.7399     -4680.1668      11156.707      15.315254      6.6702724      109.21148      4.0025167      0              0             -0.00014714153
      6100   293.71025      307.67271     -2121.7778      23.424424     -2098.3533     -4337.234       11156.707      15.315254      6.6702724      109.21148      4.0025167      0              0             -0.00016185568
      6200   269.87918      282.70875     -2121.2634      21.523811     -2099.7396     -4788.5742      11156.707      15.315254      6.6702724      109.21148      4.0025167      0              0             -0.00017656984
      6300   283.48501      296.96138     -2122.7181      22.608925     -2100.1091     -4134.9023      11156.707      15.315254      6.6702724      109.21148      4.0025167      0              0             -0.00019128399
      6400   292.46183      306.36494     -2122.8313      23.324858     -2099.5065     -4777.567       11156.707      15.315254      6.6702724      109.21148      4.0025167      0              0             -0.00020599814
      6500   296.25829      310.34188     -2120.8104      23.627638     -2097.1828     -4320.4441      11156.707      15.315254      6.6702724      109.21148      4.0025167      0              0             -0.0002207123 
      6600   296.17717      310.2569      -2120.8271      23.621169     -2097.2059     -4417.407       11156.707      15.315254      6.6702724      109.21148      4.0025167      0              0             -0.00023542645
      6700   298.36004      312.54354     -2122.267       23.79526      -2098.4717     -3970.8994      11156.707      15.315254      6.6702724      109.21148      4.0025167      0              0             -0.0002501406 
      6800   282.89526      296.3436      -2122.3592      22.56189      -2099.7974     -5259.5941      11156.707      15.315254      6.6702724      109.21148      4.0025167      0              0             -0.00026485475
      6900   290.28325      304.08279     -2122.9147      23.151108     -2099.7636     -4611.5169      11156.707      15.315254      6.6702724      109.21148      4.0025167      0              0             -0.00027956891
      7000   286.01636      299.61307     -2121.9963      22.810809     -2099.1855     -3743.785       11156.707      15.315254      6.6702724      109.21148      4.0025167      0              0             -0.00029428306
      7100   287.71834      301.39595     -2120.9576      22.946547     -2098.011      -4980.0261      11156.707      15.315254      6.6702724      109.21148      4.0025167      0              0             -0.00030899721
      7200   307.70186      322.32945     -2121.0651      24.540303     -2096.5248     -4793.4072      11156.707      15.315254      6.6702724      109.21148      4.0025167      0              0             -0.00032371137
      7300   282.99831      296.45154     -2120.644       22.570109     -2098.0739     -4346.3345      11156.707      15.315254      6.6702724      109.21148      4.0025167      0              0             -0.00033842552
      7400   291.53924      305.39849     -2122.1763      23.251277     -2098.925      -4564.1606      11156.707      15.315254      6.6702724      109.21148      4.0025167      0              0             -0.00035313967
      7500   280.22656      293.54802     -2121.8279      22.349051     -2099.4789     -5087.3956      11156.707      15.315254      6.6702724      109.21148      4.0025167      0              0             -0.00036785383
      7600   297.69037      311.84204     -2123.0015      23.741852     -2099.2597     -5549.6444      11156.707      15.315254      6.6702724      109.21148      4.0025167      0              0             -0.00038256798
      7700   286.84218      300.47814     -2121.4737      22.876671     -2098.5971     -5676.8858      11156.707      15.315254      6.6702724      109.21148      4.0025167      0              0             -0.00039728213
      7800   299.70764      313.9552      -2121.1247      23.902736     -2097.222      -5096.2183      11156.707      15.315254      6.6702724      109.21148      4.0025167      0              0             -0.00041199629
      7900   291.54298      305.40241     -2121.4217      23.251576     -2098.1701     -4242.3296      11156.707      15.315254      6.6702724      109.21148      4.0025167      0              0             -0.00042671044
      8000   284.04565      297.54867     -2122.5133      22.653637     -2099.8597     -5151.7587      11156.707      15.315254      6.6702724      109.21148      4.0025167      0              0             -0.00044142459
      8100   283.43224      296.90609     -2122.4224      22.604716     -2099.8177     -4088.5871      11156.707      15.315254      6.6702724      109.21148      4.0025167      0              0             -0.00045613874
      8200   289.26197      303.01296     -2122.4146      23.069657     -2099.3449     -4318.9437      11156.707      15.315254      6.6702724      109.21148      4.0025167      0              0             -0.0004708529 
      8300   294.65545      308.66284     -2122.0486      23.499806     -2098.5488     -3859.7195      11156.707      15.315254      6.6702724      109.21148      4.0025167      0              0             -0.00048556705
      8400   286.13843      299.74094     -2120.0769      22.820544     -2097.2563     -3283.5241      11156.707      15.315254      6.6702724      109.21148      4.0025167      0              0             -0.0005002812 
      8500   306.77737      321.36102     -2121.2471      24.466572     -2096.7806     -3555.5336      11156.707      15.315254      6.6702724      109.21148      4.0025167      0              0             -0.00051499536
      8600   282.12406      295.53574     -2121.4831      22.500384     -2098.9827     -4754.599       11156.707      15.315254      6.6702724      109.21148      4.0025167      0              0             -0.00052970951
      8700   273.25999      286.25027     -2121.3885      21.793443     -2099.5951     -3906.6369      11156.707      15.315254      6.6702724      109.21148      4.0025167      0              0             -0.00054442366
      8800   287.89428      301.58025     -2122.3621      22.960579     -2099.4015     -4723.1727      11156.707      15.315254      6.6702724      109.21148      4.0025167      0              0             -0.00055913782
      8900   295.8218       309.88463     -2122.2498      23.592827     -2098.657      -4365.7163      11156.707      15.315254      6.6702724      109.21148      4.0025167      0              0             -0.00057385197
      9000   299.71722      313.96524     -2121.7585      23.9035       -2097.855      -4173.4752      11156.707      15.315254      6.6702724      109.21148      4.0025167      0              0             -0.00058856612
      9100   305.62673      320.15567     -2121.9505      24.374804     -2097.5757     -4245.134       11156.707      15.315254      6.6702724      109.21148      4.0025167      0              0             -0.00060328028
      9200   281.77114      295.16603     -2121.812       22.472237     -2099.3398     -4548.9236      11156.707      15.315254      6.6702724      109.21148      4.0025167      0              0             -0.00061799443
      9300   282.87292      296.32019     -2122.8004      22.560108     -2100.2403     -4647.0611      11156.707      15.315254      6.6702724      109.21148      4.0025167      0              0             -0.00063270858
      9400   278.91181      292.17078     -2122.2334      22.244196     -2099.9892     -4925.3805      11156.707      15.315254      6.6702724      109.21148      4.0025167      0              0             -0.00064742273
      9500   291.78842      305.65952     -2121.9169      23.27115      -2098.6458     -3596.6364      11156.707      15.315254      6.6702724      109.21148      4.0025167      0              0             -0.00066213689
      9600   289.36956      303.12567     -2120.3153      23.078238     -2097.2371     -4024.5555      11156.707      15.315254      6.6702724      109.21148      4.0025167      0              0             -0.00067685104
      9700   301.7339       316.07779     -2120.8007      24.064337     -2096.7364     -3980.1932      11156.707      15.315254      6.6702724      109.21148      4.0025167      0              0             -0.00069156519
      9800   287.07793      300.7251      -2121.4914      22.895473     -2098.5959     -4491.0595      11156.707      15.315254      6.6702724      109.21148      4.0025167      0              0             -0.00070627935
      9900   279.0542       292.31993     -2122.429       22.255552     -2100.1734     -3287.0681      11156.707      15.315254      6.6702724      109.21148      4.0025167      0              0             -0.0007209935 
     10000   287.8708       301.55566     -2123.547       22.958707     -2100.5883     -3562.9006      11156.707      15.315254      6.6702724      109.21148      4.0025167      0              0             -0.00073570765
     10100   276.97726      290.14426     -2122.2216      22.089908     -2100.1317     -3144.9916      11156.707      15.315254      6.6702724      109.21148      4.0025167      0              0             -0.00075042181
     10200   297.33375      311.46846     -2122.2851      23.71341      -2098.5716     -2867.5537      11156.707      15.315254      6.6702724      109.21148      4.0025167      0              0             -0.00076513596
     10300   299.21634      313.44054     -2121.9011      23.863553     -2098.0376     -4523.8269      11156.707      15.315254      6.6702724      109.21148      4.0025167      0              0             -0.00077985011
     10400   283.55713      297.03692     -2121.6218      22.614676     -2099.0071     -3289.5303      11156.707      15.315254      6.6702724      109.21148      4.0025167      0              0             -0.00079456426
     10500   279.75793      293.05712     -2122.5435      22.311676     -2100.2318     -4318.8031      11156.707      15.315254      6.6702724      109.21148      4.0025167      0              0             -0.00080927842
     10600   279.03018      292.29478     -2122.4268      22.253636     -2100.1731     -3622.0144      11156.707      15.315254      6.6702724      109.21148      4.0025167      0              0             -0.00082399257
     10700   278.22519      291.45152     -2121.6443      22.189436     -2099.4548     -3947.5255      11156.707      15.315254      6.6702724      109.21148      4.0025167      0              0             -0.00083870672
     10800   290.03796      303.82585     -2121.6426      23.131545     -2098.511      -4454.292       11156.707      15.315254      6.6702724      109.21148      4.0025167      0              0             -0.00085342088
     10900   303.94144      318.39027     -2122.2648      24.240397     -2098.0244     -3774.3897      11156.707      15.315254      6.6702724      109.21148      4.0025167      0              0             -0.00086813503
     11000   293.6113       307.56905     -2122.7889      23.416532     -2099.3723     -3395.6358      11156.707      15.315254      6.6702724      109.21148      4.0025167      0              0             -0.00088284918
     11100   294.20073      308.1865      -2124.3321      23.463541     -2100.8686     -4768.09        11156.707      15.315254      6.6702724      109.21148      4.0025167      0              0             -0.00089756334
     11200   281.35349      294.72853     -2122.9787      22.438928     -2100.5397     -4360.8599      11156.707      15.315254      6.6702724      109.21148      4.0025167      0              0             -0.00091227749
     11300   287.71746      301.39504     -2122.2733      22.946478     -2099.3268     -4994.7785      11156.707      15.315254      6.6702724      109.21148      4.0025167      0              0             -0.00092699164
     11400   293.58301      307.53942     -2121.8514      23.414276     -2098.4371     -4726.5788      11156.707      15.315254      6.6702724      109.21148      4.0025167      0              0             -0.0009417058 
     11500   290.80357      304.62785     -2121.7936      23.192605     -2098.601      -4833.9998      11156.707      15.315254      6.6702724      109.21148      4.0025167      0              0             -0.00095641995
     11600   293.58749      307.54411     -2122.3441      23.414633     -2098.9294     -5020.3421      11156.707      15.315254      6.6702724      109.21148      4.0025167      0              0             -0.0009711341 
     11700   284.7192       298.25424     -2122.0086      22.707355     -2099.3012     -4376.1293      11156.707      15.315254      6.6702724      109.21148      4.0025167      0              0             -0.00098584825
     11800   275.79232      288.90299     -2122.1019      21.995406     -2100.1065     -4352.5886      11156.707      15.315254      6.6702724      109.21148      4.0025167      0              0             -0.0010005624 
     11900   272.28898      285.23311     -2123.6754      21.716002     -2101.9594     -4870.539       11156.707      15.315254      6.6702724      109.21148      4.0025167      0              0             -0.0010152766 
     12000   275.02202      288.09607     -2123.6637      21.933971     -2101.7297     -4898.6561      11156.707      15.315254      6.6702724      109.21148      4.0025167      0              0             -0.0010299907 
     12100   285.69906      299.28068     -2122.9357      22.785503     -2100.1502     -4156.2627      11156.707      15.315254      6.6702724      109.21148      4.0025167      0              0             -0.0010447049 
     12200   296.66091      310.76363     -2123.2727      23.659748     -2099.6129     -4061.6069      11156.707      15.315254      6.6702724      109.21148      4.0025167      0              0             -0.001059419  
     12300   289.50249      303.26492     -2122.291       23.08884      -2099.2022     -3819.6722      11156.707      15.315254      6.6702724      109.21148      4.0025167      0              0             -0.0010741332 
     12400   283.69958      297.18615     -2121.3394      22.626037     -2098.7134     -4631.0721      11156.707      15.315254      6.6702724      109.21148      4.0025167      0              0             -0.0010888473 
     12500   285.26951      298.83071     -2121.1359      22.751245     -2098.3846     -4120.6143      11156.707      15.315254      6.6702724      109.21148      4.0025167      0              0             -0.0011035615 
     12600   279.69293      292.98903     -2121.4995      22.306493     -2099.193      -4566.901       11156.707      15.315254      6.6702724      109.21148      4.0025167      0              0             -0.0011182756 
     12700   279.1203       292.38918     -2122.8021      22.260824     -2100.5413     -4206.9324      11156.707      15.315254      6.6702724      109.21148      4.0025167      0              0             -0.0011329898 
     12800   276.78475      289.9426      -2122.7261      22.074555     -2100.6515     -5149.527       11156.707      15.315254      6.6702724      109.21148      4.0025167      0              0             -0.0011477039 
     12900   281.38404      294.76054     -2121.3109      22.441365     -2098.8696     -5200.2129      11156.707      15.315254      6.6702724      109.21148      4.0025167      0              0             -0.0011624181 
     13000   287.34785      301.00785     -2120.9541      22.916999     -2098.0371     -4385.738       11156.707      15.315254      6.6702724      109.21148      4.0025167      0              0             -0.0011771322 
     13100   282.02463      295.43157     -2121.1028      22.492454     -2098.6103     -5908.1104      11156.707      15.315254      6.6702724      109.21148      4.0025167      0              0             -0.0011918464 
     13200   280.22047      293.54165     -2121.9072      22.348566     -2099.5587     -5289.6859      11156.707      15.315254      6.6702724      109.21148      4.0025167      0              0             -0.0012065606 
     13300   278.4241       291.65988     -2122.8985      22.205299     -2100.6932     -4356.0549      11156.707      15.315254      6.6702724      109.21148      4.0025167      0              0             -0.0012212747 
     13400   275.35353      288.44335     -2123.2663      21.960411     -2101.3059     -4421.9194      11156.707      15.315254      6.6702724      109.21148      4.0025167      0              0             -0.0012359889 
     13500   292.05652      305.94036     -2123.1593      23.292533     -2099.8668     -4587.4558      11156.707      15.315254      6.6702724      109.21148      4.0025167      0              0             -0.001250703  
     13600   292.05046      305.93401     -2121.6736      23.292049     -2098.3816     -4930.3674      11156.707      15.315254      6.6702724      109.21148      4.0025167      0              0             -0.0012654172 
     13700   298.18645      312.3617      -2122.2158      23.781416     -2098.4344     -5087.6073      11156.707      15.315254      6.6702724      109.21148      4.0025167      0              0             -0.0012801313 
     13800   279.84641      293.1498      -2121.7549      22.318733     -2099.4362     -5148.8567      11156.707      15.315254      6.6702724      109.21148      4.0025167      0              0             -0.0012948455 
     13900   293.38154      307.32837     -2123.9052      23.398207     -2100.507      -5083.5483      11156.707      15.315254      6.6702724      109.21148      4.0025167      0              0             -0.0013095596 
     14000   281.13044      294.49488     -2123.666       22.42114      -2101.2449     -5022.5621      11156.707      15.315254      6.6702724      109.21148      4.0025167      0              0             -0.0013242738 
     14100   282.68632      296.12472     -2122.6889      22.545226     -2100.1437     -4817.9137      11156.707      15.315254      6.6702724      109.21148      4.0025167      0              0             -0.0013389879 
     14200   288.26654      301.97022     -2121.5735      22.990268     -2098.5832     -5010.565       11156.707      15.315254      6.6702724      109.21148      4.0025167      0              0             -0.0013537021 
     14300   300.07993      314.34519     -2122.3697      23.932428     -2098.4373     -4207.6117      11156.707      15.315254      6.6702724      109.21148      4.0025167      0              0             -0.0013684162 
     14400   282.6868       296.12522     -2122.2744      22.545264     -2099.7291     -2926.316       11156.707      15.315254      6.6702724      109.21148      4.0025167      0              0             -0.0013831304 
     14500   271.65242      284.56629     -2122.3987      21.665234     -2100.7335     -4084.3893      11156.707      15.315254      6.6702724      109.21148      4.0025167      0              0             -0.0013978445 
     14600   267.22286      279.92615     -2121.7502      21.311961     -2100.4382     -5097.7164      11156.707      15.315254      6.6702724      109.21148      4.0025167      0              0             -0.0014125587 
     14700   278.58314      291.82648     -2121.9936      22.217983     -2099.7756     -4547.1205      11156.707      15.315254      6.6702724      109.21148      4.0025167      0              0             -0.0014272728 
     14800   284.94284      298.48851     -2121.8924      22.725192     -2099.1672     -4542.1703      11156.707      15.315254      6.6702724      109.21148      4.0025167      0              0             -0.001441987  
     14900   290.60934      304.42439     -2121.5477      23.177115     -2098.3706     -5040.7067      11156.707      15.315254      6.6702724      109.21148      4.0025167      0              0             -0.0014567012 
     15000   280.33008      293.65646     -2120.5319      22.357307     -2098.1746     -4200.4185      11156.707      15.315254      6.6702724      109.21148      4.0025167      0              0             -0.0014714153 
Loop time of 160.637 on 1 procs for 10000 steps with 618 atoms

Performance: 5.379 ns/day, 4.462 hours/ns, 62.252 timesteps/s, 38.472 katom-step/s
186.4% CPU use with 1 MPI tasks x 1 OpenMP threads

MPI task timing breakdown:
Section |  min time  |  avg time  |  max time  |%varavg| %total
---------------------------------------------------------------
Pair    | 159.79     | 159.79     | 159.79     |   0.0 | 99.47
Neigh   | 0.020487   | 0.020487   | 0.020487   |   0.0 |  0.01
Comm    | 0.25459    | 0.25459    | 0.25459    |   0.0 |  0.16
Output  | 0.26696    | 0.26696    | 0.26696    |   0.0 |  0.17
Modify  | 0.22723    | 0.22723    | 0.22723    |   0.0 |  0.14
Other   |            | 0.08       |            |       |  0.05

Nlocal:            618 ave         618 max         618 min
Histogram: 1 0 0 0 0 0 0 0 0 0
Nghost:           3369 ave        3369 max        3369 min
Histogram: 1 0 0 0 0 0 0 0 0 0
Neighs:          26216 ave       26216 max       26216 min
Histogram: 1 0 0 0 0 0 0 0 0 0
FullNghs:        52432 ave       52432 max       52432 min
Histogram: 1 0 0 0 0 0 0 0 0 0

Total # of neighbors = 52432
Ave neighs/atom = 84.841424
Neighbor list builds = 6
Dangerous builds = 0

write_data data.interface_stress_120mpa_compression_ramp
System init for write_data ...
write_dump all custom dump.interface_stress_120mpa_compression_ramp_final.lammpstrj id type x y z modify sort id
Total wall time: 0:03:54
