(written by ASE)

4000 atoms
1 atom types

0.0                    40.5  xlo xhi
0.0                    40.5  ylo yhi
0.0                    40.5  zlo zhi

Atoms # atomic

     1   1                       0                       0                       0
     2   1                       0      2.0249999999999999      2.0249999999999999
     3   1      2.0249999999999999                       0      2.0249999999999999
     4   1      2.0249999999999999      2.0249999999999999                       0
     5   1                       0                       0      4.0499999999999998
     6   1                       0      2.0249999999999999      6.0749999999999993
     7   1      2.0249999999999999                       0      6.0749999999999993
     8   1      2.0249999999999999      2.0249999999999999      4.0499999999999998
     9   1                       0                       0      8.0999999999999996
    10   1                       0      2.0249999999999999                  10.125
    11   1      2.0249999999999999                       0                  10.125
    12   1      2.0249999999999999      2.0249999999999999      8.0999999999999996
    13   1                       0                       0      12.149999999999999
    14   1                       0      2.0249999999999999      14.174999999999999
    15   1      2.0249999999999999                       0      14.174999999999999
    16   1      2.0249999999999999      2.0249999999999999      12.149999999999999
    17   1                       0                       0      16.199999999999999
    18   1                       0      2.0249999999999999      18.224999999999998
    19   1      2.0249999999999999                       0      18.224999999999998
    20   1      2.0249999999999999      2.0249999999999999      16.199999999999999
    21   1                       0                       0                   20.25
    22   1                       0      2.0249999999999999      22.274999999999999
    23   1      2.0249999999999999                       0      22.274999999999999
    24   1      2.0249999999999999      2.0249999999999999                   20.25
    25   1                       0                       0      24.299999999999997
    26   1                       0      2.0249999999999999      26.324999999999996
    27   1      2.0249999999999999                       0      26.324999999999996
    28   1      2.0249999999999999      2.0249999999999999      24.299999999999997
    29   1                       0                       0      28.349999999999998
    30   1                       0      2.0249999999999999      30.374999999999996
    31   1      2.0249999999999999                       0      30.374999999999996
    32   1      2.0249999999999999      2.0249999999999999      28.349999999999998
    33   1                       0                       0      32.399999999999999
    34   1                       0      2.0249999999999999      34.424999999999997
    35   1      2.0249999999999999                       0      34.424999999999997
    36   1      2.0249999999999999      2.0249999999999999      32.399999999999999
    37   1                       0                       0      36.449999999999996
    38   1                       0      2.0249999999999999      38.474999999999994
    39   1      2.0249999999999999                       0      38.474999999999994
    40   1      2.0249999999999999      2.0249999999999999      36.449999999999996
    41   1                       0      4.0499999999999998                       0
    42   1                       0      6.0749999999999993      2.0249999999999999
    43   1      2.0249999999999999      4.0499999999999998      2.0249999999999999
    44   1      2.0249999999999999      6.0749999999999993                       0
    45   1                       0      4.0499999999999998      4.0499999999999998
    46   1                       0      6.0749999999999993      6.0749999999999993
    47   1      2.0249999999999999      4.0499999999999998      6.0749999999999993
    48   1      2.0249999999999999      6.0749999999999993      4.0499999999999998
    49   1                       0      4.0499999999999998      8.0999999999999996
    50   1                       0      6.0749999999999993                  10.125
    51   1      2.0249999999999999      4.0499999999999998                  10.125
    52   1      2.0249999999999999      6.0749999999999993      8.0999999999999996
    53   1                       0      4.0499999999999998      12.149999999999999
    54   1                       0      6.0749999999999993      14.174999999999999
    55   1      2.0249999999999999      4.0499999999999998      14.174999999999999
    56   1      2.0249999999999999      6.0749999999999993      12.149999999999999
    57   1                       0      4.0499999999999998      16.199999999999999
    58   1                       0      6.0749999999999993      18.224999999999998
    59   1      2.0249999999999999      4.0499999999999998      18.224999999999998
    60   1      2.0249999999999999      6.0749999999999993      16.199999999999999
    61   1                       0      4.0499999999999998                   20.25
    62   1                       0      6.0749999999999993      22.274999999999999
    63   1      2.0249999999999999      4.0499999999999998      22.274999999999999
    64   1      2.0249999999999999      6.0749999999999993                   20.25
    65   1                       0      4.0499999999999998      24.299999999999997
    66   1                       0      6.0749999999999993      26.324999999999996
    67   1      2.0249999999999999      4.0499999999999998      26.324999999999996
    68   1      2.0249999999999999      6.0749999999999993      24.299999999999997
    69   1                       0      4.0499999999999998      28.349999999999998
    70   1                       0      6.0749999999999993      30.374999999999996
    71   1      2.0249999999999999      4.0499999999999998      30.374999999999996
    72   1      2.0249999999999999      6.0749999999999993      28.349999999999998
    73   1                       0      4.0499999999999998      32.399999999999999
    74   1                       0      6.0749999999999993      34.424999999999997
    75   1      2.0249999999999999      4.0499999999999998      34.424999999999997
    76   1      2.0249999999999999      6.0749999999999993      32.399999999999999
    77   1                       0      4.0499999999999998      36.449999999999996
    78   1                       0      6.0749999999999993      38.474999999999994
    79   1      2.0249999999999999      4.0499999999999998      38.474999999999994
    80   1      2.0249999999999999      6.0749999999999993      36.449999999999996
    81   1                       0      8.0999999999999996                       0
    82   1                       0                  10.125      2.0249999999999999
    83   1      2.0249999999999999      8.0999999999999996      2.0249999999999999
    84   1      2.0249999999999999                  10.125                       0
    85   1                       0      8.0999999999999996      4.0499999999999998
    86   1                       0                  10.125      6.0749999999999993
    87   1      2.0249999999999999      8.0999999999999996      6.0749999999999993
    88   1      2.0249999999999999                  10.125      4.0499999999999998
    89   1                       0      8.0999999999999996      8.0999999999999996
    90   1                       0                  10.125                  10.125
    91   1      2.0249999999999999      8.0999999999999996                  10.125
    92   1      2.0249999999999999                  10.125      8.0999999999999996
    93   1                       0      8.0999999999999996      12.149999999999999
    94   1                       0                  10.125      14.174999999999999
    95   1      2.0249999999999999      8.0999999999999996      14.174999999999999
    96   1      2.0249999999999999                  10.125      12.149999999999999
    97   1                       0      8.0999999999999996      16.199999999999999
    98   1                       0                  10.125      18.224999999999998
    99   1      2.0249999999999999      8.0999999999999996      18.224999999999998
   100   1      2.0249999999999999                  10.125      16.199999999999999
   101   1                       0      8.0999999999999996                   20.25
   102   1                       0                  10.125      22.274999999999999
   103   1      2.0249999999999999      8.0999999999999996      22.274999999999999
   104   1      2.0249999999999999                  10.125                   20.25
   105   1                       0      8.0999999999999996      24.299999999999997
   106   1                       0                  10.125      26.324999999999996
   107   1      2.0249999999999999      8.0999999999999996      26.324999999999996
   108   1      2.0249999999999999                  10.125      24.299999999999997
   109   1                       0      8.0999999999999996      28.349999999999998
   110   1                       0                  10.125      30.374999999999996
   111   1      2.0249999999999999      8.0999999999999996      30.374999999999996
   112   1      2.0249999999999999                  10.125      28.349999999999998
   113   1                       0      8.0999999999999996      32.399999999999999
   114   1                       0                  10.125      34.424999999999997
   115   1      2.0249999999999999      8.0999999999999996      34.424999999999997
   116   1      2.0249999999999999                  10.125      32.399999999999999
   117   1                       0      8.0999999999999996      36.449999999999996
   118   1                       0                  10.125      38.474999999999994
   119   1      2.0249999999999999      8.0999999999999996      38.474999999999994
   120   1      2.0249999999999999                  10.125      36.449999999999996
   121   1                       0      12.149999999999999                       0
   122   1                       0      14.174999999999999      2.0249999999999999
   123   1      2.0249999999999999      12.149999999999999      2.0249999999999999
   124   1      2.0249999999999999      14.174999999999999                       0
   125   1                       0      12.149999999999999      4.0499999999999998
   126   1                       0      14.174999999999999      6.0749999999999993
   127   1      2.0249999999999999      12.149999999999999      6.0749999999999993
   128   1      2.0249999999999999      14.174999999999999      4.0499999999999998
   129   1                       0      12.149999999999999      8.0999999999999996
   130   1                       0      14.174999999999999                  10.125
   131   1      2.0249999999999999      12.149999999999999                  10.125
   132   1      2.0249999999999999      14.174999999999999      8.0999999999999996
   133   1                       0      12.149999999999999      12.149999999999999
   134   1                       0      14.174999999999999      14.174999999999999
   135   1      2.0249999999999999      12.149999999999999      14.174999999999999
   136   1      2.0249999999999999      14.174999999999999      12.149999999999999
   137   1                       0      12.149999999999999      16.199999999999999
   138   1                       0      14.174999999999999      18.224999999999998
   139   1      2.0249999999999999      12.149999999999999      18.224999999999998
   140   1      2.0249999999999999      14.174999999999999      16.199999999999999
   141   1                       0      12.149999999999999                   20.25
   142   1                       0      14.174999999999999      22.274999999999999
   143   1      2.0249999999999999      12.149999999999999      22.274999999999999
   144   1      2.0249999999999999      14.174999999999999                   20.25
   145   1                       0      12.149999999999999      24.299999999999997
   146   1                       0      14.174999999999999      26.324999999999996
   147   1      2.0249999999999999      12.149999999999999      26.324999999999996
   148   1      2.0249999999999999      14.174999999999999      24.299999999999997
   149   1                       0      12.149999999999999      28.349999999999998
   150   1                       0      14.174999999999999      30.374999999999996
   151   1      2.0249999999999999      12.149999999999999      30.374999999999996
   152   1      2.0249999999999999      14.174999999999999      28.349999999999998
   153   1                       0      12.149999999999999      32.399999999999999
   154   1                       0      14.174999999999999      34.424999999999997
   155   1      2.0249999999999999      12.149999999999999      34.424999999999997
   156   1      2.0249999999999999      14.174999999999999      32.399999999999999
   157   1                       0      12.149999999999999      36.449999999999996
   158   1                       0      14.174999999999999      38.474999999999994
   159   1      2.0249999999999999      12.149999999999999      38.474999999999994
   160   1      2.0249999999999999      14.174999999999999      36.449999999999996
   161   1                       0      16.199999999999999                       0
   162   1                       0      18.224999999999998      2.0249999999999999
   163   1      2.0249999999999999      16.199999999999999      2.0249999999999999
   164   1      2.0249999999999999      18.224999999999998                       0
   165   1                       0      16.199999999999999      4.0499999999999998
   166   1                       0      18.224999999999998      6.0749999999999993
   167   1      2.0249999999999999      16.199999999999999      6.0749999999999993
   168   1      2.0249999999999999      18.224999999999998      4.0499999999999998
   169   1                       0      16.199999999999999      8.0999999999999996
   170   1                       0      18.224999999999998                  10.125
   171   1      2.0249999999999999      16.199999999999999                  10.125
   172   1      2.0249999999999999      18.224999999999998      8.0999999999999996
   173   1                       0      16.199999999999999      12.149999999999999
   174   1                       0      18.224999999999998      14.174999999999999
   175   1      2.0249999999999999      16.199999999999999      14.174999999999999
   176   1      2.0249999999999999      18.224999999999998      12.149999999999999
   177   1                       0      16.199999999999999      16.199999999999999
   178   1                       0      18.224999999999998      18.224999999999998
   179   1      2.0249999999999999      16.199999999999999      18.224999999999998
   180   1      2.0249999999999999      18.224999999999998      16.199999999999999
   181   1                       0      16.199999999999999                   20.25
   182   1                       0      18.224999999999998      22.274999999999999
   183   1      2.0249999999999999      16.199999999999999      22.274999999999999
   184   1      2.0249999999999999      18.224999999999998                   20.25
   185   1                       0      16.199999999999999      24.299999999999997
   186   1                       0      18.224999999999998      26.324999999999996
   187   1      2.0249999999999999      16.199999999999999      26.324999999999996
   188   1      2.0249999999999999      18.224999999999998      24.299999999999997
   189   1                       0      16.199999999999999      28.349999999999998
   190   1                       0      18.224999999999998      30.374999999999996
   191   1      2.0249999999999999      16.199999999999999      30.374999999999996
   192   1      2.0249999999999999      18.224999999999998      28.349999999999998
   193   1                       0      16.199999999999999      32.399999999999999
   194   1                       0      18.224999999999998      34.424999999999997
   195   1      2.0249999999999999      16.199999999999999      34.424999999999997
   196   1      2.0249999999999999      18.224999999999998      32.399999999999999
   197   1                       0      16.199999999999999      36.449999999999996
   198   1                       0      18.224999999999998      38.474999999999994
   199   1      2.0249999999999999      16.199999999999999      38.474999999999994
   200   1      2.0249999999999999      18.224999999999998      36.449999999999996
   201   1                       0                   20.25                       0
   202   1                       0      22.274999999999999      2.0249999999999999
   203   1      2.0249999999999999                   20.25      2.0249999999999999
   204   1      2.0249999999999999      22.274999999999999                       0
   205   1                       0                   20.25      4.0499999999999998
   206   1                       0      22.274999999999999      6.0749999999999993
   207   1      2.0249999999999999                   20.25      6.0749999999999993
   208   1      2.0249999999999999      22.274999999999999      4.0499999999999998
   209   1                       0                   20.25      8.0999999999999996
   210   1                       0      22.274999999999999                  10.125
   211   1      2.0249999999999999                   20.25                  10.125
   212   1      2.0249999999999999      22.274999999999999      8.0999999999999996
   213   1                       0                   20.25      12.149999999999999
   214   1                       0      22.274999999999999      14.174999999999999
   215   1      2.0249999999999999                   20.25      14.174999999999999
   216   1      2.0249999999999999      22.274999999999999      12.149999999999999
   217   1                       0                   20.25      16.199999999999999
   218   1                       0      22.274999999999999      18.224999999999998
   219   1      2.0249999999999999                   20.25      18.224999999999998
   220   1      2.0249999999999999      22.274999999999999      16.199999999999999
   221   1                       0                   20.25                   20.25
   222   1                       0      22.274999999999999      22.274999999999999
   223   1      2.0249999999999999                   20.25      22.274999999999999
   224   1      2.0249999999999999      22.274999999999999                   20.25
   225   1                       0                   20.25      24.299999999999997
   226   1                       0      22.274999999999999      26.324999999999996
   227   1      2.0249999999999999                   20.25      26.324999999999996
   228   1      2.0249999999999999      22.274999999999999      24.299999999999997
   229   1                       0                   20.25      28.349999999999998
   230   1                       0      22.274999999999999      30.374999999999996
   231   1      2.0249999999999999                   20.25      30.374999999999996
   232   1      2.0249999999999999      22.274999999999999      28.349999999999998
   233   1                       0                   20.25      32.399999999999999
   234   1                       0      22.274999999999999      34.424999999999997
   235   1      2.0249999999999999                   20.25      34.424999999999997
   236   1      2.0249999999999999      22.274999999999999      32.399999999999999
   237   1                       0                   20.25      36.449999999999996
   238   1                       0      22.274999999999999      38.474999999999994
   239   1      2.0249999999999999                   20.25      38.474999999999994
   240   1      2.0249999999999999      22.274999999999999      36.449999999999996
   241   1                       0      24.299999999999997                       0
   242   1                       0      26.324999999999996      2.0249999999999999
   243   1      2.0249999999999999      24.299999999999997      2.0249999999999999
   244   1      2.0249999999999999      26.324999999999996                       0
   245   1                       0      24.299999999999997      4.0499999999999998
   246   1                       0      26.324999999999996      6.0749999999999993
   247   1      2.0249999999999999      24.299999999999997      6.0749999999999993
   248   1      2.0249999999999999      26.324999999999996      4.0499999999999998
   249   1                       0      24.299999999999997      8.0999999999999996
   250   1                       0      26.324999999999996                  10.125
   251   1      2.0249999999999999      24.299999999999997                  10.125
   252   1      2.0249999999999999      26.324999999999996      8.0999999999999996
   253   1                       0      24.299999999999997      12.149999999999999
   254   1                       0      26.324999999999996      14.174999999999999
   255   1      2.0249999999999999      24.299999999999997      14.174999999999999
   256   1      2.0249999999999999      26.324999999999996      12.149999999999999
   257   1                       0      24.299999999999997      16.199999999999999
   258   1                       0      26.324999999999996      18.224999999999998
   259   1      2.0249999999999999      24.299999999999997      18.224999999999998
   260   1      2.0249999999999999      26.324999999999996      16.199999999999999
   261   1                       0      24.299999999999997                   20.25
   262   1                       0      26.324999999999996      22.274999999999999
   263   1      2.0249999999999999      24.299999999999997      22.274999999999999
   264   1      2.0249999999999999      26.324999999999996                   20.25
   265   1                       0      24.299999999999997      24.299999999999997
   266   1                       0      26.324999999999996      26.324999999999996
   267   1      2.0249999999999999      24.299999999999997      26.324999999999996
   268   1      2.0249999999999999      26.324999999999996      24.299999999999997
   269   1                       0      24.299999999999997      28.349999999999998
   270   1                       0      26.324999999999996      30.374999999999996
   271   1      2.0249999999999999      24.299999999999997      30.374999999999996
   272   1      2.0249999999999999      26.324999999999996      28.349999999999998
   273   1                       0      24.299999999999997      32.399999999999999
   274   1                       0      26.324999999999996      34.424999999999997
   275   1      2.0249999999999999      24.299999999999997      34.424999999999997
   276   1      2.0249999999999999      26.324999999999996      32.399999999999999
   277   1                       0      24.299999999999997      36.449999999999996
   278   1                       0      26.324999999999996      38.474999999999994
   279   1      2.0249999999999999      24.299999999999997      38.474999999999994
   280   1      2.0249999999999999      26.324999999999996      36.449999999999996
   281   1                       0      28.349999999999998                       0
   282   1                       0      30.374999999999996      2.0249999999999999
   283   1      2.0249999999999999      28.349999999999998      2.0249999999999999
   284   1      2.0249999999999999      30.374999999999996                       0
   285   1                       0      28.349999999999998      4.0499999999999998
   286   1                       0      30.374999999999996      6.0749999999999993
   287   1      2.0249999999999999      28.349999999999998      6.0749999999999993
   288   1      2.0249999999999999      30.374999999999996      4.0499999999999998
   289   1                       0      28.349999999999998      8.0999999999999996
   290   1                       0      30.374999999999996                  10.125
   291   1      2.0249999999999999      28.349999999999998                  10.125
   292   1      2.0249999999999999      30.374999999999996      8.0999999999999996
   293   1                       0      28.349999999999998      12.149999999999999
   294   1                       0      30.374999999999996      14.174999999999999
   295   1      2.0249999999999999      28.349999999999998      14.174999999999999
   296   1      2.0249999999999999      30.374999999999996      12.149999999999999
   297   1                       0      28.349999999999998      16.199999999999999
   298   1                       0      30.374999999999996      18.224999999999998
   299   1      2.0249999999999999      28.349999999999998      18.224999999999998
   300   1      2.0249999999999999      30.374999999999996      16.199999999999999
   301   1                       0      28.349999999999998                   20.25
   302   1                       0      30.374999999999996      22.274999999999999
   303   1      2.0249999999999999      28.349999999999998      22.274999999999999
   304   1      2.0249999999999999      30.374999999999996                   20.25
   305   1                       0      28.349999999999998      24.299999999999997
   306   1                       0      30.374999999999996      26.324999999999996
   307   1      2.0249999999999999      28.349999999999998      26.324999999999996
   308   1      2.0249999999999999      30.374999999999996      24.299999999999997
   309   1                       0      28.349999999999998      28.349999999999998
   310   1                       0      30.374999999999996      30.374999999999996
   311   1      2.0249999999999999      28.349999999999998      30.374999999999996
   312   1      2.0249999999999999      30.374999999999996      28.349999999999998
   313   1                       0      28.349999999999998      32.399999999999999
   314   1                       0      30.374999999999996      34.424999999999997
   315   1      2.0249999999999999      28.349999999999998      34.424999999999997
   316   1      2.0249999999999999      30.374999999999996      32.399999999999999
   317   1                       0      28.349999999999998      36.449999999999996
   318   1                       0      30.374999999999996      38.474999999999994
   319   1      2.0249999999999999      28.349999999999998      38.474999999999994
   320   1      2.0249999999999999      30.374999999999996      36.449999999999996
   321   1                       0      32.399999999999999                       0
   322   1                       0      34.424999999999997      2.0249999999999999
   323   1      2.0249999999999999      32.399999999999999      2.0249999999999999
   324   1      2.0249999999999999      34.424999999999997                       0
   325   1                       0      32.399999999999999      4.0499999999999998
   326   1                       0      34.424999999999997      6.0749999999999993
   327   1      2.0249999999999999      32.399999999999999      6.0749999999999993
   328   1      2.0249999999999999      34.424999999999997      4.0499999999999998
   329   1                       0      32.399999999999999      8.0999999999999996
   330   1                       0      34.424999999999997                  10.125
   331   1      2.0249999999999999      32.399999999999999                  10.125
   332   1      2.0249999999999999      34.424999999999997      8.0999999999999996
   333   1                       0      32.399999999999999      12.149999999999999
   334   1                       0      34.424999999999997      14.174999999999999
   335   1      2.0249999999999999      32.399999999999999      14.174999999999999
   336   1      2.0249999999999999      34.424999999999997      12.149999999999999
   337   1                       0      32.399999999999999      16.199999999999999
   338   1                       0      34.424999999999997      18.224999999999998
   339   1      2.0249999999999999      32.399999999999999      18.224999999999998
   340   1      2.0249999999999999      34.424999999999997      16.199999999999999
   341   1                       0      32.399999999999999                   20.25
   342   1                       0      34.424999999999997      22.274999999999999
   343   1      2.0249999999999999      32.399999999999999      22.274999999999999
   344   1      2.0249999999999999      34.424999999999997                   20.25
   345   1                       0      32.399999999999999      24.299999999999997
   346   1                       0      34.424999999999997      26.324999999999996
   347   1      2.0249999999999999      32.399999999999999      26.324999999999996
   348   1      2.0249999999999999      34.424999999999997      24.299999999999997
   349   1                       0      32.399999999999999      28.349999999999998
   350   1                       0      34.424999999999997      30.374999999999996
   351   1      2.0249999999999999      32.399999999999999      30.374999999999996
   352   1      2.0249999999999999      34.424999999999997      28.349999999999998
   353   1                       0      32.399999999999999      32.399999999999999
   354   1                       0      34.424999999999997      34.424999999999997
   355   1      2.0249999999999999      32.399999999999999      34.424999999999997
   356   1      2.0249999999999999      34.424999999999997      32.399999999999999
   357   1                       0      32.399999999999999      36.449999999999996
   358   1                       0      34.424999999999997      38.474999999999994
   359   1      2.0249999999999999      32.399999999999999      38.474999999999994
   360   1      2.0249999999999999      34.424999999999997      36.449999999999996
   361   1                       0      36.449999999999996                       0
   362   1                       0      38.474999999999994      2.0249999999999999
   363   1      2.0249999999999999      36.449999999999996      2.0249999999999999
   364   1      2.0249999999999999      38.474999999999994                       0
   365   1                       0      36.449999999999996      4.0499999999999998
   366   1                       0      38.474999999999994      6.0749999999999993
   367   1      2.0249999999999999      36.449999999999996      6.0749999999999993
   368   1      2.0249999999999999      38.474999999999994      4.0499999999999998
   369   1                       0      36.449999999999996      8.0999999999999996
   370   1                       0      38.474999999999994                  10.125
   371   1      2.0249999999999999      36.449999999999996                  10.125
   372   1      2.0249999999999999      38.474999999999994      8.0999999999999996
   373   1                       0      36.449999999999996      12.149999999999999
   374   1                       0      38.474999999999994      14.174999999999999
   375   1      2.0249999999999999      36.449999999999996      14.174999999999999
   376   1      2.0249999999999999      38.474999999999994      12.149999999999999
   377   1                       0      36.449999999999996      16.199999999999999
   378   1                       0      38.474999999999994      18.224999999999998
   379   1      2.0249999999999999      36.449999999999996      18.224999999999998
   380   1      2.0249999999999999      38.474999999999994      16.199999999999999
   381   1                       0      36.449999999999996                   20.25
   382   1                       0      38.474999999999994      22.274999999999999
   383   1      2.0249999999999999      36.449999999999996      22.274999999999999
   384   1      2.0249999999999999      38.474999999999994                   20.25
   385   1                       0      36.449999999999996      24.299999999999997
   386   1                       0      38.474999999999994      26.324999999999996
   387   1      2.0249999999999999      36.449999999999996      26.324999999999996
   388   1      2.0249999999999999      38.474999999999994      24.299999999999997
   389   1                       0      36.449999999999996      28.349999999999998
   390   1                       0      38.474999999999994      30.374999999999996
   391   1      2.0249999999999999      36.449999999999996      30.374999999999996
   392   1      2.0249999999999999      38.474999999999994      28.349999999999998
   393   1                       0      36.449999999999996      32.399999999999999
   394   1                       0      38.474999999999994      34.424999999999997
   395   1      2.0249999999999999      36.449999999999996      34.424999999999997
   396   1      2.0249999999999999      38.474999999999994      32.399999999999999
   397   1                       0      36.449999999999996      36.449999999999996
   398   1                       0      38.474999999999994      38.474999999999994
   399   1      2.0249999999999999      36.449999999999996      38.474999999999994
   400   1      2.0249999999999999      38.474999999999994      36.449999999999996
   401   1      4.0499999999999998                       0                       0
   402   1      4.0499999999999998      2.0249999999999999      2.0249999999999999
   403   1      6.0749999999999993                       0      2.0249999999999999
   404   1      6.0749999999999993      2.0249999999999999                       0
   405   1      4.0499999999999998                       0      4.0499999999999998
   406   1      4.0499999999999998      2.0249999999999999      6.0749999999999993
   407   1      6.0749999999999993                       0      6.0749999999999993
   408   1      6.0749999999999993      2.0249999999999999      4.0499999999999998
   409   1      4.0499999999999998                       0      8.0999999999999996
   410   1      4.0499999999999998      2.0249999999999999                  10.125
   411   1      6.0749999999999993                       0                  10.125
   412   1      6.0749999999999993      2.0249999999999999      8.0999999999999996
   413   1      4.0499999999999998                       0      12.149999999999999
   414   1      4.0499999999999998      2.0249999999999999      14.174999999999999
   415   1      6.0749999999999993                       0      14.174999999999999
   416   1      6.0749999999999993      2.0249999999999999      12.149999999999999
   417   1      4.0499999999999998                       0      16.199999999999999
   418   1      4.0499999999999998      2.0249999999999999      18.224999999999998
   419   1      6.0749999999999993                       0      18.224999999999998
   420   1      6.0749999999999993      2.0249999999999999      16.199999999999999
   421   1      4.0499999999999998                       0                   20.25
   422   1      4.0499999999999998      2.0249999999999999      22.274999999999999
   423   1      6.0749999999999993                       0      22.274999999999999
   424   1      6.0749999999999993      2.0249999999999999                   20.25
   425   1      4.0499999999999998                       0      24.299999999999997
   426   1      4.0499999999999998      2.0249999999999999      26.324999999999996
   427   1      6.0749999999999993                       0      26.324999999999996
   428   1      6.0749999999999993      2.0249999999999999      24.299999999999997
   429   1      4.0499999999999998                       0      28.349999999999998
   430   1      4.0499999999999998      2.0249999999999999      30.374999999999996
   431   1      6.0749999999999993                       0      30.374999999999996
   432   1      6.0749999999999993      2.0249999999999999      28.349999999999998
   433   1      4.0499999999999998                       0      32.399999999999999
   434   1      4.0499999999999998      2.0249999999999999      34.424999999999997
   435   1      6.0749999999999993                       0      34.424999999999997
   436   1      6.0749999999999993      2.0249999999999999      32.399999999999999
   437   1      4.0499999999999998                       0      36.449999999999996
   438   1      4.0499999999999998      2.0249999999999999      38.474999999999994
   439   1      6.0749999999999993                       0      38.474999999999994
   440   1      6.0749999999999993      2.0249999999999999      36.449999999999996
   441   1      4.0499999999999998      4.0499999999999998                       0
   442   1      4.0499999999999998      6.0749999999999993      2.0249999999999999
   443   1      6.0749999999999993      4.0499999999999998      2.0249999999999999
   444   1      6.0749999999999993      6.0749999999999993                       0
   445   1      4.0499999999999998      4.0499999999999998      4.0499999999999998
   446   1      4.0499999999999998      6.0749999999999993      6.0749999999999993
   447   1      6.0749999999999993      4.0499999999999998      6.0749999999999993
   448   1      6.0749999999999993      6.0749999999999993      4.0499999999999998
   449   1      4.0499999999999998      4.0499999999999998      8.0999999999999996
   450   1      4.0499999999999998      6.0749999999999993                  10.125
   451   1      6.0749999999999993      4.0499999999999998                  10.125
   452   1      6.0749999999999993      6.0749999999999993      8.0999999999999996
   453   1      4.0499999999999998      4.0499999999999998      12.149999999999999
   454   1      4.0499999999999998      6.0749999999999993      14.174999999999999
   455   1      6.0749999999999993      4.0499999999999998      14.174999999999999
   456   1      6.0749999999999993      6.0749999999999993      12.149999999999999
   457   1      4.0499999999999998      4.0499999999999998      16.199999999999999
   458   1      4.0499999999999998      6.0749999999999993      18.224999999999998
   459   1      6.0749999999999993      4.0499999999999998      18.224999999999998
   460   1      6.0749999999999993      6.0749999999999993      16.199999999999999
   461   1      4.0499999999999998      4.0499999999999998                   20.25
   462   1      4.0499999999999998      6.0749999999999993      22.274999999999999
   463   1      6.0749999999999993      4.0499999999999998      22.274999999999999
   464   1      6.0749999999999993      6.0749999999999993                   20.25
   465   1      4.0499999999999998      4.0499999999999998      24.299999999999997
   466   1      4.0499999999999998      6.0749999999999993      26.324999999999996
   467   1      6.0749999999999993      4.0499999999999998      26.324999999999996
   468   1      6.0749999999999993      6.0749999999999993      24.299999999999997
   469   1      4.0499999999999998      4.0499999999999998      28.349999999999998
   470   1      4.0499999999999998      6.0749999999999993      30.374999999999996
   471   1      6.0749999999999993      4.0499999999999998      30.374999999999996
   472   1      6.0749999999999993      6.0749999999999993      28.349999999999998
   473   1      4.0499999999999998      4.0499999999999998      32.399999999999999
   474   1      4.0499999999999998      6.0749999999999993      34.424999999999997
   475   1      6.0749999999999993      4.0499999999999998      34.424999999999997
   476   1      6.0749999999999993      6.0749999999999993      32.399999999999999
   477   1      4.0499999999999998      4.0499999999999998      36.449999999999996
   478   1      4.0499999999999998      6.0749999999999993      38.474999999999994
   479   1      6.0749999999999993      4.0499999999999998      38.474999999999994
   480   1      6.0749999999999993      6.0749999999999993      36.449999999999996
   481   1      4.0499999999999998      8.0999999999999996                       0
   482   1      4.0499999999999998                  10.125      2.0249999999999999
   483   1      6.0749999999999993      8.0999999999999996      2.0249999999999999
   484   1      6.0749999999999993                  10.125                       0
   485   1      4.0499999999999998      8.0999999999999996      4.0499999999999998
   486   1      4.0499999999999998                  10.125      6.0749999999999993
   487   1      6.0749999999999993      8.0999999999999996      6.0749999999999993
   488   1      6.0749999999999993                  10.125      4.0499999999999998
   489   1      4.0499999999999998      8.0999999999999996      8.0999999999999996
   490   1      4.0499999999999998                  10.125                  10.125
   491   1      6.0749999999999993      8.0999999999999996                  10.125
   492   1      6.0749999999999993                  10.125      8.0999999999999996
   493   1      4.0499999999999998      8.0999999999999996      12.149999999999999
   494   1      4.0499999999999998                  10.125      14.174999999999999
   495   1      6.0749999999999993      8.0999999999999996      14.174999999999999
   496   1      6.0749999999999993                  10.125      12.149999999999999
   497   1      4.0499999999999998      8.0999999999999996      16.199999999999999
   498   1      4.0499999999999998                  10.125      18.224999999999998
   499   1      6.0749999999999993      8.0999999999999996      18.224999999999998
   500   1      6.0749999999999993                  10.125      16.199999999999999
   501   1      4.0499999999999998      8.0999999999999996                   20.25
   502   1      4.0499999999999998                  10.125      22.274999999999999
   503   1      6.0749999999999993      8.0999999999999996      22.274999999999999
   504   1      6.0749999999999993                  10.125                   20.25
   505   1      4.0499999999999998      8.0999999999999996      24.299999999999997
   506   1      4.0499999999999998                  10.125      26.324999999999996
   507   1      6.0749999999999993      8.0999999999999996      26.324999999999996
   508   1      6.0749999999999993                  10.125      24.299999999999997
   509   1      4.0499999999999998      8.0999999999999996      28.349999999999998
   510   1      4.0499999999999998                  10.125      30.374999999999996
   511   1      6.0749999999999993      8.0999999999999996      30.374999999999996
   512   1      6.0749999999999993                  10.125      28.349999999999998
   513   1      4.0499999999999998      8.0999999999999996      32.399999999999999
   514   1      4.0499999999999998                  10.125      34.424999999999997
   515   1      6.0749999999999993      8.0999999999999996      34.424999999999997
   516   1      6.0749999999999993                  10.125      32.399999999999999
   517   1      4.0499999999999998      8.0999999999999996      36.449999999999996
   518   1      4.0499999999999998                  10.125      38.474999999999994
   519   1      6.0749999999999993      8.0999999999999996      38.474999999999994
   520   1      6.0749999999999993                  10.125      36.449999999999996
   521   1      4.0499999999999998      12.149999999999999                       0
   522   1      4.0499999999999998      14.174999999999999      2.0249999999999999
   523   1      6.0749999999999993      12.149999999999999      2.0249999999999999
   524   1      6.0749999999999993      14.174999999999999                       0
   525   1      4.0499999999999998      12.149999999999999      4.0499999999999998
   526   1      4.0499999999999998      14.174999999999999      6.0749999999999993
   527   1      6.0749999999999993      12.149999999999999      6.0749999999999993
   528   1      6.0749999999999993      14.174999999999999      4.0499999999999998
   529   1      4.0499999999999998      12.149999999999999      8.0999999999999996
   530   1      4.0499999999999998      14.174999999999999                  10.125
   531   1      6.0749999999999993      12.149999999999999                  10.125
   532   1      6.0749999999999993      14.174999999999999      8.0999999999999996
   533   1      4.0499999999999998      12.149999999999999      12.149999999999999
   534   1      4.0499999999999998      14.174999999999999      14.174999999999999
   535   1      6.0749999999999993      12.149999999999999      14.174999999999999
   536   1      6.0749999999999993      14.174999999999999      12.149999999999999
   537   1      4.0499999999999998      12.149999999999999      16.199999999999999
   538   1      4.0499999999999998      14.174999999999999      18.224999999999998
   539   1      6.0749999999999993      12.149999999999999      18.224999999999998
   540   1      6.0749999999999993      14.174999999999999      16.199999999999999
   541   1      4.0499999999999998      12.149999999999999                   20.25
   542   1      4.0499999999999998      14.174999999999999      22.274999999999999
   543   1      6.0749999999999993      12.149999999999999      22.274999999999999
   544   1      6.0749999999999993      14.174999999999999                   20.25
   545   1      4.0499999999999998      12.149999999999999      24.299999999999997
   546   1      4.0499999999999998      14.174999999999999      26.324999999999996
   547   1      6.0749999999999993      12.149999999999999      26.324999999999996
   548   1      6.0749999999999993      14.174999999999999      24.299999999999997
   549   1      4.0499999999999998      12.149999999999999      28.349999999999998
   550   1      4.0499999999999998      14.174999999999999      30.374999999999996
   551   1      6.0749999999999993      12.149999999999999      30.374999999999996
   552   1      6.0749999999999993      14.174999999999999      28.349999999999998
   553   1      4.0499999999999998      12.149999999999999      32.399999999999999
   554   1      4.0499999999999998      14.174999999999999      34.424999999999997
   555   1      6.0749999999999993      12.149999999999999      34.424999999999997
   556   1      6.0749999999999993      14.174999999999999      32.399999999999999
   557   1      4.0499999999999998      12.149999999999999      36.449999999999996
   558   1      4.0499999999999998      14.174999999999999      38.474999999999994
   559   1      6.0749999999999993      12.149999999999999      38.474999999999994
   560   1      6.0749999999999993      14.174999999999999      36.449999999999996
   561   1      4.0499999999999998      16.199999999999999                       0
   562   1      4.0499999999999998      18.224999999999998      2.0249999999999999
   563   1      6.0749999999999993      16.199999999999999      2.0249999999999999
   564   1      6.0749999999999993      18.224999999999998                       0
   565   1      4.0499999999999998      16.199999999999999      4.0499999999999998
   566   1      4.0499999999999998      18.224999999999998      6.0749999999999993
   567   1      6.0749999999999993      16.199999999999999      6.0749999999999993
   568   1      6.0749999999999993      18.224999999999998      4.0499999999999998
   569   1      4.0499999999999998      16.199999999999999      8.0999999999999996
   570   1      4.0499999999999998      18.224999999999998                  10.125
   571   1      6.0749999999999993      16.199999999999999                  10.125
   572   1      6.0749999999999993      18.224999999999998      8.0999999999999996
   573   1      4.0499999999999998      16.199999999999999      12.149999999999999
   574   1      4.0499999999999998      18.224999999999998      14.174999999999999
   575   1      6.0749999999999993      16.199999999999999      14.174999999999999
   576   1      6.0749999999999993      18.224999999999998      12.149999999999999
   577   1      4.0499999999999998      16.199999999999999      16.199999999999999
   578   1      4.0499999999999998      18.224999999999998      18.224999999999998
   579   1      6.0749999999999993      16.199999999999999      18.224999999999998
   580   1      6.0749999999999993      18.224999999999998      16.199999999999999
   581   1      4.0499999999999998      16.199999999999999                   20.25
   582   1      4.0499999999999998      18.224999999999998      22.274999999999999
   583   1      6.0749999999999993      16.199999999999999      22.274999999999999
   584   1      6.0749999999999993      18.224999999999998                   20.25
   585   1      4.0499999999999998      16.199999999999999      24.299999999999997
   586   1      4.0499999999999998      18.224999999999998      26.324999999999996
   587   1      6.0749999999999993      16.199999999999999      26.324999999999996
   588   1      6.0749999999999993      18.224999999999998      24.299999999999997
   589   1      4.0499999999999998      16.199999999999999      28.349999999999998
   590   1      4.0499999999999998      18.224999999999998      30.374999999999996
   591   1      6.0749999999999993      16.199999999999999      30.374999999999996
   592   1      6.0749999999999993      18.224999999999998      28.349999999999998
   593   1      4.0499999999999998      16.199999999999999      32.399999999999999
   594   1      4.0499999999999998      18.224999999999998      34.424999999999997
   595   1      6.0749999999999993      16.199999999999999      34.424999999999997
   596   1      6.0749999999999993      18.224999999999998      32.399999999999999
   597   1      4.0499999999999998      16.199999999999999      36.449999999999996
   598   1      4.0499999999999998      18.224999999999998      38.474999999999994
   599   1      6.0749999999999993      16.199999999999999      38.474999999999994
   600   1      6.0749999999999993      18.224999999999998      36.449999999999996
   601   1      4.0499999999999998                   20.25                       0
   602   1      4.0499999999999998      22.274999999999999      2.0249999999999999
   603   1      6.0749999999999993                   20.25      2.0249999999999999
   604   1      6.0749999999999993      22.274999999999999                       0
   605   1      4.0499999999999998                   20.25      4.0499999999999998
   606   1      4.0499999999999998      22.274999999999999      6.0749999999999993
   607   1      6.0749999999999993                   20.25      6.0749999999999993
   608   1      6.0749999999999993      22.274999999999999      4.0499999999999998
   609   1      4.0499999999999998                   20.25      8.0999999999999996
   610   1      4.0499999999999998      22.274999999999999                  10.125
   611   1      6.0749999999999993                   20.25                  10.125
   612   1      6.0749999999999993      22.274999999999999      8.0999999999999996
   613   1      4.0499999999999998                   20.25      12.149999999999999
   614   1      4.0499999999999998      22.274999999999999      14.174999999999999
   615   1      6.0749999999999993                   20.25      14.174999999999999
   616   1      6.0749999999999993      22.274999999999999      12.149999999999999
   617   1      4.0499999999999998                   20.25      16.199999999999999
   618   1      4.0499999999999998      22.274999999999999      18.224999999999998
   619   1      6.0749999999999993                   20.25      18.224999999999998
   620   1      6.0749999999999993      22.274999999999999      16.199999999999999
   621   1      4.0499999999999998                   20.25                   20.25
   622   1      4.0499999999999998      22.274999999999999      22.274999999999999
   623   1      6.0749999999999993                   20.25      22.274999999999999
   624   1      6.0749999999999993      22.274999999999999                   20.25
   625   1      4.0499999999999998                   20.25      24.299999999999997
   626   1      4.0499999999999998      22.274999999999999      26.324999999999996
   627   1      6.0749999999999993                   20.25      26.324999999999996
   628   1      6.0749999999999993      22.274999999999999      24.299999999999997
   629   1      4.0499999999999998                   20.25      28.349999999999998
   630   1      4.0499999999999998      22.274999999999999      30.374999999999996
   631   1      6.0749999999999993                   20.25      30.374999999999996
   632   1      6.0749999999999993      22.274999999999999      28.349999999999998
   633   1      4.0499999999999998                   20.25      32.399999999999999
   634   1      4.0499999999999998      22.274999999999999      34.424999999999997
   635   1      6.0749999999999993                   20.25      34.424999999999997
   636   1      6.0749999999999993      22.274999999999999      32.399999999999999
   637   1      4.0499999999999998                   20.25      36.449999999999996
   638   1      4.0499999999999998      22.274999999999999      38.474999999999994
   639   1      6.0749999999999993                   20.25      38.474999999999994
   640   1      6.0749999999999993      22.274999999999999      36.449999999999996
   641   1      4.0499999999999998      24.299999999999997                       0
   642   1      4.0499999999999998      26.324999999999996      2.0249999999999999
   643   1      6.0749999999999993      24.299999999999997      2.0249999999999999
   644   1      6.0749999999999993      26.324999999999996                       0
   645   1      4.0499999999999998      24.299999999999997      4.0499999999999998
   646   1      4.0499999999999998      26.324999999999996      6.0749999999999993
   647   1      6.0749999999999993      24.299999999999997      6.0749999999999993
   648   1      6.0749999999999993      26.324999999999996      4.0499999999999998
   649   1      4.0499999999999998      24.299999999999997      8.0999999999999996
   650   1      4.0499999999999998      26.324999999999996                  10.125
   651   1      6.0749999999999993      24.299999999999997                  10.125
   652   1      6.0749999999999993      26.324999999999996      8.0999999999999996
   653   1      4.0499999999999998      24.299999999999997      12.149999999999999
   654   1      4.0499999999999998      26.324999999999996      14.174999999999999
   655   1      6.0749999999999993      24.299999999999997      14.174999999999999
   656   1      6.0749999999999993      26.324999999999996      12.149999999999999
   657   1      4.0499999999999998      24.299999999999997      16.199999999999999
   658   1      4.0499999999999998      26.324999999999996      18.224999999999998
   659   1      6.0749999999999993      24.299999999999997      18.224999999999998
   660   1      6.0749999999999993      26.324999999999996      16.199999999999999
   661   1      4.0499999999999998      24.299999999999997                   20.25
   662   1      4.0499999999999998      26.324999999999996      22.274999999999999
   663   1      6.0749999999999993      24.299999999999997      22.274999999999999
   664   1      6.0749999999999993      26.324999999999996                   20.25
   665   1      4.0499999999999998      24.299999999999997      24.299999999999997
   666   1      4.0499999999999998      26.324999999999996      26.324999999999996
   667   1      6.0749999999999993      24.299999999999997      26.324999999999996
   668   1      6.0749999999999993      26.324999999999996      24.299999999999997
   669   1      4.0499999999999998      24.299999999999997      28.349999999999998
   670   1      4.0499999999999998      26.324999999999996      30.374999999999996
   671   1      6.0749999999999993      24.299999999999997      30.374999999999996
   672   1      6.0749999999999993      26.324999999999996      28.349999999999998
   673   1      4.0499999999999998      24.299999999999997      32.399999999999999
   674   1      4.0499999999999998      26.324999999999996      34.424999999999997
   675   1      6.0749999999999993      24.299999999999997      34.424999999999997
   676   1      6.0749999999999993      26.324999999999996      32.399999999999999
   677   1      4.0499999999999998      24.299999999999997      36.449999999999996
   678   1      4.0499999999999998      26.324999999999996      38.474999999999994
   679   1      6.0749999999999993      24.299999999999997      38.474999999999994
   680   1      6.0749999999999993      26.324999999999996      36.449999999999996
   681   1      4.0499999999999998      28.349999999999998                       0
   682   1      4.0499999999999998      30.374999999999996      2.0249999999999999
   683   1      6.0749999999999993      28.349999999999998      2.0249999999999999
   684   1      6.0749999999999993      30.374999999999996                       0
   685   1      4.0499999999999998      28.349999999999998      4.0499999999999998
   686   1      4.0499999999999998      30.374999999999996      6.0749999999999993
   687   1      6.0749999999999993      28.349999999999998      6.0749999999999993
   688   1      6.0749999999999993      30.374999999999996      4.0499999999999998
   689   1      4.0499999999999998      28.349999999999998      8.0999999999999996
   690   1      4.0499999999999998      30.374999999999996                  10.125
   691   1      6.0749999999999993      28.349999999999998                  10.125
   692   1      6.0749999999999993      30.374999999999996      8.0999999999999996
   693   1      4.0499999999999998      28.349999999999998      12.149999999999999
   694   1      4.0499999999999998      30.374999999999996      14.174999999999999
   695   1      6.0749999999999993      28.349999999999998      14.174999999999999
   696   1      6.0749999999999993      30.374999999999996      12.149999999999999
   697   1      4.0499999999999998      28.349999999999998      16.199999999999999
   698   1      4.0499999999999998      30.374999999999996      18.224999999999998
   699   1      6.0749999999999993      28.349999999999998      18.224999999999998
   700   1      6.0749999999999993      30.374999999999996      16.199999999999999
   701   1      4.0499999999999998      28.349999999999998                   20.25
   702   1      4.0499999999999998      30.374999999999996      22.274999999999999
   703   1      6.0749999999999993      28.349999999999998      22.274999999999999
   704   1      6.0749999999999993      30.374999999999996                   20.25
   705   1      4.0499999999999998      28.349999999999998      24.299999999999997
   706   1      4.0499999999999998      30.374999999999996      26.324999999999996
   707   1      6.0749999999999993      28.349999999999998      26.324999999999996
   708   1      6.0749999999999993      30.374999999999996      24.299999999999997
   709   1      4.0499999999999998      28.349999999999998      28.349999999999998
   710   1      4.0499999999999998      30.374999999999996      30.374999999999996
   711   1      6.0749999999999993      28.349999999999998      30.374999999999996
   712   1      6.0749999999999993      30.374999999999996      28.349999999999998
   713   1      4.0499999999999998      28.349999999999998      32.399999999999999
   714   1      4.0499999999999998      30.374999999999996      34.424999999999997
   715   1      6.0749999999999993      28.349999999999998      34.424999999999997
   716   1      6.0749999999999993      30.374999999999996      32.399999999999999
   717   1      4.0499999999999998      28.349999999999998      36.449999999999996
   718   1      4.0499999999999998      30.374999999999996      38.474999999999994
   719   1      6.0749999999999993      28.349999999999998      38.474999999999994
   720   1      6.0749999999999993      30.374999999999996      36.449999999999996
   721   1      4.0499999999999998      32.399999999999999                       0
   722   1      4.0499999999999998      34.424999999999997      2.0249999999999999
   723   1      6.0749999999999993      32.399999999999999      2.0249999999999999
   724   1      6.0749999999999993      34.424999999999997                       0
   725   1      4.0499999999999998      32.399999999999999      4.0499999999999998
   726   1      4.0499999999999998      34.424999999999997      6.0749999999999993
   727   1      6.0749999999999993      32.399999999999999      6.0749999999999993
   728   1      6.0749999999999993      34.424999999999997      4.0499999999999998
   729   1      4.0499999999999998      32.399999999999999      8.0999999999999996
   730   1      4.0499999999999998      34.424999999999997                  10.125
   731   1      6.0749999999999993      32.399999999999999                  10.125
   732   1      6.0749999999999993      34.424999999999997      8.0999999999999996
   733   1      4.0499999999999998      32.399999999999999      12.149999999999999
   734   1      4.0499999999999998      34.424999999999997      14.174999999999999
   735   1      6.0749999999999993      32.399999999999999      14.174999999999999
   736   1      6.0749999999999993      34.424999999999997      12.149999999999999
   737   1      4.0499999999999998      32.399999999999999      16.199999999999999
   738   1      4.0499999999999998      34.424999999999997      18.224999999999998
   739   1      6.0749999999999993      32.399999999999999      18.224999999999998
   740   1      6.0749999999999993      34.424999999999997      16.199999999999999
   741   1      4.0499999999999998      32.399999999999999                   20.25
   742   1      4.0499999999999998      34.424999999999997      22.274999999999999
   743   1      6.0749999999999993      32.399999999999999      22.274999999999999
   744   1      6.0749999999999993      34.424999999999997                   20.25
   745   1      4.0499999999999998      32.399999999999999      24.299999999999997
   746   1      4.0499999999999998      34.424999999999997      26.324999999999996
   747   1      6.0749999999999993      32.399999999999999      26.324999999999996
   748   1      6.0749999999999993      34.424999999999997      24.299999999999997
   749   1      4.0499999999999998      32.399999999999999      28.349999999999998
   750   1      4.0499999999999998      34.424999999999997      30.374999999999996
   751   1      6.0749999999999993      32.399999999999999      30.374999999999996
   752   1      6.0749999999999993      34.424999999999997      28.349999999999998
   753   1      4.0499999999999998      32.399999999999999      32.399999999999999
   754   1      4.0499999999999998      34.424999999999997      34.424999999999997
   755   1      6.0749999999999993      32.399999999999999      34.424999999999997
   756   1      6.0749999999999993      34.424999999999997      32.399999999999999
   757   1      4.0499999999999998      32.399999999999999      36.449999999999996
   758   1      4.0499999999999998      34.424999999999997      38.474999999999994
   759   1      6.0749999999999993      32.399999999999999      38.474999999999994
   760   1      6.0749999999999993      34.424999999999997      36.449999999999996
   761   1      4.0499999999999998      36.449999999999996                       0
   762   1      4.0499999999999998      38.474999999999994      2.0249999999999999
   763   1      6.0749999999999993      36.449999999999996      2.0249999999999999
   764   1      6.0749999999999993      38.474999999999994                       0
   765   1      4.0499999999999998      36.449999999999996      4.0499999999999998
   766   1      4.0499999999999998      38.474999999999994      6.0749999999999993
   767   1      6.0749999999999993      36.449999999999996      6.0749999999999993
   768   1      6.0749999999999993      38.474999999999994      4.0499999999999998
   769   1      4.0499999999999998      36.449999999999996      8.0999999999999996
   770   1      4.0499999999999998      38.474999999999994                  10.125
   771   1      6.0749999999999993      36.449999999999996                  10.125
   772   1      6.0749999999999993      38.474999999999994      8.0999999999999996
   773   1      4.0499999999999998      36.449999999999996      12.149999999999999
   774   1      4.0499999999999998      38.474999999999994      14.174999999999999
   775   1      6.0749999999999993      36.449999999999996      14.174999999999999
   776   1      6.0749999999999993      38.474999999999994      12.149999999999999
   777   1      4.0499999999999998      36.449999999999996      16.199999999999999
   778   1      4.0499999999999998      38.474999999999994      18.224999999999998
   779   1      6.0749999999999993      36.449999999999996      18.224999999999998
   780   1      6.0749999999999993      38.474999999999994      16.199999999999999
   781   1      4.0499999999999998      36.449999999999996                   20.25
   782   1      4.0499999999999998      38.474999999999994      22.274999999999999
   783   1      6.0749999999999993      36.449999999999996      22.274999999999999
   784   1      6.0749999999999993      38.474999999999994                   20.25
   785   1      4.0499999999999998      36.449999999999996      24.299999999999997
   786   1      4.0499999999999998      38.474999999999994      26.324999999999996
   787   1      6.0749999999999993      36.449999999999996      26.324999999999996
   788   1      6.0749999999999993      38.474999999999994      24.299999999999997
   789   1      4.0499999999999998      36.449999999999996      28.349999999999998
   790   1      4.0499999999999998      38.474999999999994      30.374999999999996
   791   1      6.0749999999999993      36.449999999999996      30.374999999999996
   792   1      6.0749999999999993      38.474999999999994      28.349999999999998
   793   1      4.0499999999999998      36.449999999999996      32.399999999999999
   794   1      4.0499999999999998      38.474999999999994      34.424999999999997
   795   1      6.0749999999999993      36.449999999999996      34.424999999999997
   796   1      6.0749999999999993      38.474999999999994      32.399999999999999
   797   1      4.0499999999999998      36.449999999999996      36.449999999999996
   798   1      4.0499999999999998      38.474999999999994      38.474999999999994
   799   1      6.0749999999999993      36.449999999999996      38.474999999999994
   800   1      6.0749999999999993      38.474999999999994      36.449999999999996
   801   1      8.0999999999999996                       0                       0
   802   1      8.0999999999999996      2.0249999999999999      2.0249999999999999
   803   1                  10.125                       0      2.0249999999999999
   804   1                  10.125      2.0249999999999999                       0
   805   1      8.0999999999999996                       0      4.0499999999999998
   806   1      8.0999999999999996      2.0249999999999999      6.0749999999999993
   807   1                  10.125                       0      6.0749999999999993
   808   1                  10.125      2.0249999999999999      4.0499999999999998
   809   1      8.0999999999999996                       0      8.0999999999999996
   810   1      8.0999999999999996      2.0249999999999999                  10.125
   811   1                  10.125                       0                  10.125
   812   1                  10.125      2.0249999999999999      8.0999999999999996
   813   1      8.0999999999999996                       0      12.149999999999999
   814   1      8.0999999999999996      2.0249999999999999      14.174999999999999
   815   1                  10.125                       0      14.174999999999999
   816   1                  10.125      2.0249999999999999      12.149999999999999
   817   1      8.0999999999999996                       0      16.199999999999999
   818   1      8.0999999999999996      2.0249999999999999      18.224999999999998
   819   1                  10.125                       0      18.224999999999998
   820   1                  10.125      2.0249999999999999      16.199999999999999
   821   1      8.0999999999999996                       0                   20.25
   822   1      8.0999999999999996      2.0249999999999999      22.274999999999999
   823   1                  10.125                       0      22.274999999999999
   824   1                  10.125      2.0249999999999999                   20.25
   825   1      8.0999999999999996                       0      24.299999999999997
   826   1      8.0999999999999996      2.0249999999999999      26.324999999999996
   827   1                  10.125                       0      26.324999999999996
   828   1                  10.125      2.0249999999999999      24.299999999999997
   829   1      8.0999999999999996                       0      28.349999999999998
   830   1      8.0999999999999996      2.0249999999999999      30.374999999999996
   831   1                  10.125                       0      30.374999999999996
   832   1                  10.125      2.0249999999999999      28.349999999999998
   833   1      8.0999999999999996                       0      32.399999999999999
   834   1      8.0999999999999996      2.0249999999999999      34.424999999999997
   835   1                  10.125                       0      34.424999999999997
   836   1                  10.125      2.0249999999999999      32.399999999999999
   837   1      8.0999999999999996                       0      36.449999999999996
   838   1      8.0999999999999996      2.0249999999999999      38.474999999999994
   839   1                  10.125                       0      38.474999999999994
   840   1                  10.125      2.0249999999999999      36.449999999999996
   841   1      8.0999999999999996      4.0499999999999998                       0
   842   1      8.0999999999999996      6.0749999999999993      2.0249999999999999
   843   1                  10.125      4.0499999999999998      2.0249999999999999
   844   1                  10.125      6.0749999999999993                       0
   845   1      8.0999999999999996      4.0499999999999998      4.0499999999999998
   846   1      8.0999999999999996      6.0749999999999993      6.0749999999999993
   847   1                  10.125      4.0499999999999998      6.0749999999999993
   848   1                  10.125      6.0749999999999993      4.0499999999999998
   849   1      8.0999999999999996      4.0499999999999998      8.0999999999999996
   850   1      8.0999999999999996      6.0749999999999993                  10.125
   851   1                  10.125      4.0499999999999998                  10.125
   852   1                  10.125      6.0749999999999993      8.0999999999999996
   853   1      8.0999999999999996      4.0499999999999998      12.149999999999999
   854   1      8.0999999999999996      6.0749999999999993      14.174999999999999
   855   1                  10.125      4.0499999999999998      14.174999999999999
   856   1                  10.125      6.0749999999999993      12.149999999999999
   857   1      8.0999999999999996      4.0499999999999998      16.199999999999999
   858   1      8.0999999999999996      6.0749999999999993      18.224999999999998
   859   1                  10.125      4.0499999999999998      18.224999999999998
   860   1                  10.125      6.0749999999999993      16.199999999999999
   861   1      8.0999999999999996      4.0499999999999998                   20.25
   862   1      8.0999999999999996      6.0749999999999993      22.274999999999999
   863   1                  10.125      4.0499999999999998      22.274999999999999
   864   1                  10.125      6.0749999999999993                   20.25
   865   1      8.0999999999999996      4.0499999999999998      24.299999999999997
   866   1      8.0999999999999996      6.0749999999999993      26.324999999999996
   867   1                  10.125      4.0499999999999998      26.324999999999996
   868   1                  10.125      6.0749999999999993      24.299999999999997
   869   1      8.0999999999999996      4.0499999999999998      28.349999999999998
   870   1      8.0999999999999996      6.0749999999999993      30.374999999999996
   871   1                  10.125      4.0499999999999998      30.374999999999996
   872   1                  10.125      6.0749999999999993      28.349999999999998
   873   1      8.0999999999999996      4.0499999999999998      32.399999999999999
   874   1      8.0999999999999996      6.0749999999999993      34.424999999999997
   875   1                  10.125      4.0499999999999998      34.424999999999997
   876   1                  10.125      6.0749999999999993      32.399999999999999
   877   1      8.0999999999999996      4.0499999999999998      36.449999999999996
   878   1      8.0999999999999996      6.0749999999999993      38.474999999999994
   879   1                  10.125      4.0499999999999998      38.474999999999994
   880   1                  10.125      6.0749999999999993      36.449999999999996
   881   1      8.0999999999999996      8.0999999999999996                       0
   882   1      8.0999999999999996                  10.125      2.0249999999999999
   883   1                  10.125      8.0999999999999996      2.0249999999999999
   884   1                  10.125                  10.125                       0
   885   1      8.0999999999999996      8.0999999999999996      4.0499999999999998
   886   1      8.0999999999999996                  10.125      6.0749999999999993
   887   1                  10.125      8.0999999999999996      6.0749999999999993
   888   1                  10.125                  10.125      4.0499999999999998
   889   1      8.0999999999999996      8.0999999999999996      8.0999999999999996
   890   1      8.0999999999999996                  10.125                  10.125
   891   1                  10.125      8.0999999999999996                  10.125
   892   1                  10.125                  10.125      8.0999999999999996
   893   1      8.0999999999999996      8.0999999999999996      12.149999999999999
   894   1      8.0999999999999996                  10.125      14.174999999999999
   895   1                  10.125      8.0999999999999996      14.174999999999999
   896   1                  10.125                  10.125      12.149999999999999
   897   1      8.0999999999999996      8.0999999999999996      16.199999999999999
   898   1      8.0999999999999996                  10.125      18.224999999999998
   899   1                  10.125      8.0999999999999996      18.224999999999998
   900   1                  10.125                  10.125      16.199999999999999
   901   1      8.0999999999999996      8.0999999999999996                   20.25
   902   1      8.0999999999999996                  10.125      22.274999999999999
   903   1                  10.125      8.0999999999999996      22.274999999999999
   904   1                  10.125                  10.125                   20.25
   905   1      8.0999999999999996      8.0999999999999996      24.299999999999997
   906   1      8.0999999999999996                  10.125      26.324999999999996
   907   1                  10.125      8.0999999999999996      26.324999999999996
   908   1                  10.125                  10.125      24.299999999999997
   909   1      8.0999999999999996      8.0999999999999996      28.349999999999998
   910   1      8.0999999999999996                  10.125      30.374999999999996
   911   1                  10.125      8.0999999999999996      30.374999999999996
   912   1                  10.125                  10.125      28.349999999999998
   913   1      8.0999999999999996      8.0999999999999996      32.399999999999999
   914   1      8.0999999999999996                  10.125      34.424999999999997
   915   1                  10.125      8.0999999999999996      34.424999999999997
   916   1                  10.125                  10.125      32.399999999999999
   917   1      8.0999999999999996      8.0999999999999996      36.449999999999996
   918   1      8.0999999999999996                  10.125      38.474999999999994
   919   1                  10.125      8.0999999999999996      38.474999999999994
   920   1                  10.125                  10.125      36.449999999999996
   921   1      8.0999999999999996      12.149999999999999                       0
   922   1      8.0999999999999996      14.174999999999999      2.0249999999999999
   923   1                  10.125      12.149999999999999      2.0249999999999999
   924   1                  10.125      14.174999999999999                       0
   925   1      8.0999999999999996      12.149999999999999      4.0499999999999998
   926   1      8.0999999999999996      14.174999999999999      6.0749999999999993
   927   1                  10.125      12.149999999999999      6.0749999999999993
   928   1                  10.125      14.174999999999999      4.0499999999999998
   929   1      8.0999999999999996      12.149999999999999      8.0999999999999996
   930   1      8.0999999999999996      14.174999999999999                  10.125
   931   1                  10.125      12.149999999999999                  10.125
   932   1                  10.125      14.174999999999999      8.0999999999999996
   933   1      8.0999999999999996      12.149999999999999      12.149999999999999
   934   1      8.0999999999999996      14.174999999999999      14.174999999999999
   935   1                  10.125      12.149999999999999      14.174999999999999
   936   1                  10.125      14.174999999999999      12.149999999999999
   937   1      8.0999999999999996      12.149999999999999      16.199999999999999
   938   1      8.0999999999999996      14.174999999999999      18.224999999999998
   939   1                  10.125      12.149999999999999      18.224999999999998
   940   1                  10.125      14.174999999999999      16.199999999999999
   941   1      8.0999999999999996      12.149999999999999                   20.25
   942   1      8.0999999999999996      14.174999999999999      22.274999999999999
   943   1                  10.125      12.149999999999999      22.274999999999999
   944   1                  10.125      14.174999999999999                   20.25
   945   1      8.0999999999999996      12.149999999999999      24.299999999999997
   946   1      8.0999999999999996      14.174999999999999      26.324999999999996
   947   1                  10.125      12.149999999999999      26.324999999999996
   948   1                  10.125      14.174999999999999      24.299999999999997
   949   1      8.0999999999999996      12.149999999999999      28.349999999999998
   950   1      8.0999999999999996      14.174999999999999      30.374999999999996
   951   1                  10.125      12.149999999999999      30.374999999999996
   952   1                  10.125      14.174999999999999      28.349999999999998
   953   1      8.0999999999999996      12.149999999999999      32.399999999999999
   954   1      8.0999999999999996      14.174999999999999      34.424999999999997
   955   1                  10.125      12.149999999999999      34.424999999999997
   956   1                  10.125      14.174999999999999      32.399999999999999
   957   1      8.0999999999999996      12.149999999999999      36.449999999999996
   958   1      8.0999999999999996      14.174999999999999      38.474999999999994
   959   1                  10.125      12.149999999999999      38.474999999999994
   960   1                  10.125      14.174999999999999      36.449999999999996
   961   1      8.0999999999999996      16.199999999999999                       0
   962   1      8.0999999999999996      18.224999999999998      2.0249999999999999
   963   1                  10.125      16.199999999999999      2.0249999999999999
   964   1                  10.125      18.224999999999998                       0
   965   1      8.0999999999999996      16.199999999999999      4.0499999999999998
   966   1      8.0999999999999996      18.224999999999998      6.0749999999999993
   967   1                  10.125      16.199999999999999      6.0749999999999993
   968   1                  10.125      18.224999999999998      4.0499999999999998
   969   1      8.0999999999999996      16.199999999999999      8.0999999999999996
   970   1      8.0999999999999996      18.224999999999998                  10.125
   971   1                  10.125      16.199999999999999                  10.125
   972   1                  10.125      18.224999999999998      8.0999999999999996
   973   1      8.0999999999999996      16.199999999999999      12.149999999999999
   974   1      8.0999999999999996      18.224999999999998      14.174999999999999
   975   1                  10.125      16.199999999999999      14.174999999999999
   976   1                  10.125      18.224999999999998      12.149999999999999
   977   1      8.0999999999999996      16.199999999999999      16.199999999999999
   978   1      8.0999999999999996      18.224999999999998      18.224999999999998
   979   1                  10.125      16.199999999999999      18.224999999999998
   980   1                  10.125      18.224999999999998      16.199999999999999
   981   1      8.0999999999999996      16.199999999999999                   20.25
   982   1      8.0999999999999996      18.224999999999998      22.274999999999999
   983   1                  10.125      16.199999999999999      22.274999999999999
   984   1                  10.125      18.224999999999998                   20.25
   985   1      8.0999999999999996      16.199999999999999      24.299999999999997
   986   1      8.0999999999999996      18.224999999999998      26.324999999999996
   987   1                  10.125      16.199999999999999      26.324999999999996
   988   1                  10.125      18.224999999999998      24.299999999999997
   989   1      8.0999999999999996      16.199999999999999      28.349999999999998
   990   1      8.0999999999999996      18.224999999999998      30.374999999999996
   991   1                  10.125      16.199999999999999      30.374999999999996
   992   1                  10.125      18.224999999999998      28.349999999999998
   993   1      8.0999999999999996      16.199999999999999      32.399999999999999
   994   1      8.0999999999999996      18.224999999999998      34.424999999999997
   995   1                  10.125      16.199999999999999      34.424999999999997
   996   1                  10.125      18.224999999999998      32.399999999999999
   997   1      8.0999999999999996      16.199999999999999      36.449999999999996
   998   1      8.0999999999999996      18.224999999999998      38.474999999999994
   999   1                  10.125      16.199999999999999      38.474999999999994
  1000   1                  10.125      18.224999999999998      36.449999999999996
  1001   1      8.0999999999999996                   20.25                       0
  1002   1      8.0999999999999996      22.274999999999999      2.0249999999999999
  1003   1                  10.125                   20.25      2.0249999999999999
  1004   1                  10.125      22.274999999999999                       0
  1005   1      8.0999999999999996                   20.25      4.0499999999999998
  1006   1      8.0999999999999996      22.274999999999999      6.0749999999999993
  1007   1                  10.125                   20.25      6.0749999999999993
  1008   1                  10.125      22.274999999999999      4.0499999999999998
  1009   1      8.0999999999999996                   20.25      8.0999999999999996
  1010   1      8.0999999999999996      22.274999999999999                  10.125
  1011   1                  10.125                   20.25                  10.125
  1012   1                  10.125      22.274999999999999      8.0999999999999996
  1013   1      8.0999999999999996                   20.25      12.149999999999999
  1014   1      8.0999999999999996      22.274999999999999      14.174999999999999
  1015   1                  10.125                   20.25      14.174999999999999
  1016   1                  10.125      22.274999999999999      12.149999999999999
  1017   1      8.0999999999999996                   20.25      16.199999999999999
  1018   1      8.0999999999999996      22.274999999999999      18.224999999999998
  1019   1                  10.125                   20.25      18.224999999999998
  1020   1                  10.125      22.274999999999999      16.199999999999999
  1021   1      8.0999999999999996                   20.25                   20.25
  1022   1      8.0999999999999996      22.274999999999999      22.274999999999999
  1023   1                  10.125                   20.25      22.274999999999999
  1024   1                  10.125      22.274999999999999                   20.25
  1025   1      8.0999999999999996                   20.25      24.299999999999997
  1026   1      8.0999999999999996      22.274999999999999      26.324999999999996
  1027   1                  10.125                   20.25      26.324999999999996
  1028   1                  10.125      22.274999999999999      24.299999999999997
  1029   1      8.0999999999999996                   20.25      28.349999999999998
  1030   1      8.0999999999999996      22.274999999999999      30.374999999999996
  1031   1                  10.125                   20.25      30.374999999999996
  1032   1                  10.125      22.274999999999999      28.349999999999998
  1033   1      8.0999999999999996                   20.25      32.399999999999999
  1034   1      8.0999999999999996      22.274999999999999      34.424999999999997
  1035   1                  10.125                   20.25      34.424999999999997
  1036   1                  10.125      22.274999999999999      32.399999999999999
  1037   1      8.0999999999999996                   20.25      36.449999999999996
  1038   1      8.0999999999999996      22.274999999999999      38.474999999999994
  1039   1                  10.125                   20.25      38.474999999999994
  1040   1                  10.125      22.274999999999999      36.449999999999996
  1041   1      8.0999999999999996      24.299999999999997                       0
  1042   1      8.0999999999999996      26.324999999999996      2.0249999999999999
  1043   1                  10.125      24.299999999999997      2.0249999999999999
  1044   1                  10.125      26.324999999999996                       0
  1045   1      8.0999999999999996      24.299999999999997      4.0499999999999998
  1046   1      8.0999999999999996      26.324999999999996      6.0749999999999993
  1047   1                  10.125      24.299999999999997      6.0749999999999993
  1048   1                  10.125      26.324999999999996      4.0499999999999998
  1049   1      8.0999999999999996      24.299999999999997      8.0999999999999996
  1050   1      8.0999999999999996      26.324999999999996                  10.125
  1051   1                  10.125      24.299999999999997                  10.125
  1052   1                  10.125      26.324999999999996      8.0999999999999996
  1053   1      8.0999999999999996      24.299999999999997      12.149999999999999
  1054   1      8.0999999999999996      26.324999999999996      14.174999999999999
  1055   1                  10.125      24.299999999999997      14.174999999999999
  1056   1                  10.125      26.324999999999996      12.149999999999999
  1057   1      8.0999999999999996      24.299999999999997      16.199999999999999
  1058   1      8.0999999999999996      26.324999999999996      18.224999999999998
  1059   1                  10.125      24.299999999999997      18.224999999999998
  1060   1                  10.125      26.324999999999996      16.199999999999999
  1061   1      8.0999999999999996      24.299999999999997                   20.25
  1062   1      8.0999999999999996      26.324999999999996      22.274999999999999
  1063   1                  10.125      24.299999999999997      22.274999999999999
  1064   1                  10.125      26.324999999999996                   20.25
  1065   1      8.0999999999999996      24.299999999999997      24.299999999999997
  1066   1      8.0999999999999996      26.324999999999996      26.324999999999996
  1067   1                  10.125      24.299999999999997      26.324999999999996
  1068   1                  10.125      26.324999999999996      24.299999999999997
  1069   1      8.0999999999999996      24.299999999999997      28.349999999999998
  1070   1      8.0999999999999996      26.324999999999996      30.374999999999996
  1071   1                  10.125      24.299999999999997      30.374999999999996
  1072   1                  10.125      26.324999999999996      28.349999999999998
  1073   1      8.0999999999999996      24.299999999999997      32.399999999999999
  1074   1      8.0999999999999996      26.324999999999996      34.424999999999997
  1075   1                  10.125      24.299999999999997      34.424999999999997
  1076   1                  10.125      26.324999999999996      32.399999999999999
  1077   1      8.0999999999999996      24.299999999999997      36.449999999999996
  1078   1      8.0999999999999996      26.324999999999996      38.474999999999994
  1079   1                  10.125      24.299999999999997      38.474999999999994
  1080   1                  10.125      26.324999999999996      36.449999999999996
  1081   1      8.0999999999999996      28.349999999999998                       0
  1082   1      8.0999999999999996      30.374999999999996      2.0249999999999999
  1083   1                  10.125      28.349999999999998      2.0249999999999999
  1084   1                  10.125      30.374999999999996                       0
  1085   1      8.0999999999999996      28.349999999999998      4.0499999999999998
  1086   1      8.0999999999999996      30.374999999999996      6.0749999999999993
  1087   1                  10.125      28.349999999999998      6.0749999999999993
  1088   1                  10.125      30.374999999999996      4.0499999999999998
  1089   1      8.0999999999999996      28.349999999999998      8.0999999999999996
  1090   1      8.0999999999999996      30.374999999999996                  10.125
  1091   1                  10.125      28.349999999999998                  10.125
  1092   1                  10.125      30.374999999999996      8.0999999999999996
  1093   1      8.0999999999999996      28.349999999999998      12.149999999999999
  1094   1      8.0999999999999996      30.374999999999996      14.174999999999999
  1095   1                  10.125      28.349999999999998      14.174999999999999
  1096   1                  10.125      30.374999999999996      12.149999999999999
  1097   1      8.0999999999999996      28.349999999999998      16.199999999999999
  1098   1      8.0999999999999996      30.374999999999996      18.224999999999998
  1099   1                  10.125      28.349999999999998      18.224999999999998
  1100   1                  10.125      30.374999999999996      16.199999999999999
  1101   1      8.0999999999999996      28.349999999999998                   20.25
  1102   1      8.0999999999999996      30.374999999999996      22.274999999999999
  1103   1                  10.125      28.349999999999998      22.274999999999999
  1104   1                  10.125      30.374999999999996                   20.25
  1105   1      8.0999999999999996      28.349999999999998      24.299999999999997
  1106   1      8.0999999999999996      30.374999999999996      26.324999999999996
  1107   1                  10.125      28.349999999999998      26.324999999999996
  1108   1                  10.125      30.374999999999996      24.299999999999997
  1109   1      8.0999999999999996      28.349999999999998      28.349999999999998
  1110   1      8.0999999999999996      30.374999999999996      30.374999999999996
  1111   1                  10.125      28.349999999999998      30.374999999999996
  1112   1                  10.125      30.374999999999996      28.349999999999998
  1113   1      8.0999999999999996      28.349999999999998      32.399999999999999
  1114   1      8.0999999999999996      30.374999999999996      34.424999999999997
  1115   1                  10.125      28.349999999999998      34.424999999999997
  1116   1                  10.125      30.374999999999996      32.399999999999999
  1117   1      8.0999999999999996      28.349999999999998      36.449999999999996
  1118   1      8.0999999999999996      30.374999999999996      38.474999999999994
  1119   1                  10.125      28.349999999999998      38.474999999999994
  1120   1                  10.125      30.374999999999996      36.449999999999996
  1121   1      8.0999999999999996      32.399999999999999                       0
  1122   1      8.0999999999999996      34.424999999999997      2.0249999999999999
  1123   1                  10.125      32.399999999999999      2.0249999999999999
  1124   1                  10.125      34.424999999999997                       0
  1125   1      8.0999999999999996      32.399999999999999      4.0499999999999998
  1126   1      8.0999999999999996      34.424999999999997      6.0749999999999993
  1127   1                  10.125      32.399999999999999      6.0749999999999993
  1128   1                  10.125      34.424999999999997      4.0499999999999998
  1129   1      8.0999999999999996      32.399999999999999      8.0999999999999996
  1130   1      8.0999999999999996      34.424999999999997                  10.125
  1131   1                  10.125      32.399999999999999                  10.125
  1132   1                  10.125      34.424999999999997      8.0999999999999996
  1133   1      8.0999999999999996      32.399999999999999      12.149999999999999
  1134   1      8.0999999999999996      34.424999999999997      14.174999999999999
  1135   1                  10.125      32.399999999999999      14.174999999999999
  1136   1                  10.125      34.424999999999997      12.149999999999999
  1137   1      8.0999999999999996      32.399999999999999      16.199999999999999
  1138   1      8.0999999999999996      34.424999999999997      18.224999999999998
  1139   1                  10.125      32.399999999999999      18.224999999999998
  1140   1                  10.125      34.424999999999997      16.199999999999999
  1141   1      8.0999999999999996      32.399999999999999                   20.25
  1142   1      8.0999999999999996      34.424999999999997      22.274999999999999
  1143   1                  10.125      32.399999999999999      22.274999999999999
  1144   1                  10.125      34.424999999999997                   20.25
  1145   1      8.0999999999999996      32.399999999999999      24.299999999999997
  1146   1      8.0999999999999996      34.424999999999997      26.324999999999996
  1147   1                  10.125      32.399999999999999      26.324999999999996
  1148   1                  10.125      34.424999999999997      24.299999999999997
  1149   1      8.0999999999999996      32.399999999999999      28.349999999999998
  1150   1      8.0999999999999996      34.424999999999997      30.374999999999996
  1151   1                  10.125      32.399999999999999      30.374999999999996
  1152   1                  10.125      34.424999999999997      28.349999999999998
  1153   1      8.0999999999999996      32.399999999999999      32.399999999999999
  1154   1      8.0999999999999996      34.424999999999997      34.424999999999997
  1155   1                  10.125      32.399999999999999      34.424999999999997
  1156   1                  10.125      34.424999999999997      32.399999999999999
  1157   1      8.0999999999999996      32.399999999999999      36.449999999999996
  1158   1      8.0999999999999996      34.424999999999997      38.474999999999994
  1159   1                  10.125      32.399999999999999      38.474999999999994
  1160   1                  10.125      34.424999999999997      36.449999999999996
  1161   1      8.0999999999999996      36.449999999999996                       0
  1162   1      8.0999999999999996      38.474999999999994      2.0249999999999999
  1163   1                  10.125      36.449999999999996      2.0249999999999999
  1164   1                  10.125      38.474999999999994                       0
  1165   1      8.0999999999999996      36.449999999999996      4.0499999999999998
  1166   1      8.0999999999999996      38.474999999999994      6.0749999999999993
  1167   1                  10.125      36.449999999999996      6.0749999999999993
  1168   1                  10.125      38.474999999999994      4.0499999999999998
  1169   1      8.0999999999999996      36.449999999999996      8.0999999999999996
  1170   1      8.0999999999999996      38.474999999999994                  10.125
  1171   1                  10.125      36.449999999999996                  10.125
  1172   1                  10.125      38.474999999999994      8.0999999999999996
  1173   1      8.0999999999999996      36.449999999999996      12.149999999999999
  1174   1      8.0999999999999996      38.474999999999994      14.174999999999999
  1175   1                  10.125      36.449999999999996      14.174999999999999
  1176   1                  10.125      38.474999999999994      12.149999999999999
  1177   1      8.0999999999999996      36.449999999999996      16.199999999999999
  1178   1      8.0999999999999996      38.474999999999994      18.224999999999998
  1179   1                  10.125      36.449999999999996      18.224999999999998
  1180   1                  10.125      38.474999999999994      16.199999999999999
  1181   1      8.0999999999999996      36.449999999999996                   20.25
  1182   1      8.0999999999999996      38.474999999999994      22.274999999999999
  1183   1                  10.125      36.449999999999996      22.274999999999999
  1184   1                  10.125      38.474999999999994                   20.25
  1185   1      8.0999999999999996      36.449999999999996      24.299999999999997
  1186   1      8.0999999999999996      38.474999999999994      26.324999999999996
  1187   1                  10.125      36.449999999999996      26.324999999999996
  1188   1                  10.125      38.474999999999994      24.299999999999997
  1189   1      8.0999999999999996      36.449999999999996      28.349999999999998
  1190   1      8.0999999999999996      38.474999999999994      30.374999999999996
  1191   1                  10.125      36.449999999999996      30.374999999999996
  1192   1                  10.125      38.474999999999994      28.349999999999998
  1193   1      8.0999999999999996      36.449999999999996      32.399999999999999
  1194   1      8.0999999999999996      38.474999999999994      34.424999999999997
  1195   1                  10.125      36.449999999999996      34.424999999999997
  1196   1                  10.125      38.474999999999994      32.399999999999999
  1197   1      8.0999999999999996      36.449999999999996      36.449999999999996
  1198   1      8.0999999999999996      38.474999999999994      38.474999999999994
  1199   1                  10.125      36.449999999999996      38.474999999999994
  1200   1                  10.125      38.474999999999994      36.449999999999996
  1201   1      12.149999999999999                       0                       0
  1202   1      12.149999999999999      2.0249999999999999      2.0249999999999999
  1203   1      14.174999999999999                       0      2.0249999999999999
  1204   1      14.174999999999999      2.0249999999999999                       0
  1205   1      12.149999999999999                       0      4.0499999999999998
  1206   1      12.149999999999999      2.0249999999999999      6.0749999999999993
  1207   1      14.174999999999999                       0      6.0749999999999993
  1208   1      14.174999999999999      2.0249999999999999      4.0499999999999998
  1209   1      12.149999999999999                       0      8.0999999999999996
  1210   1      12.149999999999999      2.0249999999999999                  10.125
  1211   1      14.174999999999999                       0                  10.125
  1212   1      14.174999999999999      2.0249999999999999      8.0999999999999996
  1213   1      12.149999999999999                       0      12.149999999999999
  1214   1      12.149999999999999      2.0249999999999999      14.174999999999999
  1215   1      14.174999999999999                       0      14.174999999999999
  1216   1      14.174999999999999      2.0249999999999999      12.149999999999999
  1217   1      12.149999999999999                       0      16.199999999999999
  1218   1      12.149999999999999      2.0249999999999999      18.224999999999998
  1219   1      14.174999999999999                       0      18.224999999999998
  1220   1      14.174999999999999      2.0249999999999999      16.199999999999999
  1221   1      12.149999999999999                       0                   20.25
  1222   1      12.149999999999999      2.0249999999999999      22.274999999999999
  1223   1      14.174999999999999                       0      22.274999999999999
  1224   1      14.174999999999999      2.0249999999999999                   20.25
  1225   1      12.149999999999999                       0      24.299999999999997
  1226   1      12.149999999999999      2.0249999999999999      26.324999999999996
  1227   1      14.174999999999999                       0      26.324999999999996
  1228   1      14.174999999999999      2.0249999999999999      24.299999999999997
  1229   1      12.149999999999999                       0      28.349999999999998
  1230   1      12.149999999999999      2.0249999999999999      30.374999999999996
  1231   1      14.174999999999999                       0      30.374999999999996
  1232   1      14.174999999999999      2.0249999999999999      28.349999999999998
  1233   1      12.149999999999999                       0      32.399999999999999
  1234   1      12.149999999999999      2.0249999999999999      34.424999999999997
  1235   1      14.174999999999999                       0      34.424999999999997
  1236   1      14.174999999999999      2.0249999999999999      32.399999999999999
  1237   1      12.149999999999999                       0      36.449999999999996
  1238   1      12.149999999999999      2.0249999999999999      38.474999999999994
  1239   1      14.174999999999999                       0      38.474999999999994
  1240   1      14.174999999999999      2.0249999999999999      36.449999999999996
  1241   1      12.149999999999999      4.0499999999999998                       0
  1242   1      12.149999999999999      6.0749999999999993      2.0249999999999999
  1243   1      14.174999999999999      4.0499999999999998      2.0249999999999999
  1244   1      14.174999999999999      6.0749999999999993                       0
  1245   1      12.149999999999999      4.0499999999999998      4.0499999999999998
  1246   1      12.149999999999999      6.0749999999999993      6.0749999999999993
  1247   1      14.174999999999999      4.0499999999999998      6.0749999999999993
  1248   1      14.174999999999999      6.0749999999999993      4.0499999999999998
  1249   1      12.149999999999999      4.0499999999999998      8.0999999999999996
  1250   1      12.149999999999999      6.0749999999999993                  10.125
  1251   1      14.174999999999999      4.0499999999999998                  10.125
  1252   1      14.174999999999999      6.0749999999999993      8.0999999999999996
  1253   1      12.149999999999999      4.0499999999999998      12.149999999999999
  1254   1      12.149999999999999      6.0749999999999993      14.174999999999999
  1255   1      14.174999999999999      4.0499999999999998      14.174999999999999
  1256   1      14.174999999999999      6.0749999999999993      12.149999999999999
  1257   1      12.149999999999999      4.0499999999999998      16.199999999999999
  1258   1      12.149999999999999      6.0749999999999993      18.224999999999998
  1259   1      14.174999999999999      4.0499999999999998      18.224999999999998
  1260   1      14.174999999999999      6.0749999999999993      16.199999999999999
  1261   1      12.149999999999999      4.0499999999999998                   20.25
  1262   1      12.149999999999999      6.0749999999999993      22.274999999999999
  1263   1      14.174999999999999      4.0499999999999998      22.274999999999999
  1264   1      14.174999999999999      6.0749999999999993                   20.25
  1265   1      12.149999999999999      4.0499999999999998      24.299999999999997
  1266   1      12.149999999999999      6.0749999999999993      26.324999999999996
  1267   1      14.174999999999999      4.0499999999999998      26.324999999999996
  1268   1      14.174999999999999      6.0749999999999993      24.299999999999997
  1269   1      12.149999999999999      4.0499999999999998      28.349999999999998
  1270   1      12.149999999999999      6.0749999999999993      30.374999999999996
  1271   1      14.174999999999999      4.0499999999999998      30.374999999999996
  1272   1      14.174999999999999      6.0749999999999993      28.349999999999998
  1273   1      12.149999999999999      4.0499999999999998      32.399999999999999
  1274   1      12.149999999999999      6.0749999999999993      34.424999999999997
  1275   1      14.174999999999999      4.0499999999999998      34.424999999999997
  1276   1      14.174999999999999      6.0749999999999993      32.399999999999999
  1277   1      12.149999999999999      4.0499999999999998      36.449999999999996
  1278   1      12.149999999999999      6.0749999999999993      38.474999999999994
  1279   1      14.174999999999999      4.0499999999999998      38.474999999999994
  1280   1      14.174999999999999      6.0749999999999993      36.449999999999996
  1281   1      12.149999999999999      8.0999999999999996                       0
  1282   1      12.149999999999999                  10.125      2.0249999999999999
  1283   1      14.174999999999999      8.0999999999999996      2.0249999999999999
  1284   1      14.174999999999999                  10.125                       0
  1285   1      12.149999999999999      8.0999999999999996      4.0499999999999998
  1286   1      12.149999999999999                  10.125      6.0749999999999993
  1287   1      14.174999999999999      8.0999999999999996      6.0749999999999993
  1288   1      14.174999999999999                  10.125      4.0499999999999998
  1289   1      12.149999999999999      8.0999999999999996      8.0999999999999996
  1290   1      12.149999999999999                  10.125                  10.125
  1291   1      14.174999999999999      8.0999999999999996                  10.125
  1292   1      14.174999999999999                  10.125      8.0999999999999996
  1293   1      12.149999999999999      8.0999999999999996      12.149999999999999
  1294   1      12.149999999999999                  10.125      14.174999999999999
  1295   1      14.174999999999999      8.0999999999999996      14.174999999999999
  1296   1      14.174999999999999                  10.125      12.149999999999999
  1297   1      12.149999999999999      8.0999999999999996      16.199999999999999
  1298   1      12.149999999999999                  10.125      18.224999999999998
  1299   1      14.174999999999999      8.0999999999999996      18.224999999999998
  1300   1      14.174999999999999                  10.125      16.199999999999999
  1301   1      12.149999999999999      8.0999999999999996                   20.25
  1302   1      12.149999999999999                  10.125      22.274999999999999
  1303   1      14.174999999999999      8.0999999999999996      22.274999999999999
  1304   1      14.174999999999999                  10.125                   20.25
  1305   1      12.149999999999999      8.0999999999999996      24.299999999999997
  1306   1      12.149999999999999                  10.125      26.324999999999996
  1307   1      14.174999999999999      8.0999999999999996      26.324999999999996
  1308   1      14.174999999999999                  10.125      24.299999999999997
  1309   1      12.149999999999999      8.0999999999999996      28.349999999999998
  1310   1      12.149999999999999                  10.125      30.374999999999996
  1311   1      14.174999999999999      8.0999999999999996      30.374999999999996
  1312   1      14.174999999999999                  10.125      28.349999999999998
  1313   1      12.149999999999999      8.0999999999999996      32.399999999999999
  1314   1      12.149999999999999                  10.125      34.424999999999997
  1315   1      14.174999999999999      8.0999999999999996      34.424999999999997
  1316   1      14.174999999999999                  10.125      32.399999999999999
  1317   1      12.149999999999999      8.0999999999999996      36.449999999999996
  1318   1      12.149999999999999                  10.125      38.474999999999994
  1319   1      14.174999999999999      8.0999999999999996      38.474999999999994
  1320   1      14.174999999999999                  10.125      36.449999999999996
  1321   1      12.149999999999999      12.149999999999999                       0
  1322   1      12.149999999999999      14.174999999999999      2.0249999999999999
  1323   1      14.174999999999999      12.149999999999999      2.0249999999999999
  1324   1      14.174999999999999      14.174999999999999                       0
  1325   1      12.149999999999999      12.149999999999999      4.0499999999999998
  1326   1      12.149999999999999      14.174999999999999      6.0749999999999993
  1327   1      14.174999999999999      12.149999999999999      6.0749999999999993
  1328   1      14.174999999999999      14.174999999999999      4.0499999999999998
  1329   1      12.149999999999999      12.149999999999999      8.0999999999999996
  1330   1      12.149999999999999      14.174999999999999                  10.125
  1331   1      14.174999999999999      12.149999999999999                  10.125
  1332   1      14.174999999999999      14.174999999999999      8.0999999999999996
  1333   1      12.149999999999999      12.149999999999999      12.149999999999999
  1334   1      12.149999999999999      14.174999999999999      14.174999999999999
  1335   1      14.174999999999999      12.149999999999999      14.174999999999999
  1336   1      14.174999999999999      14.174999999999999      12.149999999999999
  1337   1      12.149999999999999      12.149999999999999      16.199999999999999
  1338   1      12.149999999999999      14.174999999999999      18.224999999999998
  1339   1      14.174999999999999      12.149999999999999      18.224999999999998
  1340   1      14.174999999999999      14.174999999999999      16.199999999999999
  1341   1      12.149999999999999      12.149999999999999                   20.25
  1342   1      12.149999999999999      14.174999999999999      22.274999999999999
  1343   1      14.174999999999999      12.149999999999999      22.274999999999999
  1344   1      14.174999999999999      14.174999999999999                   20.25
  1345   1      12.149999999999999      12.149999999999999      24.299999999999997
  1346   1      12.149999999999999      14.174999999999999      26.324999999999996
  1347   1      14.174999999999999      12.149999999999999      26.324999999999996
  1348   1      14.174999999999999      14.174999999999999      24.299999999999997
  1349   1      12.149999999999999      12.149999999999999      28.349999999999998
  1350   1      12.149999999999999      14.174999999999999      30.374999999999996
  1351   1      14.174999999999999      12.149999999999999      30.374999999999996
  1352   1      14.174999999999999      14.174999999999999      28.349999999999998
  1353   1      12.149999999999999      12.149999999999999      32.399999999999999
  1354   1      12.149999999999999      14.174999999999999      34.424999999999997
  1355   1      14.174999999999999      12.149999999999999      34.424999999999997
  1356   1      14.174999999999999      14.174999999999999      32.399999999999999
  1357   1      12.149999999999999      12.149999999999999      36.449999999999996
  1358   1      12.149999999999999      14.174999999999999      38.474999999999994
  1359   1      14.174999999999999      12.149999999999999      38.474999999999994
  1360   1      14.174999999999999      14.174999999999999      36.449999999999996
  1361   1      12.149999999999999      16.199999999999999                       0
  1362   1      12.149999999999999      18.224999999999998      2.0249999999999999
  1363   1      14.174999999999999      16.199999999999999      2.0249999999999999
  1364   1      14.174999999999999      18.224999999999998                       0
  1365   1      12.149999999999999      16.199999999999999      4.0499999999999998
  1366   1      12.149999999999999      18.224999999999998      6.0749999999999993
  1367   1      14.174999999999999      16.199999999999999      6.0749999999999993
  1368   1      14.174999999999999      18.224999999999998      4.0499999999999998
  1369   1      12.149999999999999      16.199999999999999      8.0999999999999996
  1370   1      12.149999999999999      18.224999999999998                  10.125
  1371   1      14.174999999999999      16.199999999999999                  10.125
  1372   1      14.174999999999999      18.224999999999998      8.0999999999999996
  1373   1      12.149999999999999      16.199999999999999      12.149999999999999
  1374   1      12.149999999999999      18.224999999999998      14.174999999999999
  1375   1      14.174999999999999      16.199999999999999      14.174999999999999
  1376   1      14.174999999999999      18.224999999999998      12.149999999999999
  1377   1      12.149999999999999      16.199999999999999      16.199999999999999
  1378   1      12.149999999999999      18.224999999999998      18.224999999999998
  1379   1      14.174999999999999      16.199999999999999      18.224999999999998
  1380   1      14.174999999999999      18.224999999999998      16.199999999999999
  1381   1      12.149999999999999      16.199999999999999                   20.25
  1382   1      12.149999999999999      18.224999999999998      22.274999999999999
  1383   1      14.174999999999999      16.199999999999999      22.274999999999999
  1384   1      14.174999999999999      18.224999999999998                   20.25
  1385   1      12.149999999999999      16.199999999999999      24.299999999999997
  1386   1      12.149999999999999      18.224999999999998      26.324999999999996
  1387   1      14.174999999999999      16.199999999999999      26.324999999999996
  1388   1      14.174999999999999      18.224999999999998      24.299999999999997
  1389   1      12.149999999999999      16.199999999999999      28.349999999999998
  1390   1      12.149999999999999      18.224999999999998      30.374999999999996
  1391   1      14.174999999999999      16.199999999999999      30.374999999999996
  1392   1      14.174999999999999      18.224999999999998      28.349999999999998
  1393   1      12.149999999999999      16.199999999999999      32.399999999999999
  1394   1      12.149999999999999      18.224999999999998      34.424999999999997
  1395   1      14.174999999999999      16.199999999999999      34.424999999999997
  1396   1      14.174999999999999      18.224999999999998      32.399999999999999
  1397   1      12.149999999999999      16.199999999999999      36.449999999999996
  1398   1      12.149999999999999      18.224999999999998      38.474999999999994
  1399   1      14.174999999999999      16.199999999999999      38.474999999999994
  1400   1      14.174999999999999      18.224999999999998      36.449999999999996
  1401   1      12.149999999999999                   20.25                       0
  1402   1      12.149999999999999      22.274999999999999      2.0249999999999999
  1403   1      14.174999999999999                   20.25      2.0249999999999999
  1404   1      14.174999999999999      22.274999999999999                       0
  1405   1      12.149999999999999                   20.25      4.0499999999999998
  1406   1      12.149999999999999      22.274999999999999      6.0749999999999993
  1407   1      14.174999999999999                   20.25      6.0749999999999993
  1408   1      14.174999999999999      22.274999999999999      4.0499999999999998
  1409   1      12.149999999999999                   20.25      8.0999999999999996
  1410   1      12.149999999999999      22.274999999999999                  10.125
  1411   1      14.174999999999999                   20.25                  10.125
  1412   1      14.174999999999999      22.274999999999999      8.0999999999999996
  1413   1      12.149999999999999                   20.25      12.149999999999999
  1414   1      12.149999999999999      22.274999999999999      14.174999999999999
  1415   1      14.174999999999999                   20.25      14.174999999999999
  1416   1      14.174999999999999      22.274999999999999      12.149999999999999
  1417   1      12.149999999999999                   20.25      16.199999999999999
  1418   1      12.149999999999999      22.274999999999999      18.224999999999998
  1419   1      14.174999999999999                   20.25      18.224999999999998
  1420   1      14.174999999999999      22.274999999999999      16.199999999999999
  1421   1      12.149999999999999                   20.25                   20.25
  1422   1      12.149999999999999      22.274999999999999      22.274999999999999
  1423   1      14.174999999999999                   20.25      22.274999999999999
  1424   1      14.174999999999999      22.274999999999999                   20.25
  1425   1      12.149999999999999                   20.25      24.299999999999997
  1426   1      12.149999999999999      22.274999999999999      26.324999999999996
  1427   1      14.174999999999999                   20.25      26.324999999999996
  1428   1      14.174999999999999      22.274999999999999      24.299999999999997
  1429   1      12.149999999999999                   20.25      28.349999999999998
  1430   1      12.149999999999999      22.274999999999999      30.374999999999996
  1431   1      14.174999999999999                   20.25      30.374999999999996
  1432   1      14.174999999999999      22.274999999999999      28.349999999999998
  1433   1      12.149999999999999                   20.25      32.399999999999999
  1434   1      12.149999999999999      22.274999999999999      34.424999999999997
  1435   1      14.174999999999999                   20.25      34.424999999999997
  1436   1      14.174999999999999      22.274999999999999      32.399999999999999
  1437   1      12.149999999999999                   20.25      36.449999999999996
  1438   1      12.149999999999999      22.274999999999999      38.474999999999994
  1439   1      14.174999999999999                   20.25      38.474999999999994
  1440   1      14.174999999999999      22.274999999999999      36.449999999999996
  1441   1      12.149999999999999      24.299999999999997                       0
  1442   1      12.149999999999999      26.324999999999996      2.0249999999999999
  1443   1      14.174999999999999      24.299999999999997      2.0249999999999999
  1444   1      14.174999999999999      26.324999999999996                       0
  1445   1      12.149999999999999      24.299999999999997      4.0499999999999998
  1446   1      12.149999999999999      26.324999999999996      6.0749999999999993
  1447   1      14.174999999999999      24.299999999999997      6.0749999999999993
  1448   1      14.174999999999999      26.324999999999996      4.0499999999999998
  1449   1      12.149999999999999      24.299999999999997      8.0999999999999996
  1450   1      12.149999999999999      26.324999999999996                  10.125
  1451   1      14.174999999999999      24.299999999999997                  10.125
  1452   1      14.174999999999999      26.324999999999996      8.0999999999999996
  1453   1      12.149999999999999      24.299999999999997      12.149999999999999
  1454   1      12.149999999999999      26.324999999999996      14.174999999999999
  1455   1      14.174999999999999      24.299999999999997      14.174999999999999
  1456   1      14.174999999999999      26.324999999999996      12.149999999999999
  1457   1      12.149999999999999      24.299999999999997      16.199999999999999
  1458   1      12.149999999999999      26.324999999999996      18.224999999999998
  1459   1      14.174999999999999      24.299999999999997      18.224999999999998
  1460   1      14.174999999999999      26.324999999999996      16.199999999999999
  1461   1      12.149999999999999      24.299999999999997                   20.25
  1462   1      12.149999999999999      26.324999999999996      22.274999999999999
  1463   1      14.174999999999999      24.299999999999997      22.274999999999999
  1464   1      14.174999999999999      26.324999999999996                   20.25
  1465   1      12.149999999999999      24.299999999999997      24.299999999999997
  1466   1      12.149999999999999      26.324999999999996      26.324999999999996
  1467   1      14.174999999999999      24.299999999999997      26.324999999999996
  1468   1      14.174999999999999      26.324999999999996      24.299999999999997
  1469   1      12.149999999999999      24.299999999999997      28.349999999999998
  1470   1      12.149999999999999      26.324999999999996      30.374999999999996
  1471   1      14.174999999999999      24.299999999999997      30.374999999999996
  1472   1      14.174999999999999      26.324999999999996      28.349999999999998
  1473   1      12.149999999999999      24.299999999999997      32.399999999999999
  1474   1      12.149999999999999      26.324999999999996      34.424999999999997
  1475   1      14.174999999999999      24.299999999999997      34.424999999999997
  1476   1      14.174999999999999      26.324999999999996      32.399999999999999
  1477   1      12.149999999999999      24.299999999999997      36.449999999999996
  1478   1      12.149999999999999      26.324999999999996      38.474999999999994
  1479   1      14.174999999999999      24.299999999999997      38.474999999999994
  1480   1      14.174999999999999      26.324999999999996      36.449999999999996
  1481   1      12.149999999999999      28.349999999999998                       0
  1482   1      12.149999999999999      30.374999999999996      2.0249999999999999
  1483   1      14.174999999999999      28.349999999999998      2.0249999999999999
  1484   1      14.174999999999999      30.374999999999996                       0
  1485   1      12.149999999999999      28.349999999999998      4.0499999999999998
  1486   1      12.149999999999999      30.374999999999996      6.0749999999999993
  1487   1      14.174999999999999      28.349999999999998      6.0749999999999993
  1488   1      14.174999999999999      30.374999999999996      4.0499999999999998
  1489   1      12.149999999999999      28.349999999999998      8.0999999999999996
  1490   1      12.149999999999999      30.374999999999996                  10.125
  1491   1      14.174999999999999      28.349999999999998                  10.125
  1492   1      14.174999999999999      30.374999999999996      8.0999999999999996
  1493   1      12.149999999999999      28.349999999999998      12.149999999999999
  1494   1      12.149999999999999      30.374999999999996      14.174999999999999
  1495   1      14.174999999999999      28.349999999999998      14.174999999999999
  1496   1      14.174999999999999      30.374999999999996      12.149999999999999
  1497   1      12.149999999999999      28.349999999999998      16.199999999999999
  1498   1      12.149999999999999      30.374999999999996      18.224999999999998
  1499   1      14.174999999999999      28.349999999999998      18.224999999999998
  1500   1      14.174999999999999      30.374999999999996      16.199999999999999
  1501   1      12.149999999999999      28.349999999999998                   20.25
  1502   1      12.149999999999999      30.374999999999996      22.274999999999999
  1503   1      14.174999999999999      28.349999999999998      22.274999999999999
  1504   1      14.174999999999999      30.374999999999996                   20.25
  1505   1      12.149999999999999      28.349999999999998      24.299999999999997
  1506   1      12.149999999999999      30.374999999999996      26.324999999999996
  1507   1      14.174999999999999      28.349999999999998      26.324999999999996
  1508   1      14.174999999999999      30.374999999999996      24.299999999999997
  1509   1      12.149999999999999      28.349999999999998      28.349999999999998
  1510   1      12.149999999999999      30.374999999999996      30.374999999999996
  1511   1      14.174999999999999      28.349999999999998      30.374999999999996
  1512   1      14.174999999999999      30.374999999999996      28.349999999999998
  1513   1      12.149999999999999      28.349999999999998      32.399999999999999
  1514   1      12.149999999999999      30.374999999999996      34.424999999999997
  1515   1      14.174999999999999      28.349999999999998      34.424999999999997
  1516   1      14.174999999999999      30.374999999999996      32.399999999999999
  1517   1      12.149999999999999      28.349999999999998      36.449999999999996
  1518   1      12.149999999999999      30.374999999999996      38.474999999999994
  1519   1      14.174999999999999      28.349999999999998      38.474999999999994
  1520   1      14.174999999999999      30.374999999999996      36.449999999999996
  1521   1      12.149999999999999      32.399999999999999                       0
  1522   1      12.149999999999999      34.424999999999997      2.0249999999999999
  1523   1      14.174999999999999      32.399999999999999      2.0249999999999999
  1524   1      14.174999999999999      34.424999999999997                       0
  1525   1      12.149999999999999      32.399999999999999      4.0499999999999998
  1526   1      12.149999999999999      34.424999999999997      6.0749999999999993
  1527   1      14.174999999999999      32.399999999999999      6.0749999999999993
  1528   1      14.174999999999999      34.424999999999997      4.0499999999999998
  1529   1      12.149999999999999      32.399999999999999      8.0999999999999996
  1530   1      12.149999999999999      34.424999999999997                  10.125
  1531   1      14.174999999999999      32.399999999999999                  10.125
  1532   1      14.174999999999999      34.424999999999997      8.0999999999999996
  1533   1      12.149999999999999      32.399999999999999      12.149999999999999
  1534   1      12.149999999999999      34.424999999999997      14.174999999999999
  1535   1      14.174999999999999      32.399999999999999      14.174999999999999
  1536   1      14.174999999999999      34.424999999999997      12.149999999999999
  1537   1      12.149999999999999      32.399999999999999      16.199999999999999
  1538   1      12.149999999999999      34.424999999999997      18.224999999999998
  1539   1      14.174999999999999      32.399999999999999      18.224999999999998
  1540   1      14.174999999999999      34.424999999999997      16.199999999999999
  1541   1      12.149999999999999      32.399999999999999                   20.25
  1542   1      12.149999999999999      34.424999999999997      22.274999999999999
  1543   1      14.174999999999999      32.399999999999999      22.274999999999999
  1544   1      14.174999999999999      34.424999999999997                   20.25
  1545   1      12.149999999999999      32.399999999999999      24.299999999999997
  1546   1      12.149999999999999      34.424999999999997      26.324999999999996
  1547   1      14.174999999999999      32.399999999999999      26.324999999999996
  1548   1      14.174999999999999      34.424999999999997      24.299999999999997
  1549   1      12.149999999999999      32.399999999999999      28.349999999999998
  1550   1      12.149999999999999      34.424999999999997      30.374999999999996
  1551   1      14.174999999999999      32.399999999999999      30.374999999999996
  1552   1      14.174999999999999      34.424999999999997      28.349999999999998
  1553   1      12.149999999999999      32.399999999999999      32.399999999999999
  1554   1      12.149999999999999      34.424999999999997      34.424999999999997
  1555   1      14.174999999999999      32.399999999999999      34.424999999999997
  1556   1      14.174999999999999      34.424999999999997      32.399999999999999
  1557   1      12.149999999999999      32.399999999999999      36.449999999999996
  1558   1      12.149999999999999      34.424999999999997      38.474999999999994
  1559   1      14.174999999999999      32.399999999999999      38.474999999999994
  1560   1      14.174999999999999      34.424999999999997      36.449999999999996
  1561   1      12.149999999999999      36.449999999999996                       0
  1562   1      12.149999999999999      38.474999999999994      2.0249999999999999
  1563   1      14.174999999999999      36.449999999999996      2.0249999999999999
  1564   1      14.174999999999999      38.474999999999994                       0
  1565   1      12.149999999999999      36.449999999999996      4.0499999999999998
  1566   1      12.149999999999999      38.474999999999994      6.0749999999999993
  1567   1      14.174999999999999      36.449999999999996      6.0749999999999993
  1568   1      14.174999999999999      38.474999999999994      4.0499999999999998
  1569   1      12.149999999999999      36.449999999999996      8.0999999999999996
  1570   1      12.149999999999999      38.474999999999994                  10.125
  1571   1      14.174999999999999      36.449999999999996                  10.125
  1572   1      14.174999999999999      38.474999999999994      8.0999999999999996
  1573   1      12.149999999999999      36.449999999999996      12.149999999999999
  1574   1      12.149999999999999      38.474999999999994      14.174999999999999
  1575   1      14.174999999999999      36.449999999999996      14.174999999999999
  1576   1      14.174999999999999      38.474999999999994      12.149999999999999
  1577   1      12.149999999999999      36.449999999999996      16.199999999999999
  1578   1      12.149999999999999      38.474999999999994      18.224999999999998
  1579   1      14.174999999999999      36.449999999999996      18.224999999999998
  1580   1      14.174999999999999      38.474999999999994      16.199999999999999
  1581   1      12.149999999999999      36.449999999999996                   20.25
  1582   1      12.149999999999999      38.474999999999994      22.274999999999999
  1583   1      14.174999999999999      36.449999999999996      22.274999999999999
  1584   1      14.174999999999999      38.474999999999994                   20.25
  1585   1      12.149999999999999      36.449999999999996      24.299999999999997
  1586   1      12.149999999999999      38.474999999999994      26.324999999999996
  1587   1      14.174999999999999      36.449999999999996      26.324999999999996
  1588   1      14.174999999999999      38.474999999999994      24.299999999999997
  1589   1      12.149999999999999      36.449999999999996      28.349999999999998
  1590   1      12.149999999999999      38.474999999999994      30.374999999999996
  1591   1      14.174999999999999      36.449999999999996      30.374999999999996
  1592   1      14.174999999999999      38.474999999999994      28.349999999999998
  1593   1      12.149999999999999      36.449999999999996      32.399999999999999
  1594   1      12.149999999999999      38.474999999999994      34.424999999999997
  1595   1      14.174999999999999      36.449999999999996      34.424999999999997
  1596   1      14.174999999999999      38.474999999999994      32.399999999999999
  1597   1      12.149999999999999      36.449999999999996      36.449999999999996
  1598   1      12.149999999999999      38.474999999999994      38.474999999999994
  1599   1      14.174999999999999      36.449999999999996      38.474999999999994
  1600   1      14.174999999999999      38.474999999999994      36.449999999999996
  1601   1      16.199999999999999                       0                       0
  1602   1      16.199999999999999      2.0249999999999999      2.0249999999999999
  1603   1      18.224999999999998                       0      2.0249999999999999
  1604   1      18.224999999999998      2.0249999999999999                       0
  1605   1      16.199999999999999                       0      4.0499999999999998
  1606   1      16.199999999999999      2.0249999999999999      6.0749999999999993
  1607   1      18.224999999999998                       0      6.0749999999999993
  1608   1      18.224999999999998      2.0249999999999999      4.0499999999999998
  1609   1      16.199999999999999                       0      8.0999999999999996
  1610   1      16.199999999999999      2.0249999999999999                  10.125
  1611   1      18.224999999999998                       0                  10.125
  1612   1      18.224999999999998      2.0249999999999999      8.0999999999999996
  1613   1      16.199999999999999                       0      12.149999999999999
  1614   1      16.199999999999999      2.0249999999999999      14.174999999999999
  1615   1      18.224999999999998                       0      14.174999999999999
  1616   1      18.224999999999998      2.0249999999999999      12.149999999999999
  1617   1      16.199999999999999                       0      16.199999999999999
  1618   1      16.199999999999999      2.0249999999999999      18.224999999999998
  1619   1      18.224999999999998                       0      18.224999999999998
  1620   1      18.224999999999998      2.0249999999999999      16.199999999999999
  1621   1      16.199999999999999                       0                   20.25
  1622   1      16.199999999999999      2.0249999999999999      22.274999999999999
  1623   1      18.224999999999998                       0      22.274999999999999
  1624   1      18.224999999999998      2.0249999999999999                   20.25
  1625   1      16.199999999999999                       0      24.299999999999997
  1626   1      16.199999999999999      2.0249999999999999      26.324999999999996
  1627   1      18.224999999999998                       0      26.324999999999996
  1628   1      18.224999999999998      2.0249999999999999      24.299999999999997
  1629   1      16.199999999999999                       0      28.349999999999998
  1630   1      16.199999999999999      2.0249999999999999      30.374999999999996
  1631   1      18.224999999999998                       0      30.374999999999996
  1632   1      18.224999999999998      2.0249999999999999      28.349999999999998
  1633   1      16.199999999999999                       0      32.399999999999999
  1634   1      16.199999999999999      2.0249999999999999      34.424999999999997
  1635   1      18.224999999999998                       0      34.424999999999997
  1636   1      18.224999999999998      2.0249999999999999      32.399999999999999
  1637   1      16.199999999999999                       0      36.449999999999996
  1638   1      16.199999999999999      2.0249999999999999      38.474999999999994
  1639   1      18.224999999999998                       0      38.474999999999994
  1640   1      18.224999999999998      2.0249999999999999      36.449999999999996
  1641   1      16.199999999999999      4.0499999999999998                       0
  1642   1      16.199999999999999      6.0749999999999993      2.0249999999999999
  1643   1      18.224999999999998      4.0499999999999998      2.0249999999999999
  1644   1      18.224999999999998      6.0749999999999993                       0
  1645   1      16.199999999999999      4.0499999999999998      4.0499999999999998
  1646   1      16.199999999999999      6.0749999999999993      6.0749999999999993
  1647   1      18.224999999999998      4.0499999999999998      6.0749999999999993
  1648   1      18.224999999999998      6.0749999999999993      4.0499999999999998
  1649   1      16.199999999999999      4.0499999999999998      8.0999999999999996
  1650   1      16.199999999999999      6.0749999999999993                  10.125
  1651   1      18.224999999999998      4.0499999999999998                  10.125
  1652   1      18.224999999999998      6.0749999999999993      8.0999999999999996
  1653   1      16.199999999999999      4.0499999999999998      12.149999999999999
  1654   1      16.199999999999999      6.0749999999999993      14.174999999999999
  1655   1      18.224999999999998      4.0499999999999998      14.174999999999999
  1656   1      18.224999999999998      6.0749999999999993      12.149999999999999
  1657   1      16.199999999999999      4.0499999999999998      16.199999999999999
  1658   1      16.199999999999999      6.0749999999999993      18.224999999999998
  1659   1      18.224999999999998      4.0499999999999998      18.224999999999998
  1660   1      18.224999999999998      6.0749999999999993      16.199999999999999
  1661   1      16.199999999999999      4.0499999999999998                   20.25
  1662   1      16.199999999999999      6.0749999999999993      22.274999999999999
  1663   1      18.224999999999998      4.0499999999999998      22.274999999999999
  1664   1      18.224999999999998      6.0749999999999993                   20.25
  1665   1      16.199999999999999      4.0499999999999998      24.299999999999997
  1666   1      16.199999999999999      6.0749999999999993      26.324999999999996
  1667   1      18.224999999999998      4.0499999999999998      26.324999999999996
  1668   1      18.224999999999998      6.0749999999999993      24.299999999999997
  1669   1      16.199999999999999      4.0499999999999998      28.349999999999998
  1670   1      16.199999999999999      6.0749999999999993      30.374999999999996
  1671   1      18.224999999999998      4.0499999999999998      30.374999999999996
  1672   1      18.224999999999998      6.0749999999999993      28.349999999999998
  1673   1      16.199999999999999      4.0499999999999998      32.399999999999999
  1674   1      16.199999999999999      6.0749999999999993      34.424999999999997
  1675   1      18.224999999999998      4.0499999999999998      34.424999999999997
  1676   1      18.224999999999998      6.0749999999999993      32.399999999999999
  1677   1      16.199999999999999      4.0499999999999998      36.449999999999996
  1678   1      16.199999999999999      6.0749999999999993      38.474999999999994
  1679   1      18.224999999999998      4.0499999999999998      38.474999999999994
  1680   1      18.224999999999998      6.0749999999999993      36.449999999999996
  1681   1      16.199999999999999      8.0999999999999996                       0
  1682   1      16.199999999999999                  10.125      2.0249999999999999
  1683   1      18.224999999999998      8.0999999999999996      2.0249999999999999
  1684   1      18.224999999999998                  10.125                       0
  1685   1      16.199999999999999      8.0999999999999996      4.0499999999999998
  1686   1      16.199999999999999                  10.125      6.0749999999999993
  1687   1      18.224999999999998      8.0999999999999996      6.0749999999999993
  1688   1      18.224999999999998                  10.125      4.0499999999999998
  1689   1      16.199999999999999      8.0999999999999996      8.0999999999999996
  1690   1      16.199999999999999                  10.125                  10.125
  1691   1      18.224999999999998      8.0999999999999996                  10.125
  1692   1      18.224999999999998                  10.125      8.0999999999999996
  1693   1      16.199999999999999      8.0999999999999996      12.149999999999999
  1694   1      16.199999999999999                  10.125      14.174999999999999
  1695   1      18.224999999999998      8.0999999999999996      14.174999999999999
  1696   1      18.224999999999998                  10.125      12.149999999999999
  1697   1      16.199999999999999      8.0999999999999996      16.199999999999999
  1698   1      16.199999999999999                  10.125      18.224999999999998
  1699   1      18.224999999999998      8.0999999999999996      18.224999999999998
  1700   1      18.224999999999998                  10.125      16.199999999999999
  1701   1      16.199999999999999      8.0999999999999996                   20.25
  1702   1      16.199999999999999                  10.125      22.274999999999999
  1703   1      18.224999999999998      8.0999999999999996      22.274999999999999
  1704   1      18.224999999999998                  10.125                   20.25
  1705   1      16.199999999999999      8.0999999999999996      24.299999999999997
  1706   1      16.199999999999999                  10.125      26.324999999999996
  1707   1      18.224999999999998      8.0999999999999996      26.324999999999996
  1708   1      18.224999999999998                  10.125      24.299999999999997
  1709   1      16.199999999999999      8.0999999999999996      28.349999999999998
  1710   1      16.199999999999999                  10.125      30.374999999999996
  1711   1      18.224999999999998      8.0999999999999996      30.374999999999996
  1712   1      18.224999999999998                  10.125      28.349999999999998
  1713   1      16.199999999999999      8.0999999999999996      32.399999999999999
  1714   1      16.199999999999999                  10.125      34.424999999999997
  1715   1      18.224999999999998      8.0999999999999996      34.424999999999997
  1716   1      18.224999999999998                  10.125      32.399999999999999
  1717   1      16.199999999999999      8.0999999999999996      36.449999999999996
  1718   1      16.199999999999999                  10.125      38.474999999999994
  1719   1      18.224999999999998      8.0999999999999996      38.474999999999994
  1720   1      18.224999999999998                  10.125      36.449999999999996
  1721   1      16.199999999999999      12.149999999999999                       0
  1722   1      16.199999999999999      14.174999999999999      2.0249999999999999
  1723   1      18.224999999999998      12.149999999999999      2.0249999999999999
  1724   1      18.224999999999998      14.174999999999999                       0
  1725   1      16.199999999999999      12.149999999999999      4.0499999999999998
  1726   1      16.199999999999999      14.174999999999999      6.0749999999999993
  1727   1      18.224999999999998      12.149999999999999      6.0749999999999993
  1728   1      18.224999999999998      14.174999999999999      4.0499999999999998
  1729   1      16.199999999999999      12.149999999999999      8.0999999999999996
  1730   1      16.199999999999999      14.174999999999999                  10.125
  1731   1      18.224999999999998      12.149999999999999                  10.125
  1732   1      18.224999999999998      14.174999999999999      8.0999999999999996
  1733   1      16.199999999999999      12.149999999999999      12.149999999999999
  1734   1      16.199999999999999      14.174999999999999      14.174999999999999
  1735   1      18.224999999999998      12.149999999999999      14.174999999999999
  1736   1      18.224999999999998      14.174999999999999      12.149999999999999
  1737   1      16.199999999999999      12.149999999999999      16.199999999999999
  1738   1      16.199999999999999      14.174999999999999      18.224999999999998
  1739   1      18.224999999999998      12.149999999999999      18.224999999999998
  1740   1      18.224999999999998      14.174999999999999      16.199999999999999
  1741   1      16.199999999999999      12.149999999999999                   20.25
  1742   1      16.199999999999999      14.174999999999999      22.274999999999999
  1743   1      18.224999999999998      12.149999999999999      22.274999999999999
  1744   1      18.224999999999998      14.174999999999999                   20.25
  1745   1      16.199999999999999      12.149999999999999      24.299999999999997
  1746   1      16.199999999999999      14.174999999999999      26.324999999999996
  1747   1      18.224999999999998      12.149999999999999      26.324999999999996
  1748   1      18.224999999999998      14.174999999999999      24.299999999999997
  1749   1      16.199999999999999      12.149999999999999      28.349999999999998
  1750   1      16.199999999999999      14.174999999999999      30.374999999999996
  1751   1      18.224999999999998      12.149999999999999      30.374999999999996
  1752   1      18.224999999999998      14.174999999999999      28.349999999999998
  1753   1      16.199999999999999      12.149999999999999      32.399999999999999
  1754   1      16.199999999999999      14.174999999999999      34.424999999999997
  1755   1      18.224999999999998      12.149999999999999      34.424999999999997
  1756   1      18.224999999999998      14.174999999999999      32.399999999999999
  1757   1      16.199999999999999      12.149999999999999      36.449999999999996
  1758   1      16.199999999999999      14.174999999999999      38.474999999999994
  1759   1      18.224999999999998      12.149999999999999      38.474999999999994
  1760   1      18.224999999999998      14.174999999999999      36.449999999999996
  1761   1      16.199999999999999      16.199999999999999                       0
  1762   1      16.199999999999999      18.224999999999998      2.0249999999999999
  1763   1      18.224999999999998      16.199999999999999      2.0249999999999999
  1764   1      18.224999999999998      18.224999999999998                       0
  1765   1      16.199999999999999      16.199999999999999      4.0499999999999998
  1766   1      16.199999999999999      18.224999999999998      6.0749999999999993
  1767   1      18.224999999999998      16.199999999999999      6.0749999999999993
  1768   1      18.224999999999998      18.224999999999998      4.0499999999999998
  1769   1      16.199999999999999      16.199999999999999      8.0999999999999996
  1770   1      16.199999999999999      18.224999999999998                  10.125
  1771   1      18.224999999999998      16.199999999999999                  10.125
  1772   1      18.224999999999998      18.224999999999998      8.0999999999999996
  1773   1      16.199999999999999      16.199999999999999      12.149999999999999
  1774   1      16.199999999999999      18.224999999999998      14.174999999999999
  1775   1      18.224999999999998      16.199999999999999      14.174999999999999
  1776   1      18.224999999999998      18.224999999999998      12.149999999999999
  1777   1      16.199999999999999      16.199999999999999      16.199999999999999
  1778   1      16.199999999999999      18.224999999999998      18.224999999999998
  1779   1      18.224999999999998      16.199999999999999      18.224999999999998
  1780   1      18.224999999999998      18.224999999999998      16.199999999999999
  1781   1      16.199999999999999      16.199999999999999                   20.25
  1782   1      16.199999999999999      18.224999999999998      22.274999999999999
  1783   1      18.224999999999998      16.199999999999999      22.274999999999999
  1784   1      18.224999999999998      18.224999999999998                   20.25
  1785   1      16.199999999999999      16.199999999999999      24.299999999999997
  1786   1      16.199999999999999      18.224999999999998      26.324999999999996
  1787   1      18.224999999999998      16.199999999999999      26.324999999999996
  1788   1      18.224999999999998      18.224999999999998      24.299999999999997
  1789   1      16.199999999999999      16.199999999999999      28.349999999999998
  1790   1      16.199999999999999      18.224999999999998      30.374999999999996
  1791   1      18.224999999999998      16.199999999999999      30.374999999999996
  1792   1      18.224999999999998      18.224999999999998      28.349999999999998
  1793   1      16.199999999999999      16.199999999999999      32.399999999999999
  1794   1      16.199999999999999      18.224999999999998      34.424999999999997
  1795   1      18.224999999999998      16.199999999999999      34.424999999999997
  1796   1      18.224999999999998      18.224999999999998      32.399999999999999
  1797   1      16.199999999999999      16.199999999999999      36.449999999999996
  1798   1      16.199999999999999      18.224999999999998      38.474999999999994
  1799   1      18.224999999999998      16.199999999999999      38.474999999999994
  1800   1      18.224999999999998      18.224999999999998      36.449999999999996
  1801   1      16.199999999999999                   20.25                       0
  1802   1      16.199999999999999      22.274999999999999      2.0249999999999999
  1803   1      18.224999999999998                   20.25      2.0249999999999999
  1804   1      18.224999999999998      22.274999999999999                       0
  1805   1      16.199999999999999                   20.25      4.0499999999999998
  1806   1      16.199999999999999      22.274999999999999      6.0749999999999993
  1807   1      18.224999999999998                   20.25      6.0749999999999993
  1808   1      18.224999999999998      22.274999999999999      4.0499999999999998
  1809   1      16.199999999999999                   20.25      8.0999999999999996
  1810   1      16.199999999999999      22.274999999999999                  10.125
  1811   1      18.224999999999998                   20.25                  10.125
  1812   1      18.224999999999998      22.274999999999999      8.0999999999999996
  1813   1      16.199999999999999                   20.25      12.149999999999999
  1814   1      16.199999999999999      22.274999999999999      14.174999999999999
  1815   1      18.224999999999998                   20.25      14.174999999999999
  1816   1      18.224999999999998      22.274999999999999      12.149999999999999
  1817   1      16.199999999999999                   20.25      16.199999999999999
  1818   1      16.199999999999999      22.274999999999999      18.224999999999998
  1819   1      18.224999999999998                   20.25      18.224999999999998
  1820   1      18.224999999999998      22.274999999999999      16.199999999999999
  1821   1      16.199999999999999                   20.25                   20.25
  1822   1      16.199999999999999      22.274999999999999      22.274999999999999
  1823   1      18.224999999999998                   20.25      22.274999999999999
  1824   1      18.224999999999998      22.274999999999999                   20.25
  1825   1      16.199999999999999                   20.25      24.299999999999997
  1826   1      16.199999999999999      22.274999999999999      26.324999999999996
  1827   1      18.224999999999998                   20.25      26.324999999999996
  1828   1      18.224999999999998      22.274999999999999      24.299999999999997
  1829   1      16.199999999999999                   20.25      28.349999999999998
  1830   1      16.199999999999999      22.274999999999999      30.374999999999996
  1831   1      18.224999999999998                   20.25      30.374999999999996
  1832   1      18.224999999999998      22.274999999999999      28.349999999999998
  1833   1      16.199999999999999                   20.25      32.399999999999999
  1834   1      16.199999999999999      22.274999999999999      34.424999999999997
  1835   1      18.224999999999998                   20.25      34.424999999999997
  1836   1      18.224999999999998      22.274999999999999      32.399999999999999
  1837   1      16.199999999999999                   20.25      36.449999999999996
  1838   1      16.199999999999999      22.274999999999999      38.474999999999994
  1839   1      18.224999999999998                   20.25      38.474999999999994
  1840   1      18.224999999999998      22.274999999999999      36.449999999999996
  1841   1      16.199999999999999      24.299999999999997                       0
  1842   1      16.199999999999999      26.324999999999996      2.0249999999999999
  1843   1      18.224999999999998      24.299999999999997      2.0249999999999999
  1844   1      18.224999999999998      26.324999999999996                       0
  1845   1      16.199999999999999      24.299999999999997      4.0499999999999998
  1846   1      16.199999999999999      26.324999999999996      6.0749999999999993
  1847   1      18.224999999999998      24.299999999999997      6.0749999999999993
  1848   1      18.224999999999998      26.324999999999996      4.0499999999999998
  1849   1      16.199999999999999      24.299999999999997      8.0999999999999996
  1850   1      16.199999999999999      26.324999999999996                  10.125
  1851   1      18.224999999999998      24.299999999999997                  10.125
  1852   1      18.224999999999998      26.324999999999996      8.0999999999999996
  1853   1      16.199999999999999      24.299999999999997      12.149999999999999
  1854   1      16.199999999999999      26.324999999999996      14.174999999999999
  1855   1      18.224999999999998      24.299999999999997      14.174999999999999
  1856   1      18.224999999999998      26.324999999999996      12.149999999999999
  1857   1      16.199999999999999      24.299999999999997      16.199999999999999
  1858   1      16.199999999999999      26.324999999999996      18.224999999999998
  1859   1      18.224999999999998      24.299999999999997      18.224999999999998
  1860   1      18.224999999999998      26.324999999999996      16.199999999999999
  1861   1      16.199999999999999      24.299999999999997                   20.25
  1862   1      16.199999999999999      26.324999999999996      22.274999999999999
  1863   1      18.224999999999998      24.299999999999997      22.274999999999999
  1864   1      18.224999999999998      26.324999999999996                   20.25
  1865   1      16.199999999999999      24.299999999999997      24.299999999999997
  1866   1      16.199999999999999      26.324999999999996      26.324999999999996
  1867   1      18.224999999999998      24.299999999999997      26.324999999999996
  1868   1      18.224999999999998      26.324999999999996      24.299999999999997
  1869   1      16.199999999999999      24.299999999999997      28.349999999999998
  1870   1      16.199999999999999      26.324999999999996      30.374999999999996
  1871   1      18.224999999999998      24.299999999999997      30.374999999999996
  1872   1      18.224999999999998      26.324999999999996      28.349999999999998
  1873   1      16.199999999999999      24.299999999999997      32.399999999999999
  1874   1      16.199999999999999      26.324999999999996      34.424999999999997
  1875   1      18.224999999999998      24.299999999999997      34.424999999999997
  1876   1      18.224999999999998      26.324999999999996      32.399999999999999
  1877   1      16.199999999999999      24.299999999999997      36.449999999999996
  1878   1      16.199999999999999      26.324999999999996      38.474999999999994
  1879   1      18.224999999999998      24.299999999999997      38.474999999999994
  1880   1      18.224999999999998      26.324999999999996      36.449999999999996
  1881   1      16.199999999999999      28.349999999999998                       0
  1882   1      16.199999999999999      30.374999999999996      2.0249999999999999
  1883   1      18.224999999999998      28.349999999999998      2.0249999999999999
  1884   1      18.224999999999998      30.374999999999996                       0
  1885   1      16.199999999999999      28.349999999999998      4.0499999999999998
  1886   1      16.199999999999999      30.374999999999996      6.0749999999999993
  1887   1      18.224999999999998      28.349999999999998      6.0749999999999993
  1888   1      18.224999999999998      30.374999999999996      4.0499999999999998
  1889   1      16.199999999999999      28.349999999999998      8.0999999999999996
  1890   1      16.199999999999999      30.374999999999996                  10.125
  1891   1      18.224999999999998      28.349999999999998                  10.125
  1892   1      18.224999999999998      30.374999999999996      8.0999999999999996
  1893   1      16.199999999999999      28.349999999999998      12.149999999999999
  1894   1      16.199999999999999      30.374999999999996      14.174999999999999
  1895   1      18.224999999999998      28.349999999999998      14.174999999999999
  1896   1      18.224999999999998      30.374999999999996      12.149999999999999
  1897   1      16.199999999999999      28.349999999999998      16.199999999999999
  1898   1      16.199999999999999      30.374999999999996      18.224999999999998
  1899   1      18.224999999999998      28.349999999999998      18.224999999999998
  1900   1      18.224999999999998      30.374999999999996      16.199999999999999
  1901   1      16.199999999999999      28.349999999999998                   20.25
  1902   1      16.199999999999999      30.374999999999996      22.274999999999999
  1903   1      18.224999999999998      28.349999999999998      22.274999999999999
  1904   1      18.224999999999998      30.374999999999996                   20.25
  1905   1      16.199999999999999      28.349999999999998      24.299999999999997
  1906   1      16.199999999999999      30.374999999999996      26.324999999999996
  1907   1      18.224999999999998      28.349999999999998      26.324999999999996
  1908   1      18.224999999999998      30.374999999999996      24.299999999999997
  1909   1      16.199999999999999      28.349999999999998      28.349999999999998
  1910   1      16.199999999999999      30.374999999999996      30.374999999999996
  1911   1      18.224999999999998      28.349999999999998      30.374999999999996
  1912   1      18.224999999999998      30.374999999999996      28.349999999999998
  1913   1      16.199999999999999      28.349999999999998      32.399999999999999
  1914   1      16.199999999999999      30.374999999999996      34.424999999999997
  1915   1      18.224999999999998      28.349999999999998      34.424999999999997
  1916   1      18.224999999999998      30.374999999999996      32.399999999999999
  1917   1      16.199999999999999      28.349999999999998      36.449999999999996
  1918   1      16.199999999999999      30.374999999999996      38.474999999999994
  1919   1      18.224999999999998      28.349999999999998      38.474999999999994
  1920   1      18.224999999999998      30.374999999999996      36.449999999999996
  1921   1      16.199999999999999      32.399999999999999                       0
  1922   1      16.199999999999999      34.424999999999997      2.0249999999999999
  1923   1      18.224999999999998      32.399999999999999      2.0249999999999999
  1924   1      18.224999999999998      34.424999999999997                       0
  1925   1      16.199999999999999      32.399999999999999      4.0499999999999998
  1926   1      16.199999999999999      34.424999999999997      6.0749999999999993
  1927   1      18.224999999999998      32.399999999999999      6.0749999999999993
  1928   1      18.224999999999998      34.424999999999997      4.0499999999999998
  1929   1      16.199999999999999      32.399999999999999      8.0999999999999996
  1930   1      16.199999999999999      34.424999999999997                  10.125
  1931   1      18.224999999999998      32.399999999999999                  10.125
  1932   1      18.224999999999998      34.424999999999997      8.0999999999999996
  1933   1      16.199999999999999      32.399999999999999      12.149999999999999
  1934   1      16.199999999999999      34.424999999999997      14.174999999999999
  1935   1      18.224999999999998      32.399999999999999      14.174999999999999
  1936   1      18.224999999999998      34.424999999999997      12.149999999999999
  1937   1      16.199999999999999      32.399999999999999      16.199999999999999
  1938   1      16.199999999999999      34.424999999999997      18.224999999999998
  1939   1      18.224999999999998      32.399999999999999      18.224999999999998
  1940   1      18.224999999999998      34.424999999999997      16.199999999999999
  1941   1      16.199999999999999      32.399999999999999                   20.25
  1942   1      16.199999999999999      34.424999999999997      22.274999999999999
  1943   1      18.224999999999998      32.399999999999999      22.274999999999999
  1944   1      18.224999999999998      34.424999999999997                   20.25
  1945   1      16.199999999999999      32.399999999999999      24.299999999999997
  1946   1      16.199999999999999      34.424999999999997      26.324999999999996
  1947   1      18.224999999999998      32.399999999999999      26.324999999999996
  1948   1      18.224999999999998      34.424999999999997      24.299999999999997
  1949   1      16.199999999999999      32.399999999999999      28.349999999999998
  1950   1      16.199999999999999      34.424999999999997      30.374999999999996
  1951   1      18.224999999999998      32.399999999999999      30.374999999999996
  1952   1      18.224999999999998      34.424999999999997      28.349999999999998
  1953   1      16.199999999999999      32.399999999999999      32.399999999999999
  1954   1      16.199999999999999      34.424999999999997      34.424999999999997
  1955   1      18.224999999999998      32.399999999999999      34.424999999999997
  1956   1      18.224999999999998      34.424999999999997      32.399999999999999
  1957   1      16.199999999999999      32.399999999999999      36.449999999999996
  1958   1      16.199999999999999      34.424999999999997      38.474999999999994
  1959   1      18.224999999999998      32.399999999999999      38.474999999999994
  1960   1      18.224999999999998      34.424999999999997      36.449999999999996
  1961   1      16.199999999999999      36.449999999999996                       0
  1962   1      16.199999999999999      38.474999999999994      2.0249999999999999
  1963   1      18.224999999999998      36.449999999999996      2.0249999999999999
  1964   1      18.224999999999998      38.474999999999994                       0
  1965   1      16.199999999999999      36.449999999999996      4.0499999999999998
  1966   1      16.199999999999999      38.474999999999994      6.0749999999999993
  1967   1      18.224999999999998      36.449999999999996      6.0749999999999993
  1968   1      18.224999999999998      38.474999999999994      4.0499999999999998
  1969   1      16.199999999999999      36.449999999999996      8.0999999999999996
  1970   1      16.199999999999999      38.474999999999994                  10.125
  1971   1      18.224999999999998      36.449999999999996                  10.125
  1972   1      18.224999999999998      38.474999999999994      8.0999999999999996
  1973   1      16.199999999999999      36.449999999999996      12.149999999999999
  1974   1      16.199999999999999      38.474999999999994      14.174999999999999
  1975   1      18.224999999999998      36.449999999999996      14.174999999999999
  1976   1      18.224999999999998      38.474999999999994      12.149999999999999
  1977   1      16.199999999999999      36.449999999999996      16.199999999999999
  1978   1      16.199999999999999      38.474999999999994      18.224999999999998
  1979   1      18.224999999999998      36.449999999999996      18.224999999999998
  1980   1      18.224999999999998      38.474999999999994      16.199999999999999
  1981   1      16.199999999999999      36.449999999999996                   20.25
  1982   1      16.199999999999999      38.474999999999994      22.274999999999999
  1983   1      18.224999999999998      36.449999999999996      22.274999999999999
  1984   1      18.224999999999998      38.474999999999994                   20.25
  1985   1      16.199999999999999      36.449999999999996      24.299999999999997
  1986   1      16.199999999999999      38.474999999999994      26.324999999999996
  1987   1      18.224999999999998      36.449999999999996      26.324999999999996
  1988   1      18.224999999999998      38.474999999999994      24.299999999999997
  1989   1      16.199999999999999      36.449999999999996      28.349999999999998
  1990   1      16.199999999999999      38.474999999999994      30.374999999999996
  1991   1      18.224999999999998      36.449999999999996      30.374999999999996
  1992   1      18.224999999999998      38.474999999999994      28.349999999999998
  1993   1      16.199999999999999      36.449999999999996      32.399999999999999
  1994   1      16.199999999999999      38.474999999999994      34.424999999999997
  1995   1      18.224999999999998      36.449999999999996      34.424999999999997
  1996   1      18.224999999999998      38.474999999999994      32.399999999999999
  1997   1      16.199999999999999      36.449999999999996      36.449999999999996
  1998   1      16.199999999999999      38.474999999999994      38.474999999999994
  1999   1      18.224999999999998      36.449999999999996      38.474999999999994
  2000   1      18.224999999999998      38.474999999999994      36.449999999999996
  2001   1                   20.25                       0                       0
  2002   1                   20.25      2.0249999999999999      2.0249999999999999
  2003   1      22.274999999999999                       0      2.0249999999999999
  2004   1      22.274999999999999      2.0249999999999999                       0
  2005   1                   20.25                       0      4.0499999999999998
  2006   1                   20.25      2.0249999999999999      6.0749999999999993
  2007   1      22.274999999999999                       0      6.0749999999999993
  2008   1      22.274999999999999      2.0249999999999999      4.0499999999999998
  2009   1                   20.25                       0      8.0999999999999996
  2010   1                   20.25      2.0249999999999999                  10.125
  2011   1      22.274999999999999                       0                  10.125
  2012   1      22.274999999999999      2.0249999999999999      8.0999999999999996
  2013   1                   20.25                       0      12.149999999999999
  2014   1                   20.25      2.0249999999999999      14.174999999999999
  2015   1      22.274999999999999                       0      14.174999999999999
  2016   1      22.274999999999999      2.0249999999999999      12.149999999999999
  2017   1                   20.25                       0      16.199999999999999
  2018   1                   20.25      2.0249999999999999      18.224999999999998
  2019   1      22.274999999999999                       0      18.224999999999998
  2020   1      22.274999999999999      2.0249999999999999      16.199999999999999
  2021   1                   20.25                       0                   20.25
  2022   1                   20.25      2.0249999999999999      22.274999999999999
  2023   1      22.274999999999999                       0      22.274999999999999
  2024   1      22.274999999999999      2.0249999999999999                   20.25
  2025   1                   20.25                       0      24.299999999999997
  2026   1                   20.25      2.0249999999999999      26.324999999999996
  2027   1      22.274999999999999                       0      26.324999999999996
  2028   1      22.274999999999999      2.0249999999999999      24.299999999999997
  2029   1                   20.25                       0      28.349999999999998
  2030   1                   20.25      2.0249999999999999      30.374999999999996
  2031   1      22.274999999999999                       0      30.374999999999996
  2032   1      22.274999999999999      2.0249999999999999      28.349999999999998
  2033   1                   20.25                       0      32.399999999999999
  2034   1                   20.25      2.0249999999999999      34.424999999999997
  2035   1      22.274999999999999                       0      34.424999999999997
  2036   1      22.274999999999999      2.0249999999999999      32.399999999999999
  2037   1                   20.25                       0      36.449999999999996
  2038   1                   20.25      2.0249999999999999      38.474999999999994
  2039   1      22.274999999999999                       0      38.474999999999994
  2040   1      22.274999999999999      2.0249999999999999      36.449999999999996
  2041   1                   20.25      4.0499999999999998                       0
  2042   1                   20.25      6.0749999999999993      2.0249999999999999
  2043   1      22.274999999999999      4.0499999999999998      2.0249999999999999
  2044   1      22.274999999999999      6.0749999999999993                       0
  2045   1                   20.25      4.0499999999999998      4.0499999999999998
  2046   1                   20.25      6.0749999999999993      6.0749999999999993
  2047   1      22.274999999999999      4.0499999999999998      6.0749999999999993
  2048   1      22.274999999999999      6.0749999999999993      4.0499999999999998
  2049   1                   20.25      4.0499999999999998      8.0999999999999996
  2050   1                   20.25      6.0749999999999993                  10.125
  2051   1      22.274999999999999      4.0499999999999998                  10.125
  2052   1      22.274999999999999      6.0749999999999993      8.0999999999999996
  2053   1                   20.25      4.0499999999999998      12.149999999999999
  2054   1                   20.25      6.0749999999999993      14.174999999999999
  2055   1      22.274999999999999      4.0499999999999998      14.174999999999999
  2056   1      22.274999999999999      6.0749999999999993      12.149999999999999
  2057   1                   20.25      4.0499999999999998      16.199999999999999
  2058   1                   20.25      6.0749999999999993      18.224999999999998
  2059   1      22.274999999999999      4.0499999999999998      18.224999999999998
  2060   1      22.274999999999999      6.0749999999999993      16.199999999999999
  2061   1                   20.25      4.0499999999999998                   20.25
  2062   1                   20.25      6.0749999999999993      22.274999999999999
  2063   1      22.274999999999999      4.0499999999999998      22.274999999999999
  2064   1      22.274999999999999      6.0749999999999993                   20.25
  2065   1                   20.25      4.0499999999999998      24.299999999999997
  2066   1                   20.25      6.0749999999999993      26.324999999999996
  2067   1      22.274999999999999      4.0499999999999998      26.324999999999996
  2068   1      22.274999999999999      6.0749999999999993      24.299999999999997
  2069   1                   20.25      4.0499999999999998      28.349999999999998
  2070   1                   20.25      6.0749999999999993      30.374999999999996
  2071   1      22.274999999999999      4.0499999999999998      30.374999999999996
  2072   1      22.274999999999999      6.0749999999999993      28.349999999999998
  2073   1                   20.25      4.0499999999999998      32.399999999999999
  2074   1                   20.25      6.0749999999999993      34.424999999999997
  2075   1      22.274999999999999      4.0499999999999998      34.424999999999997
  2076   1      22.274999999999999      6.0749999999999993      32.399999999999999
  2077   1                   20.25      4.0499999999999998      36.449999999999996
  2078   1                   20.25      6.0749999999999993      38.474999999999994
  2079   1      22.274999999999999      4.0499999999999998      38.474999999999994
  2080   1      22.274999999999999      6.0749999999999993      36.449999999999996
  2081   1                   20.25      8.0999999999999996                       0
  2082   1                   20.25                  10.125      2.0249999999999999
  2083   1      22.274999999999999      8.0999999999999996      2.0249999999999999
  2084   1      22.274999999999999                  10.125                       0
  2085   1                   20.25      8.0999999999999996      4.0499999999999998
  2086   1                   20.25                  10.125      6.0749999999999993
  2087   1      22.274999999999999      8.0999999999999996      6.0749999999999993
  2088   1      22.274999999999999                  10.125      4.0499999999999998
  2089   1                   20.25      8.0999999999999996      8.0999999999999996
  2090   1                   20.25                  10.125                  10.125
  2091   1      22.274999999999999      8.0999999999999996                  10.125
  2092   1      22.274999999999999                  10.125      8.0999999999999996
  2093   1                   20.25      8.0999999999999996      12.149999999999999
  2094   1                   20.25                  10.125      14.174999999999999
  2095   1      22.274999999999999      8.0999999999999996      14.174999999999999
  2096   1      22.274999999999999                  10.125      12.149999999999999
  2097   1                   20.25      8.0999999999999996      16.199999999999999
  2098   1                   20.25                  10.125      18.224999999999998
  2099   1      22.274999999999999      8.0999999999999996      18.224999999999998
  2100   1      22.274999999999999                  10.125      16.199999999999999
  2101   1                   20.25      8.0999999999999996                   20.25
  2102   1                   20.25                  10.125      22.274999999999999
  2103   1      22.274999999999999      8.0999999999999996      22.274999999999999
  2104   1      22.274999999999999                  10.125                   20.25
  2105   1                   20.25      8.0999999999999996      24.299999999999997
  2106   1                   20.25                  10.125      26.324999999999996
  2107   1      22.274999999999999      8.0999999999999996      26.324999999999996
  2108   1      22.274999999999999                  10.125      24.299999999999997
  2109   1                   20.25      8.0999999999999996      28.349999999999998
  2110   1                   20.25                  10.125      30.374999999999996
  2111   1      22.274999999999999      8.0999999999999996      30.374999999999996
  2112   1      22.274999999999999                  10.125      28.349999999999998
  2113   1                   20.25      8.0999999999999996      32.399999999999999
  2114   1                   20.25                  10.125      34.424999999999997
  2115   1      22.274999999999999      8.0999999999999996      34.424999999999997
  2116   1      22.274999999999999                  10.125      32.399999999999999
  2117   1                   20.25      8.0999999999999996      36.449999999999996
  2118   1                   20.25                  10.125      38.474999999999994
  2119   1      22.274999999999999      8.0999999999999996      38.474999999999994
  2120   1      22.274999999999999                  10.125      36.449999999999996
  2121   1                   20.25      12.149999999999999                       0
  2122   1                   20.25      14.174999999999999      2.0249999999999999
  2123   1      22.274999999999999      12.149999999999999      2.0249999999999999
  2124   1      22.274999999999999      14.174999999999999                       0
  2125   1                   20.25      12.149999999999999      4.0499999999999998
  2126   1                   20.25      14.174999999999999      6.0749999999999993
  2127   1      22.274999999999999      12.149999999999999      6.0749999999999993
  2128   1      22.274999999999999      14.174999999999999      4.0499999999999998
  2129   1                   20.25      12.149999999999999      8.0999999999999996
  2130   1                   20.25      14.174999999999999                  10.125
  2131   1      22.274999999999999      12.149999999999999                  10.125
  2132   1      22.274999999999999      14.174999999999999      8.0999999999999996
  2133   1                   20.25      12.149999999999999      12.149999999999999
  2134   1                   20.25      14.174999999999999      14.174999999999999
  2135   1      22.274999999999999      12.149999999999999      14.174999999999999
  2136   1      22.274999999999999      14.174999999999999      12.149999999999999
  2137   1                   20.25      12.149999999999999      16.199999999999999
  2138   1                   20.25      14.174999999999999      18.224999999999998
  2139   1      22.274999999999999      12.149999999999999      18.224999999999998
  2140   1      22.274999999999999      14.174999999999999      16.199999999999999
  2141   1                   20.25      12.149999999999999                   20.25
  2142   1                   20.25      14.174999999999999      22.274999999999999
  2143   1      22.274999999999999      12.149999999999999      22.274999999999999
  2144   1      22.274999999999999      14.174999999999999                   20.25
  2145   1                   20.25      12.149999999999999      24.299999999999997
  2146   1                   20.25      14.174999999999999      26.324999999999996
  2147   1      22.274999999999999      12.149999999999999      26.324999999999996
  2148   1      22.274999999999999      14.174999999999999      24.299999999999997
  2149   1                   20.25      12.149999999999999      28.349999999999998
  2150   1                   20.25      14.174999999999999      30.374999999999996
  2151   1      22.274999999999999      12.149999999999999      30.374999999999996
  2152   1      22.274999999999999      14.174999999999999      28.349999999999998
  2153   1                   20.25      12.149999999999999      32.399999999999999
  2154   1                   20.25      14.174999999999999      34.424999999999997
  2155   1      22.274999999999999      12.149999999999999      34.424999999999997
  2156   1      22.274999999999999      14.174999999999999      32.399999999999999
  2157   1                   20.25      12.149999999999999      36.449999999999996
  2158   1                   20.25      14.174999999999999      38.474999999999994
  2159   1      22.274999999999999      12.149999999999999      38.474999999999994
  2160   1      22.274999999999999      14.174999999999999      36.449999999999996
  2161   1                   20.25      16.199999999999999                       0
  2162   1                   20.25      18.224999999999998      2.0249999999999999
  2163   1      22.274999999999999      16.199999999999999      2.0249999999999999
  2164   1      22.274999999999999      18.224999999999998                       0
  2165   1                   20.25      16.199999999999999      4.0499999999999998
  2166   1                   20.25      18.224999999999998      6.0749999999999993
  2167   1      22.274999999999999      16.199999999999999      6.0749999999999993
  2168   1      22.274999999999999      18.224999999999998      4.0499999999999998
  2169   1                   20.25      16.199999999999999      8.0999999999999996
  2170   1                   20.25      18.224999999999998                  10.125
  2171   1      22.274999999999999      16.199999999999999                  10.125
  2172   1      22.274999999999999      18.224999999999998      8.0999999999999996
  2173   1                   20.25      16.199999999999999      12.149999999999999
  2174   1                   20.25      18.224999999999998      14.174999999999999
  2175   1      22.274999999999999      16.199999999999999      14.174999999999999
  2176   1      22.274999999999999      18.224999999999998      12.149999999999999
  2177   1                   20.25      16.199999999999999      16.199999999999999
  2178   1                   20.25      18.224999999999998      18.224999999999998
  2179   1      22.274999999999999      16.199999999999999      18.224999999999998
  2180   1      22.274999999999999      18.224999999999998      16.199999999999999
  2181   1                   20.25      16.199999999999999                   20.25
  2182   1                   20.25      18.224999999999998      22.274999999999999
  2183   1      22.274999999999999      16.199999999999999      22.274999999999999
  2184   1      22.274999999999999      18.224999999999998                   20.25
  2185   1                   20.25      16.199999999999999      24.299999999999997
  2186   1                   20.25      18.224999999999998      26.324999999999996
  2187   1      22.274999999999999      16.199999999999999      26.324999999999996
  2188   1      22.274999999999999      18.224999999999998      24.299999999999997
  2189   1                   20.25      16.199999999999999      28.349999999999998
  2190   1                   20.25      18.224999999999998      30.374999999999996
  2191   1      22.274999999999999      16.199999999999999      30.374999999999996
  2192   1      22.274999999999999      18.224999999999998      28.349999999999998
  2193   1                   20.25      16.199999999999999      32.399999999999999
  2194   1                   20.25      18.224999999999998      34.424999999999997
  2195   1      22.274999999999999      16.199999999999999      34.424999999999997
  2196   1      22.274999999999999      18.224999999999998      32.399999999999999
  2197   1                   20.25      16.199999999999999      36.449999999999996
  2198   1                   20.25      18.224999999999998      38.474999999999994
  2199   1      22.274999999999999      16.199999999999999      38.474999999999994
  2200   1      22.274999999999999      18.224999999999998      36.449999999999996
  2201   1                   20.25                   20.25                       0
  2202   1                   20.25      22.274999999999999      2.0249999999999999
  2203   1      22.274999999999999                   20.25      2.0249999999999999
  2204   1      22.274999999999999      22.274999999999999                       0
  2205   1                   20.25                   20.25      4.0499999999999998
  2206   1                   20.25      22.274999999999999      6.0749999999999993
  2207   1      22.274999999999999                   20.25      6.0749999999999993
  2208   1      22.274999999999999      22.274999999999999      4.0499999999999998
  2209   1                   20.25                   20.25      8.0999999999999996
  2210   1                   20.25      22.274999999999999                  10.125
  2211   1      22.274999999999999                   20.25                  10.125
  2212   1      22.274999999999999      22.274999999999999      8.0999999999999996
  2213   1                   20.25                   20.25      12.149999999999999
  2214   1                   20.25      22.274999999999999      14.174999999999999
  2215   1      22.274999999999999                   20.25      14.174999999999999
  2216   1      22.274999999999999      22.274999999999999      12.149999999999999
  2217   1                   20.25                   20.25      16.199999999999999
  2218   1                   20.25      22.274999999999999      18.224999999999998
  2219   1      22.274999999999999                   20.25      18.224999999999998
  2220   1      22.274999999999999      22.274999999999999      16.199999999999999
  2221   1                   20.25                   20.25                   20.25
  2222   1                   20.25      22.274999999999999      22.274999999999999
  2223   1      22.274999999999999                   20.25      22.274999999999999
  2224   1      22.274999999999999      22.274999999999999                   20.25
  2225   1                   20.25                   20.25      24.299999999999997
  2226   1                   20.25      22.274999999999999      26.324999999999996
  2227   1      22.274999999999999                   20.25      26.324999999999996
  2228   1      22.274999999999999      22.274999999999999      24.299999999999997
  2229   1                   20.25                   20.25      28.349999999999998
  2230   1                   20.25      22.274999999999999      30.374999999999996
  2231   1      22.274999999999999                   20.25      30.374999999999996
  2232   1      22.274999999999999      22.274999999999999      28.349999999999998
  2233   1                   20.25                   20.25      32.399999999999999
  2234   1                   20.25      22.274999999999999      34.424999999999997
  2235   1      22.274999999999999                   20.25      34.424999999999997
  2236   1      22.274999999999999      22.274999999999999      32.399999999999999
  2237   1                   20.25                   20.25      36.449999999999996
  2238   1                   20.25      22.274999999999999      38.474999999999994
  2239   1      22.274999999999999                   20.25      38.474999999999994
  2240   1      22.274999999999999      22.274999999999999      36.449999999999996
  2241   1                   20.25      24.299999999999997                       0
  2242   1                   20.25      26.324999999999996      2.0249999999999999
  2243   1      22.274999999999999      24.299999999999997      2.0249999999999999
  2244   1      22.274999999999999      26.324999999999996                       0
  2245   1                   20.25      24.299999999999997      4.0499999999999998
  2246   1                   20.25      26.324999999999996      6.0749999999999993
  2247   1      22.274999999999999      24.299999999999997      6.0749999999999993
  2248   1      22.274999999999999      26.324999999999996      4.0499999999999998
  2249   1                   20.25      24.299999999999997      8.0999999999999996
  2250   1                   20.25      26.324999999999996                  10.125
  2251   1      22.274999999999999      24.299999999999997                  10.125
  2252   1      22.274999999999999      26.324999999999996      8.0999999999999996
  2253   1                   20.25      24.299999999999997      12.149999999999999
  2254   1                   20.25      26.324999999999996      14.174999999999999
  2255   1      22.274999999999999      24.299999999999997      14.174999999999999
  2256   1      22.274999999999999      26.324999999999996      12.149999999999999
  2257   1                   20.25      24.299999999999997      16.199999999999999
  2258   1                   20.25      26.324999999999996      18.224999999999998
  2259   1      22.274999999999999      24.299999999999997      18.224999999999998
  2260   1      22.274999999999999      26.324999999999996      16.199999999999999
  2261   1                   20.25      24.299999999999997                   20.25
  2262   1                   20.25      26.324999999999996      22.274999999999999
  2263   1      22.274999999999999      24.299999999999997      22.274999999999999
  2264   1      22.274999999999999      26.324999999999996                   20.25
  2265   1                   20.25      24.299999999999997      24.299999999999997
  2266   1                   20.25      26.324999999999996      26.324999999999996
  2267   1      22.274999999999999      24.299999999999997      26.324999999999996
  2268   1      22.274999999999999      26.324999999999996      24.299999999999997
  2269   1                   20.25      24.299999999999997      28.349999999999998
  2270   1                   20.25      26.324999999999996      30.374999999999996
  2271   1      22.274999999999999      24.299999999999997      30.374999999999996
  2272   1      22.274999999999999      26.324999999999996      28.349999999999998
  2273   1                   20.25      24.299999999999997      32.399999999999999
  2274   1                   20.25      26.324999999999996      34.424999999999997
  2275   1      22.274999999999999      24.299999999999997      34.424999999999997
  2276   1      22.274999999999999      26.324999999999996      32.399999999999999
  2277   1                   20.25      24.299999999999997      36.449999999999996
  2278   1                   20.25      26.324999999999996      38.474999999999994
  2279   1      22.274999999999999      24.299999999999997      38.474999999999994
  2280   1      22.274999999999999      26.324999999999996      36.449999999999996
  2281   1                   20.25      28.349999999999998                       0
  2282   1                   20.25      30.374999999999996      2.0249999999999999
  2283   1      22.274999999999999      28.349999999999998      2.0249999999999999
  2284   1      22.274999999999999      30.374999999999996                       0
  2285   1                   20.25      28.349999999999998      4.0499999999999998
  2286   1                   20.25      30.374999999999996      6.0749999999999993
  2287   1      22.274999999999999      28.349999999999998      6.0749999999999993
  2288   1      22.274999999999999      30.374999999999996      4.0499999999999998
  2289   1                   20.25      28.349999999999998      8.0999999999999996
  2290   1                   20.25      30.374999999999996                  10.125
  2291   1      22.274999999999999      28.349999999999998                  10.125
  2292   1      22.274999999999999      30.374999999999996      8.0999999999999996
  2293   1                   20.25      28.349999999999998      12.149999999999999
  2294   1                   20.25      30.374999999999996      14.174999999999999
  2295   1      22.274999999999999      28.349999999999998      14.174999999999999
  2296   1      22.274999999999999      30.374999999999996      12.149999999999999
  2297   1                   20.25      28.349999999999998      16.199999999999999
  2298   1                   20.25      30.374999999999996      18.224999999999998
  2299   1      22.274999999999999      28.349999999999998      18.224999999999998
  2300   1      22.274999999999999      30.374999999999996      16.199999999999999
  2301   1                   20.25      28.349999999999998                   20.25
  2302   1                   20.25      30.374999999999996      22.274999999999999
  2303   1      22.274999999999999      28.349999999999998      22.274999999999999
  2304   1      22.274999999999999      30.374999999999996                   20.25
  2305   1                   20.25      28.349999999999998      24.299999999999997
  2306   1                   20.25      30.374999999999996      26.324999999999996
  2307   1      22.274999999999999      28.349999999999998      26.324999999999996
  2308   1      22.274999999999999      30.374999999999996      24.299999999999997
  2309   1                   20.25      28.349999999999998      28.349999999999998
  2310   1                   20.25      30.374999999999996      30.374999999999996
  2311   1      22.274999999999999      28.349999999999998      30.374999999999996
  2312   1      22.274999999999999      30.374999999999996      28.349999999999998
  2313   1                   20.25      28.349999999999998      32.399999999999999
  2314   1                   20.25      30.374999999999996      34.424999999999997
  2315   1      22.274999999999999      28.349999999999998      34.424999999999997
  2316   1      22.274999999999999      30.374999999999996      32.399999999999999
  2317   1                   20.25      28.349999999999998      36.449999999999996
  2318   1                   20.25      30.374999999999996      38.474999999999994
  2319   1      22.274999999999999      28.349999999999998      38.474999999999994
  2320   1      22.274999999999999      30.374999999999996      36.449999999999996
  2321   1                   20.25      32.399999999999999                       0
  2322   1                   20.25      34.424999999999997      2.0249999999999999
  2323   1      22.274999999999999      32.399999999999999      2.0249999999999999
  2324   1      22.274999999999999      34.424999999999997                       0
  2325   1                   20.25      32.399999999999999      4.0499999999999998
  2326   1                   20.25      34.424999999999997      6.0749999999999993
  2327   1      22.274999999999999      32.399999999999999      6.0749999999999993
  2328   1      22.274999999999999      34.424999999999997      4.0499999999999998
  2329   1                   20.25      32.399999999999999      8.0999999999999996
  2330   1                   20.25      34.424999999999997                  10.125
  2331   1      22.274999999999999      32.399999999999999                  10.125
  2332   1      22.274999999999999      34.424999999999997      8.0999999999999996
  2333   1                   20.25      32.399999999999999      12.149999999999999
  2334   1                   20.25      34.424999999999997      14.174999999999999
  2335   1      22.274999999999999      32.399999999999999      14.174999999999999
  2336   1      22.274999999999999      34.424999999999997      12.149999999999999
  2337   1                   20.25      32.399999999999999      16.199999999999999
  2338   1                   20.25      34.424999999999997      18.224999999999998
  2339   1      22.274999999999999      32.399999999999999      18.224999999999998
  2340   1      22.274999999999999      34.424999999999997      16.199999999999999
  2341   1                   20.25      32.399999999999999                   20.25
  2342   1                   20.25      34.424999999999997      22.274999999999999
  2343   1      22.274999999999999      32.399999999999999      22.274999999999999
  2344   1      22.274999999999999      34.424999999999997                   20.25
  2345   1                   20.25      32.399999999999999      24.299999999999997
  2346   1                   20.25      34.424999999999997      26.324999999999996
  2347   1      22.274999999999999      32.399999999999999      26.324999999999996
  2348   1      22.274999999999999      34.424999999999997      24.299999999999997
  2349   1                   20.25      32.399999999999999      28.349999999999998
  2350   1                   20.25      34.424999999999997      30.374999999999996
  2351   1      22.274999999999999      32.399999999999999      30.374999999999996
  2352   1      22.274999999999999      34.424999999999997      28.349999999999998
  2353   1                   20.25      32.399999999999999      32.399999999999999
  2354   1                   20.25      34.424999999999997      34.424999999999997
  2355   1      22.274999999999999      32.399999999999999      34.424999999999997
  2356   1      22.274999999999999      34.424999999999997      32.399999999999999
  2357   1                   20.25      32.399999999999999      36.449999999999996
  2358   1                   20.25      34.424999999999997      38.474999999999994
  2359   1      22.274999999999999      32.399999999999999      38.474999999999994
  2360   1      22.274999999999999      34.424999999999997      36.449999999999996
  2361   1                   20.25      36.449999999999996                       0
  2362   1                   20.25      38.474999999999994      2.0249999999999999
  2363   1      22.274999999999999      36.449999999999996      2.0249999999999999
  2364   1      22.274999999999999      38.474999999999994                       0
  2365   1                   20.25      36.449999999999996      4.0499999999999998
  2366   1                   20.25      38.474999999999994      6.0749999999999993
  2367   1      22.274999999999999      36.449999999999996      6.0749999999999993
  2368   1      22.274999999999999      38.474999999999994      4.0499999999999998
  2369   1                   20.25      36.449999999999996      8.0999999999999996
  2370   1                   20.25      38.474999999999994                  10.125
  2371   1      22.274999999999999      36.449999999999996                  10.125
  2372   1      22.274999999999999      38.474999999999994      8.0999999999999996
  2373   1                   20.25      36.449999999999996      12.149999999999999
  2374   1                   20.25      38.474999999999994      14.174999999999999
  2375   1      22.274999999999999      36.449999999999996      14.174999999999999
  2376   1      22.274999999999999      38.474999999999994      12.149999999999999
  2377   1                   20.25      36.449999999999996      16.199999999999999
  2378   1                   20.25      38.474999999999994      18.224999999999998
  2379   1      22.274999999999999      36.449999999999996      18.224999999999998
  2380   1      22.274999999999999      38.474999999999994      16.199999999999999
  2381   1                   20.25      36.449999999999996                   20.25
  2382   1                   20.25      38.474999999999994      22.274999999999999
  2383   1      22.274999999999999      36.449999999999996      22.274999999999999
  2384   1      22.274999999999999      38.474999999999994                   20.25
  2385   1                   20.25      36.449999999999996      24.299999999999997
  2386   1                   20.25      38.474999999999994      26.324999999999996
  2387   1      22.274999999999999      36.449999999999996      26.324999999999996
  2388   1      22.274999999999999      38.474999999999994      24.299999999999997
  2389   1                   20.25      36.449999999999996      28.349999999999998
  2390   1                   20.25      38.474999999999994      30.374999999999996
  2391   1      22.274999999999999      36.449999999999996      30.374999999999996
  2392   1      22.274999999999999      38.474999999999994      28.349999999999998
  2393   1                   20.25      36.449999999999996      32.399999999999999
  2394   1                   20.25      38.474999999999994      34.424999999999997
  2395   1      22.274999999999999      36.449999999999996      34.424999999999997
  2396   1      22.274999999999999      38.474999999999994      32.399999999999999
  2397   1                   20.25      36.449999999999996      36.449999999999996
  2398   1                   20.25      38.474999999999994      38.474999999999994
  2399   1      22.274999999999999      36.449999999999996      38.474999999999994
  2400   1      22.274999999999999      38.474999999999994      36.449999999999996
  2401   1      24.299999999999997                       0                       0
  2402   1      24.299999999999997      2.0249999999999999      2.0249999999999999
  2403   1      26.324999999999996                       0      2.0249999999999999
  2404   1      26.324999999999996      2.0249999999999999                       0
  2405   1      24.299999999999997                       0      4.0499999999999998
  2406   1      24.299999999999997      2.0249999999999999      6.0749999999999993
  2407   1      26.324999999999996                       0      6.0749999999999993
  2408   1      26.324999999999996      2.0249999999999999      4.0499999999999998
  2409   1      24.299999999999997                       0      8.0999999999999996
  2410   1      24.299999999999997      2.0249999999999999                  10.125
  2411   1      26.324999999999996                       0                  10.125
  2412   1      26.324999999999996      2.0249999999999999      8.0999999999999996
  2413   1      24.299999999999997                       0      12.149999999999999
  2414   1      24.299999999999997      2.0249999999999999      14.174999999999999
  2415   1      26.324999999999996                       0      14.174999999999999
  2416   1      26.324999999999996      2.0249999999999999      12.149999999999999
  2417   1      24.299999999999997                       0      16.199999999999999
  2418   1      24.299999999999997      2.0249999999999999      18.224999999999998
  2419   1      26.324999999999996                       0      18.224999999999998
  2420   1      26.324999999999996      2.0249999999999999      16.199999999999999
  2421   1      24.299999999999997                       0                   20.25
  2422   1      24.299999999999997      2.0249999999999999      22.274999999999999
  2423   1      26.324999999999996                       0      22.274999999999999
  2424   1      26.324999999999996      2.0249999999999999                   20.25
  2425   1      24.299999999999997                       0      24.299999999999997
  2426   1      24.299999999999997      2.0249999999999999      26.324999999999996
  2427   1      26.324999999999996                       0      26.324999999999996
  2428   1      26.324999999999996      2.0249999999999999      24.299999999999997
  2429   1      24.299999999999997                       0      28.349999999999998
  2430   1      24.299999999999997      2.0249999999999999      30.374999999999996
  2431   1      26.324999999999996                       0      30.374999999999996
  2432   1      26.324999999999996      2.0249999999999999      28.349999999999998
  2433   1      24.299999999999997                       0      32.399999999999999
  2434   1      24.299999999999997      2.0249999999999999      34.424999999999997
  2435   1      26.324999999999996                       0      34.424999999999997
  2436   1      26.324999999999996      2.0249999999999999      32.399999999999999
  2437   1      24.299999999999997                       0      36.449999999999996
  2438   1      24.299999999999997      2.0249999999999999      38.474999999999994
  2439   1      26.324999999999996                       0      38.474999999999994
  2440   1      26.324999999999996      2.0249999999999999      36.449999999999996
  2441   1      24.299999999999997      4.0499999999999998                       0
  2442   1      24.299999999999997      6.0749999999999993      2.0249999999999999
  2443   1      26.324999999999996      4.0499999999999998      2.0249999999999999
  2444   1      26.324999999999996      6.0749999999999993                       0
  2445   1      24.299999999999997      4.0499999999999998      4.0499999999999998
  2446   1      24.299999999999997      6.0749999999999993      6.0749999999999993
  2447   1      26.324999999999996      4.0499999999999998      6.0749999999999993
  2448   1      26.324999999999996      6.0749999999999993      4.0499999999999998
  2449   1      24.299999999999997      4.0499999999999998      8.0999999999999996
  2450   1      24.299999999999997      6.0749999999999993                  10.125
  2451   1      26.324999999999996      4.0499999999999998                  10.125
  2452   1      26.324999999999996      6.0749999999999993      8.0999999999999996
  2453   1      24.299999999999997      4.0499999999999998      12.149999999999999
  2454   1      24.299999999999997      6.0749999999999993      14.174999999999999
  2455   1      26.324999999999996      4.0499999999999998      14.174999999999999
  2456   1      26.324999999999996      6.0749999999999993      12.149999999999999
  2457   1      24.299999999999997      4.0499999999999998      16.199999999999999
  2458   1      24.299999999999997      6.0749999999999993      18.224999999999998
  2459   1      26.324999999999996      4.0499999999999998      18.224999999999998
  2460   1      26.324999999999996      6.0749999999999993      16.199999999999999
  2461   1      24.299999999999997      4.0499999999999998                   20.25
  2462   1      24.299999999999997      6.0749999999999993      22.274999999999999
  2463   1      26.324999999999996      4.0499999999999998      22.274999999999999
  2464   1      26.324999999999996      6.0749999999999993                   20.25
  2465   1      24.299999999999997      4.0499999999999998      24.299999999999997
  2466   1      24.299999999999997      6.0749999999999993      26.324999999999996
  2467   1      26.324999999999996      4.0499999999999998      26.324999999999996
  2468   1      26.324999999999996      6.0749999999999993      24.299999999999997
  2469   1      24.299999999999997      4.0499999999999998      28.349999999999998
  2470   1      24.299999999999997      6.0749999999999993      30.374999999999996
  2471   1      26.324999999999996      4.0499999999999998      30.374999999999996
  2472   1      26.324999999999996      6.0749999999999993      28.349999999999998
  2473   1      24.299999999999997      4.0499999999999998      32.399999999999999
  2474   1      24.299999999999997      6.0749999999999993      34.424999999999997
  2475   1      26.324999999999996      4.0499999999999998      34.424999999999997
  2476   1      26.324999999999996      6.0749999999999993      32.399999999999999
  2477   1      24.299999999999997      4.0499999999999998      36.449999999999996
  2478   1      24.299999999999997      6.0749999999999993      38.474999999999994
  2479   1      26.324999999999996      4.0499999999999998      38.474999999999994
  2480   1      26.324999999999996      6.0749999999999993      36.449999999999996
  2481   1      24.299999999999997      8.0999999999999996                       0
  2482   1      24.299999999999997                  10.125      2.0249999999999999
  2483   1      26.324999999999996      8.0999999999999996      2.0249999999999999
  2484   1      26.324999999999996                  10.125                       0
  2485   1      24.299999999999997      8.0999999999999996      4.0499999999999998
  2486   1      24.299999999999997                  10.125      6.0749999999999993
  2487   1      26.324999999999996      8.0999999999999996      6.0749999999999993
  2488   1      26.324999999999996                  10.125      4.0499999999999998
  2489   1      24.299999999999997      8.0999999999999996      8.0999999999999996
  2490   1      24.299999999999997                  10.125                  10.125
  2491   1      26.324999999999996      8.0999999999999996                  10.125
  2492   1      26.324999999999996                  10.125      8.0999999999999996
  2493   1      24.299999999999997      8.0999999999999996      12.149999999999999
  2494   1      24.299999999999997                  10.125      14.174999999999999
  2495   1      26.324999999999996      8.0999999999999996      14.174999999999999
  2496   1      26.324999999999996                  10.125      12.149999999999999
  2497   1      24.299999999999997      8.0999999999999996      16.199999999999999
  2498   1      24.299999999999997                  10.125      18.224999999999998
  2499   1      26.324999999999996      8.0999999999999996      18.224999999999998
  2500   1      26.324999999999996                  10.125      16.199999999999999
  2501   1      24.299999999999997      8.0999999999999996                   20.25
  2502   1      24.299999999999997                  10.125      22.274999999999999
  2503   1      26.324999999999996      8.0999999999999996      22.274999999999999
  2504   1      26.324999999999996                  10.125                   20.25
  2505   1      24.299999999999997      8.0999999999999996      24.299999999999997
  2506   1      24.299999999999997                  10.125      26.324999999999996
  2507   1      26.324999999999996      8.0999999999999996      26.324999999999996
  2508   1      26.324999999999996                  10.125      24.299999999999997
  2509   1      24.299999999999997      8.0999999999999996      28.349999999999998
  2510   1      24.299999999999997                  10.125      30.374999999999996
  2511   1      26.324999999999996      8.0999999999999996      30.374999999999996
  2512   1      26.324999999999996                  10.125      28.349999999999998
  2513   1      24.299999999999997      8.0999999999999996      32.399999999999999
  2514   1      24.299999999999997                  10.125      34.424999999999997
  2515   1      26.324999999999996      8.0999999999999996      34.424999999999997
  2516   1      26.324999999999996                  10.125      32.399999999999999
  2517   1      24.299999999999997      8.0999999999999996      36.449999999999996
  2518   1      24.299999999999997                  10.125      38.474999999999994
  2519   1      26.324999999999996      8.0999999999999996      38.474999999999994
  2520   1      26.324999999999996                  10.125      36.449999999999996
  2521   1      24.299999999999997      12.149999999999999                       0
  2522   1      24.299999999999997      14.174999999999999      2.0249999999999999
  2523   1      26.324999999999996      12.149999999999999      2.0249999999999999
  2524   1      26.324999999999996      14.174999999999999                       0
  2525   1      24.299999999999997      12.149999999999999      4.0499999999999998
  2526   1      24.299999999999997      14.174999999999999      6.0749999999999993
  2527   1      26.324999999999996      12.149999999999999      6.0749999999999993
  2528   1      26.324999999999996      14.174999999999999      4.0499999999999998
  2529   1      24.299999999999997      12.149999999999999      8.0999999999999996
  2530   1      24.299999999999997      14.174999999999999                  10.125
  2531   1      26.324999999999996      12.149999999999999                  10.125
  2532   1      26.324999999999996      14.174999999999999      8.0999999999999996
  2533   1      24.299999999999997      12.149999999999999      12.149999999999999
  2534   1      24.299999999999997      14.174999999999999      14.174999999999999
  2535   1      26.324999999999996      12.149999999999999      14.174999999999999
  2536   1      26.324999999999996      14.174999999999999      12.149999999999999
  2537   1      24.299999999999997      12.149999999999999      16.199999999999999
  2538   1      24.299999999999997      14.174999999999999      18.224999999999998
  2539   1      26.324999999999996      12.149999999999999      18.224999999999998
  2540   1      26.324999999999996      14.174999999999999      16.199999999999999
  2541   1      24.299999999999997      12.149999999999999                   20.25
  2542   1      24.299999999999997      14.174999999999999      22.274999999999999
  2543   1      26.324999999999996      12.149999999999999      22.274999999999999
  2544   1      26.324999999999996      14.174999999999999                   20.25
  2545   1      24.299999999999997      12.149999999999999      24.299999999999997
  2546   1      24.299999999999997      14.174999999999999      26.324999999999996
  2547   1      26.324999999999996      12.149999999999999      26.324999999999996
  2548   1      26.324999999999996      14.174999999999999      24.299999999999997
  2549   1      24.299999999999997      12.149999999999999      28.349999999999998
  2550   1      24.299999999999997      14.174999999999999      30.374999999999996
  2551   1      26.324999999999996      12.149999999999999      30.374999999999996
  2552   1      26.324999999999996      14.174999999999999      28.349999999999998
  2553   1      24.299999999999997      12.149999999999999      32.399999999999999
  2554   1      24.299999999999997      14.174999999999999      34.424999999999997
  2555   1      26.324999999999996      12.149999999999999      34.424999999999997
  2556   1      26.324999999999996      14.174999999999999      32.399999999999999
  2557   1      24.299999999999997      12.149999999999999      36.449999999999996
  2558   1      24.299999999999997      14.174999999999999      38.474999999999994
  2559   1      26.324999999999996      12.149999999999999      38.474999999999994
  2560   1      26.324999999999996      14.174999999999999      36.449999999999996
  2561   1      24.299999999999997      16.199999999999999                       0
  2562   1      24.299999999999997      18.224999999999998      2.0249999999999999
  2563   1      26.324999999999996      16.199999999999999      2.0249999999999999
  2564   1      26.324999999999996      18.224999999999998                       0
  2565   1      24.299999999999997      16.199999999999999      4.0499999999999998
  2566   1      24.299999999999997      18.224999999999998      6.0749999999999993
  2567   1      26.324999999999996      16.199999999999999      6.0749999999999993
  2568   1      26.324999999999996      18.224999999999998      4.0499999999999998
  2569   1      24.299999999999997      16.199999999999999      8.0999999999999996
  2570   1      24.299999999999997      18.224999999999998                  10.125
  2571   1      26.324999999999996      16.199999999999999                  10.125
  2572   1      26.324999999999996      18.224999999999998      8.0999999999999996
  2573   1      24.299999999999997      16.199999999999999      12.149999999999999
  2574   1      24.299999999999997      18.224999999999998      14.174999999999999
  2575   1      26.324999999999996      16.199999999999999      14.174999999999999
  2576   1      26.324999999999996      18.224999999999998      12.149999999999999
  2577   1      24.299999999999997      16.199999999999999      16.199999999999999
  2578   1      24.299999999999997      18.224999999999998      18.224999999999998
  2579   1      26.324999999999996      16.199999999999999      18.224999999999998
  2580   1      26.324999999999996      18.224999999999998      16.199999999999999
  2581   1      24.299999999999997      16.199999999999999                   20.25
  2582   1      24.299999999999997      18.224999999999998      22.274999999999999
  2583   1      26.324999999999996      16.199999999999999      22.274999999999999
  2584   1      26.324999999999996      18.224999999999998                   20.25
  2585   1      24.299999999999997      16.199999999999999      24.299999999999997
  2586   1      24.299999999999997      18.224999999999998      26.324999999999996
  2587   1      26.324999999999996      16.199999999999999      26.324999999999996
  2588   1      26.324999999999996      18.224999999999998      24.299999999999997
  2589   1      24.299999999999997      16.199999999999999      28.349999999999998
  2590   1      24.299999999999997      18.224999999999998      30.374999999999996
  2591   1      26.324999999999996      16.199999999999999      30.374999999999996
  2592   1      26.324999999999996      18.224999999999998      28.349999999999998
  2593   1      24.299999999999997      16.199999999999999      32.399999999999999
  2594   1      24.299999999999997      18.224999999999998      34.424999999999997
  2595   1      26.324999999999996      16.199999999999999      34.424999999999997
  2596   1      26.324999999999996      18.224999999999998      32.399999999999999
  2597   1      24.299999999999997      16.199999999999999      36.449999999999996
  2598   1      24.299999999999997      18.224999999999998      38.474999999999994
  2599   1      26.324999999999996      16.199999999999999      38.474999999999994
  2600   1      26.324999999999996      18.224999999999998      36.449999999999996
  2601   1      24.299999999999997                   20.25                       0
  2602   1      24.299999999999997      22.274999999999999      2.0249999999999999
  2603   1      26.324999999999996                   20.25      2.0249999999999999
  2604   1      26.324999999999996      22.274999999999999                       0
  2605   1      24.299999999999997                   20.25      4.0499999999999998
  2606   1      24.299999999999997      22.274999999999999      6.0749999999999993
  2607   1      26.324999999999996                   20.25      6.0749999999999993
  2608   1      26.324999999999996      22.274999999999999      4.0499999999999998
  2609   1      24.299999999999997                   20.25      8.0999999999999996
  2610   1      24.299999999999997      22.274999999999999                  10.125
  2611   1      26.324999999999996                   20.25                  10.125
  2612   1      26.324999999999996      22.274999999999999      8.0999999999999996
  2613   1      24.299999999999997                   20.25      12.149999999999999
  2614   1      24.299999999999997      22.274999999999999      14.174999999999999
  2615   1      26.324999999999996                   20.25      14.174999999999999
  2616   1      26.324999999999996      22.274999999999999      12.149999999999999
  2617   1      24.299999999999997                   20.25      16.199999999999999
  2618   1      24.299999999999997      22.274999999999999      18.224999999999998
  2619   1      26.324999999999996                   20.25      18.224999999999998
  2620   1      26.324999999999996      22.274999999999999      16.199999999999999
  2621   1      24.299999999999997                   20.25                   20.25
  2622   1      24.299999999999997      22.274999999999999      22.274999999999999
  2623   1      26.324999999999996                   20.25      22.274999999999999
  2624   1      26.324999999999996      22.274999999999999                   20.25
  2625   1      24.299999999999997                   20.25      24.299999999999997
  2626   1      24.299999999999997      22.274999999999999      26.324999999999996
  2627   1      26.324999999999996                   20.25      26.324999999999996
  2628   1      26.324999999999996      22.274999999999999      24.299999999999997
  2629   1      24.299999999999997                   20.25      28.349999999999998
  2630   1      24.299999999999997      22.274999999999999      30.374999999999996
  2631   1      26.324999999999996                   20.25      30.374999999999996
  2632   1      26.324999999999996      22.274999999999999      28.349999999999998
  2633   1      24.299999999999997                   20.25      32.399999999999999
  2634   1      24.299999999999997      22.274999999999999      34.424999999999997
  2635   1      26.324999999999996                   20.25      34.424999999999997
  2636   1      26.324999999999996      22.274999999999999      32.399999999999999
  2637   1      24.299999999999997                   20.25      36.449999999999996
  2638   1      24.299999999999997      22.274999999999999      38.474999999999994
  2639   1      26.324999999999996                   20.25      38.474999999999994
  2640   1      26.324999999999996      22.274999999999999      36.449999999999996
  2641   1      24.299999999999997      24.299999999999997                       0
  2642   1      24.299999999999997      26.324999999999996      2.0249999999999999
  2643   1      26.324999999999996      24.299999999999997      2.0249999999999999
  2644   1      26.324999999999996      26.324999999999996                       0
  2645   1      24.299999999999997      24.299999999999997      4.0499999999999998
  2646   1      24.299999999999997      26.324999999999996      6.0749999999999993
  2647   1      26.324999999999996      24.299999999999997      6.0749999999999993
  2648   1      26.324999999999996      26.324999999999996      4.0499999999999998
  2649   1      24.299999999999997      24.299999999999997      8.0999999999999996
  2650   1      24.299999999999997      26.324999999999996                  10.125
  2651   1      26.324999999999996      24.299999999999997                  10.125
  2652   1      26.324999999999996      26.324999999999996      8.0999999999999996
  2653   1      24.299999999999997      24.299999999999997      12.149999999999999
  2654   1      24.299999999999997      26.324999999999996      14.174999999999999
  2655   1      26.324999999999996      24.299999999999997      14.174999999999999
  2656   1      26.324999999999996      26.324999999999996      12.149999999999999
  2657   1      24.299999999999997      24.299999999999997      16.199999999999999
  2658   1      24.299999999999997      26.324999999999996      18.224999999999998
  2659   1      26.324999999999996      24.299999999999997      18.224999999999998
  2660   1      26.324999999999996      26.324999999999996      16.199999999999999
  2661   1      24.299999999999997      24.299999999999997                   20.25
  2662   1      24.299999999999997      26.324999999999996      22.274999999999999
  2663   1      26.324999999999996      24.299999999999997      22.274999999999999
  2664   1      26.324999999999996      26.324999999999996                   20.25
  2665   1      24.299999999999997      24.299999999999997      24.299999999999997
  2666   1      24.299999999999997      26.324999999999996      26.324999999999996
  2667   1      26.324999999999996      24.299999999999997      26.324999999999996
  2668   1      26.324999999999996      26.324999999999996      24.299999999999997
  2669   1      24.299999999999997      24.299999999999997      28.349999999999998
  2670   1      24.299999999999997      26.324999999999996      30.374999999999996
  2671   1      26.324999999999996      24.299999999999997      30.374999999999996
  2672   1      26.324999999999996      26.324999999999996      28.349999999999998
  2673   1      24.299999999999997      24.299999999999997      32.399999999999999
  2674   1      24.299999999999997      26.324999999999996      34.424999999999997
  2675   1      26.324999999999996      24.299999999999997      34.424999999999997
  2676   1      26.324999999999996      26.324999999999996      32.399999999999999
  2677   1      24.299999999999997      24.299999999999997      36.449999999999996
  2678   1      24.299999999999997      26.324999999999996      38.474999999999994
  2679   1      26.324999999999996      24.299999999999997      38.474999999999994
  2680   1      26.324999999999996      26.324999999999996      36.449999999999996
  2681   1      24.299999999999997      28.349999999999998                       0
  2682   1      24.299999999999997      30.374999999999996      2.0249999999999999
  2683   1      26.324999999999996      28.349999999999998      2.0249999999999999
  2684   1      26.324999999999996      30.374999999999996                       0
  2685   1      24.299999999999997      28.349999999999998      4.0499999999999998
  2686   1      24.299999999999997      30.374999999999996      6.0749999999999993
  2687   1      26.324999999999996      28.349999999999998      6.0749999999999993
  2688   1      26.324999999999996      30.374999999999996      4.0499999999999998
  2689   1      24.299999999999997      28.349999999999998      8.0999999999999996
  2690   1      24.299999999999997      30.374999999999996                  10.125
  2691   1      26.324999999999996      28.349999999999998                  10.125
  2692   1      26.324999999999996      30.374999999999996      8.0999999999999996
  2693   1      24.299999999999997      28.349999999999998      12.149999999999999
  2694   1      24.299999999999997      30.374999999999996      14.174999999999999
  2695   1      26.324999999999996      28.349999999999998      14.174999999999999
  2696   1      26.324999999999996      30.374999999999996      12.149999999999999
  2697   1      24.299999999999997      28.349999999999998      16.199999999999999
  2698   1      24.299999999999997      30.374999999999996      18.224999999999998
  2699   1      26.324999999999996      28.349999999999998      18.224999999999998
  2700   1      26.324999999999996      30.374999999999996      16.199999999999999
  2701   1      24.299999999999997      28.349999999999998                   20.25
  2702   1      24.299999999999997      30.374999999999996      22.274999999999999
  2703   1      26.324999999999996      28.349999999999998      22.274999999999999
  2704   1      26.324999999999996      30.374999999999996                   20.25
  2705   1      24.299999999999997      28.349999999999998      24.299999999999997
  2706   1      24.299999999999997      30.374999999999996      26.324999999999996
  2707   1      26.324999999999996      28.349999999999998      26.324999999999996
  2708   1      26.324999999999996      30.374999999999996      24.299999999999997
  2709   1      24.299999999999997      28.349999999999998      28.349999999999998
  2710   1      24.299999999999997      30.374999999999996      30.374999999999996
  2711   1      26.324999999999996      28.349999999999998      30.374999999999996
  2712   1      26.324999999999996      30.374999999999996      28.349999999999998
  2713   1      24.299999999999997      28.349999999999998      32.399999999999999
  2714   1      24.299999999999997      30.374999999999996      34.424999999999997
  2715   1      26.324999999999996      28.349999999999998      34.424999999999997
  2716   1      26.324999999999996      30.374999999999996      32.399999999999999
  2717   1      24.299999999999997      28.349999999999998      36.449999999999996
  2718   1      24.299999999999997      30.374999999999996      38.474999999999994
  2719   1      26.324999999999996      28.349999999999998      38.474999999999994
  2720   1      26.324999999999996      30.374999999999996      36.449999999999996
  2721   1      24.299999999999997      32.399999999999999                       0
  2722   1      24.299999999999997      34.424999999999997      2.0249999999999999
  2723   1      26.324999999999996      32.399999999999999      2.0249999999999999
  2724   1      26.324999999999996      34.424999999999997                       0
  2725   1      24.299999999999997      32.399999999999999      4.0499999999999998
  2726   1      24.299999999999997      34.424999999999997      6.0749999999999993
  2727   1      26.324999999999996      32.399999999999999      6.0749999999999993
  2728   1      26.324999999999996      34.424999999999997      4.0499999999999998
  2729   1      24.299999999999997      32.399999999999999      8.0999999999999996
  2730   1      24.299999999999997      34.424999999999997                  10.125
  2731   1      26.324999999999996      32.399999999999999                  10.125
  2732   1      26.324999999999996      34.424999999999997      8.0999999999999996
  2733   1      24.299999999999997      32.399999999999999      12.149999999999999
  2734   1      24.299999999999997      34.424999999999997      14.174999999999999
  2735   1      26.324999999999996      32.399999999999999      14.174999999999999
  2736   1      26.324999999999996      34.424999999999997      12.149999999999999
  2737   1      24.299999999999997      32.399999999999999      16.199999999999999
  2738   1      24.299999999999997      34.424999999999997      18.224999999999998
  2739   1      26.324999999999996      32.399999999999999      18.224999999999998
  2740   1      26.324999999999996      34.424999999999997      16.199999999999999
  2741   1      24.299999999999997      32.399999999999999                   20.25
  2742   1      24.299999999999997      34.424999999999997      22.274999999999999
  2743   1      26.324999999999996      32.399999999999999      22.274999999999999
  2744   1      26.324999999999996      34.424999999999997                   20.25
  2745   1      24.299999999999997      32.399999999999999      24.299999999999997
  2746   1      24.299999999999997      34.424999999999997      26.324999999999996
  2747   1      26.324999999999996      32.399999999999999      26.324999999999996
  2748   1      26.324999999999996      34.424999999999997      24.299999999999997
  2749   1      24.299999999999997      32.399999999999999      28.349999999999998
  2750   1      24.299999999999997      34.424999999999997      30.374999999999996
  2751   1      26.324999999999996      32.399999999999999      30.374999999999996
  2752   1      26.324999999999996      34.424999999999997      28.349999999999998
  2753   1      24.299999999999997      32.399999999999999      32.399999999999999
  2754   1      24.299999999999997      34.424999999999997      34.424999999999997
  2755   1      26.324999999999996      32.399999999999999      34.424999999999997
  2756   1      26.324999999999996      34.424999999999997      32.399999999999999
  2757   1      24.299999999999997      32.399999999999999      36.449999999999996
  2758   1      24.299999999999997      34.424999999999997      38.474999999999994
  2759   1      26.324999999999996      32.399999999999999      38.474999999999994
  2760   1      26.324999999999996      34.424999999999997      36.449999999999996
  2761   1      24.299999999999997      36.449999999999996                       0
  2762   1      24.299999999999997      38.474999999999994      2.0249999999999999
  2763   1      26.324999999999996      36.449999999999996      2.0249999999999999
  2764   1      26.324999999999996      38.474999999999994                       0
  2765   1      24.299999999999997      36.449999999999996      4.0499999999999998
  2766   1      24.299999999999997      38.474999999999994      6.0749999999999993
  2767   1      26.324999999999996      36.449999999999996      6.0749999999999993
  2768   1      26.324999999999996      38.474999999999994      4.0499999999999998
  2769   1      24.299999999999997      36.449999999999996      8.0999999999999996
  2770   1      24.299999999999997      38.474999999999994                  10.125
  2771   1      26.324999999999996      36.449999999999996                  10.125
  2772   1      26.324999999999996      38.474999999999994      8.0999999999999996
  2773   1      24.299999999999997      36.449999999999996      12.149999999999999
  2774   1      24.299999999999997      38.474999999999994      14.174999999999999
  2775   1      26.324999999999996      36.449999999999996      14.174999999999999
  2776   1      26.324999999999996      38.474999999999994      12.149999999999999
  2777   1      24.299999999999997      36.449999999999996      16.199999999999999
  2778   1      24.299999999999997      38.474999999999994      18.224999999999998
  2779   1      26.324999999999996      36.449999999999996      18.224999999999998
  2780   1      26.324999999999996      38.474999999999994      16.199999999999999
  2781   1      24.299999999999997      36.449999999999996                   20.25
  2782   1      24.299999999999997      38.474999999999994      22.274999999999999
  2783   1      26.324999999999996      36.449999999999996      22.274999999999999
  2784   1      26.324999999999996      38.474999999999994                   20.25
  2785   1      24.299999999999997      36.449999999999996      24.299999999999997
  2786   1      24.299999999999997      38.474999999999994      26.324999999999996
  2787   1      26.324999999999996      36.449999999999996      26.324999999999996
  2788   1      26.324999999999996      38.474999999999994      24.299999999999997
  2789   1      24.299999999999997      36.449999999999996      28.349999999999998
  2790   1      24.299999999999997      38.474999999999994      30.374999999999996
  2791   1      26.324999999999996      36.449999999999996      30.374999999999996
  2792   1      26.324999999999996      38.474999999999994      28.349999999999998
  2793   1      24.299999999999997      36.449999999999996      32.399999999999999
  2794   1      24.299999999999997      38.474999999999994      34.424999999999997
  2795   1      26.324999999999996      36.449999999999996      34.424999999999997
  2796   1      26.324999999999996      38.474999999999994      32.399999999999999
  2797   1      24.299999999999997      36.449999999999996      36.449999999999996
  2798   1      24.299999999999997      38.474999999999994      38.474999999999994
  2799   1      26.324999999999996      36.449999999999996      38.474999999999994
  2800   1      26.324999999999996      38.474999999999994      36.449999999999996
  2801   1      28.349999999999998                       0                       0
  2802   1      28.349999999999998      2.0249999999999999      2.0249999999999999
  2803   1      30.374999999999996                       0      2.0249999999999999
  2804   1      30.374999999999996      2.0249999999999999                       0
  2805   1      28.349999999999998                       0      4.0499999999999998
  2806   1      28.349999999999998      2.0249999999999999      6.0749999999999993
  2807   1      30.374999999999996                       0      6.0749999999999993
  2808   1      30.374999999999996      2.0249999999999999      4.0499999999999998
  2809   1      28.349999999999998                       0      8.0999999999999996
  2810   1      28.349999999999998      2.0249999999999999                  10.125
  2811   1      30.374999999999996                       0                  10.125
  2812   1      30.374999999999996      2.0249999999999999      8.0999999999999996
  2813   1      28.349999999999998                       0      12.149999999999999
  2814   1      28.349999999999998      2.0249999999999999      14.174999999999999
  2815   1      30.374999999999996                       0      14.174999999999999
  2816   1      30.374999999999996      2.0249999999999999      12.149999999999999
  2817   1      28.349999999999998                       0      16.199999999999999
  2818   1      28.349999999999998      2.0249999999999999      18.224999999999998
  2819   1      30.374999999999996                       0      18.224999999999998
  2820   1      30.374999999999996      2.0249999999999999      16.199999999999999
  2821   1      28.349999999999998                       0                   20.25
  2822   1      28.349999999999998      2.0249999999999999      22.274999999999999
  2823   1      30.374999999999996                       0      22.274999999999999
  2824   1      30.374999999999996      2.0249999999999999                   20.25
  2825   1      28.349999999999998                       0      24.299999999999997
  2826   1      28.349999999999998      2.0249999999999999      26.324999999999996
  2827   1      30.374999999999996                       0      26.324999999999996
  2828   1      30.374999999999996      2.0249999999999999      24.299999999999997
  2829   1      28.349999999999998                       0      28.349999999999998
  2830   1      28.349999999999998      2.0249999999999999      30.374999999999996
  2831   1      30.374999999999996                       0      30.374999999999996
  2832   1      30.374999999999996      2.0249999999999999      28.349999999999998
  2833   1      28.349999999999998                       0      32.399999999999999
  2834   1      28.349999999999998      2.0249999999999999      34.424999999999997
  2835   1      30.374999999999996                       0      34.424999999999997
  2836   1      30.374999999999996      2.0249999999999999      32.399999999999999
  2837   1      28.349999999999998                       0      36.449999999999996
  2838   1      28.349999999999998      2.0249999999999999      38.474999999999994
  2839   1      30.374999999999996                       0      38.474999999999994
  2840   1      30.374999999999996      2.0249999999999999      36.449999999999996
  2841   1      28.349999999999998      4.0499999999999998                       0
  2842   1      28.349999999999998      6.0749999999999993      2.0249999999999999
  2843   1      30.374999999999996      4.0499999999999998      2.0249999999999999
  2844   1      30.374999999999996      6.0749999999999993                       0
  2845   1      28.349999999999998      4.0499999999999998      4.0499999999999998
  2846   1      28.349999999999998      6.0749999999999993      6.0749999999999993
  2847   1      30.374999999999996      4.0499999999999998      6.0749999999999993
  2848   1      30.374999999999996      6.0749999999999993      4.0499999999999998
  2849   1      28.349999999999998      4.0499999999999998      8.0999999999999996
  2850   1      28.349999999999998      6.0749999999999993                  10.125
  2851   1      30.374999999999996      4.0499999999999998                  10.125
  2852   1      30.374999999999996      6.0749999999999993      8.0999999999999996
  2853   1      28.349999999999998      4.0499999999999998      12.149999999999999
  2854   1      28.349999999999998      6.0749999999999993      14.174999999999999
  2855   1      30.374999999999996      4.0499999999999998      14.174999999999999
  2856   1      30.374999999999996      6.0749999999999993      12.149999999999999
  2857   1      28.349999999999998      4.0499999999999998      16.199999999999999
  2858   1      28.349999999999998      6.0749999999999993      18.224999999999998
  2859   1      30.374999999999996      4.0499999999999998      18.224999999999998
  2860   1      30.374999999999996      6.0749999999999993      16.199999999999999
  2861   1      28.349999999999998      4.0499999999999998                   20.25
  2862   1      28.349999999999998      6.0749999999999993      22.274999999999999
  2863   1      30.374999999999996      4.0499999999999998      22.274999999999999
  2864   1      30.374999999999996      6.0749999999999993                   20.25
  2865   1      28.349999999999998      4.0499999999999998      24.299999999999997
  2866   1      28.349999999999998      6.0749999999999993      26.324999999999996
  2867   1      30.374999999999996      4.0499999999999998      26.324999999999996
  2868   1      30.374999999999996      6.0749999999999993      24.299999999999997
  2869   1      28.349999999999998      4.0499999999999998      28.349999999999998
  2870   1      28.349999999999998      6.0749999999999993      30.374999999999996
  2871   1      30.374999999999996      4.0499999999999998      30.374999999999996
  2872   1      30.374999999999996      6.0749999999999993      28.349999999999998
  2873   1      28.349999999999998      4.0499999999999998      32.399999999999999
  2874   1      28.349999999999998      6.0749999999999993      34.424999999999997
  2875   1      30.374999999999996      4.0499999999999998      34.424999999999997
  2876   1      30.374999999999996      6.0749999999999993      32.399999999999999
  2877   1      28.349999999999998      4.0499999999999998      36.449999999999996
  2878   1      28.349999999999998      6.0749999999999993      38.474999999999994
  2879   1      30.374999999999996      4.0499999999999998      38.474999999999994
  2880   1      30.374999999999996      6.0749999999999993      36.449999999999996
  2881   1      28.349999999999998      8.0999999999999996                       0
  2882   1      28.349999999999998                  10.125      2.0249999999999999
  2883   1      30.374999999999996      8.0999999999999996      2.0249999999999999
  2884   1      30.374999999999996                  10.125                       0
  2885   1      28.349999999999998      8.0999999999999996      4.0499999999999998
  2886   1      28.349999999999998                  10.125      6.0749999999999993
  2887   1      30.374999999999996      8.0999999999999996      6.0749999999999993
  2888   1      30.374999999999996                  10.125      4.0499999999999998
  2889   1      28.349999999999998      8.0999999999999996      8.0999999999999996
  2890   1      28.349999999999998                  10.125                  10.125
  2891   1      30.374999999999996      8.0999999999999996                  10.125
  2892   1      30.374999999999996                  10.125      8.0999999999999996
  2893   1      28.349999999999998      8.0999999999999996      12.149999999999999
  2894   1      28.349999999999998                  10.125      14.174999999999999
  2895   1      30.374999999999996      8.0999999999999996      14.174999999999999
  2896   1      30.374999999999996                  10.125      12.149999999999999
  2897   1      28.349999999999998      8.0999999999999996      16.199999999999999
  2898   1      28.349999999999998                  10.125      18.224999999999998
  2899   1      30.374999999999996      8.0999999999999996      18.224999999999998
  2900   1      30.374999999999996                  10.125      16.199999999999999
  2901   1      28.349999999999998      8.0999999999999996                   20.25
  2902   1      28.349999999999998                  10.125      22.274999999999999
  2903   1      30.374999999999996      8.0999999999999996      22.274999999999999
  2904   1      30.374999999999996                  10.125                   20.25
  2905   1      28.349999999999998      8.0999999999999996      24.299999999999997
  2906   1      28.349999999999998                  10.125      26.324999999999996
  2907   1      30.374999999999996      8.0999999999999996      26.324999999999996
  2908   1      30.374999999999996                  10.125      24.299999999999997
  2909   1      28.349999999999998      8.0999999999999996      28.349999999999998
  2910   1      28.349999999999998                  10.125      30.374999999999996
  2911   1      30.374999999999996      8.0999999999999996      30.374999999999996
  2912   1      30.374999999999996                  10.125      28.349999999999998
  2913   1      28.349999999999998      8.0999999999999996      32.399999999999999
  2914   1      28.349999999999998                  10.125      34.424999999999997
  2915   1      30.374999999999996      8.0999999999999996      34.424999999999997
  2916   1      30.374999999999996                  10.125      32.399999999999999
  2917   1      28.349999999999998      8.0999999999999996      36.449999999999996
  2918   1      28.349999999999998                  10.125      38.474999999999994
  2919   1      30.374999999999996      8.0999999999999996      38.474999999999994
  2920   1      30.374999999999996                  10.125      36.449999999999996
  2921   1      28.349999999999998      12.149999999999999                       0
  2922   1      28.349999999999998      14.174999999999999      2.0249999999999999
  2923   1      30.374999999999996      12.149999999999999      2.0249999999999999
  2924   1      30.374999999999996      14.174999999999999                       0
  2925   1      28.349999999999998      12.149999999999999      4.0499999999999998
  2926   1      28.349999999999998      14.174999999999999      6.0749999999999993
  2927   1      30.374999999999996      12.149999999999999      6.0749999999999993
  2928   1      30.374999999999996      14.174999999999999      4.0499999999999998
  2929   1      28.349999999999998      12.149999999999999      8.0999999999999996
  2930   1      28.349999999999998      14.174999999999999                  10.125
  2931   1      30.374999999999996      12.149999999999999                  10.125
  2932   1      30.374999999999996      14.174999999999999      8.0999999999999996
  2933   1      28.349999999999998      12.149999999999999      12.149999999999999
  2934   1      28.349999999999998      14.174999999999999      14.174999999999999
  2935   1      30.374999999999996      12.149999999999999      14.174999999999999
  2936   1      30.374999999999996      14.174999999999999      12.149999999999999
  2937   1      28.349999999999998      12.149999999999999      16.199999999999999
  2938   1      28.349999999999998      14.174999999999999      18.224999999999998
  2939   1      30.374999999999996      12.149999999999999      18.224999999999998
  2940   1      30.374999999999996      14.174999999999999      16.199999999999999
  2941   1      28.349999999999998      12.149999999999999                   20.25
  2942   1      28.349999999999998      14.174999999999999      22.274999999999999
  2943   1      30.374999999999996      12.149999999999999      22.274999999999999
  2944   1      30.374999999999996      14.174999999999999                   20.25
  2945   1      28.349999999999998      12.149999999999999      24.299999999999997
  2946   1      28.349999999999998      14.174999999999999      26.324999999999996
  2947   1      30.374999999999996      12.149999999999999      26.324999999999996
  2948   1      30.374999999999996      14.174999999999999      24.299999999999997
  2949   1      28.349999999999998      12.149999999999999      28.349999999999998
  2950   1      28.349999999999998      14.174999999999999      30.374999999999996
  2951   1      30.374999999999996      12.149999999999999      30.374999999999996
  2952   1      30.374999999999996      14.174999999999999      28.349999999999998
  2953   1      28.349999999999998      12.149999999999999      32.399999999999999
  2954   1      28.349999999999998      14.174999999999999      34.424999999999997
  2955   1      30.374999999999996      12.149999999999999      34.424999999999997
  2956   1      30.374999999999996      14.174999999999999      32.399999999999999
  2957   1      28.349999999999998      12.149999999999999      36.449999999999996
  2958   1      28.349999999999998      14.174999999999999      38.474999999999994
  2959   1      30.374999999999996      12.149999999999999      38.474999999999994
  2960   1      30.374999999999996      14.174999999999999      36.449999999999996
  2961   1      28.349999999999998      16.199999999999999                       0
  2962   1      28.349999999999998      18.224999999999998      2.0249999999999999
  2963   1      30.374999999999996      16.199999999999999      2.0249999999999999
  2964   1      30.374999999999996      18.224999999999998                       0
  2965   1      28.349999999999998      16.199999999999999      4.0499999999999998
  2966   1      28.349999999999998      18.224999999999998      6.0749999999999993
  2967   1      30.374999999999996      16.199999999999999      6.0749999999999993
  2968   1      30.374999999999996      18.224999999999998      4.0499999999999998
  2969   1      28.349999999999998      16.199999999999999      8.0999999999999996
  2970   1      28.349999999999998      18.224999999999998                  10.125
  2971   1      30.374999999999996      16.199999999999999                  10.125
  2972   1      30.374999999999996      18.224999999999998      8.0999999999999996
  2973   1      28.349999999999998      16.199999999999999      12.149999999999999
  2974   1      28.349999999999998      18.224999999999998      14.174999999999999
  2975   1      30.374999999999996      16.199999999999999      14.174999999999999
  2976   1      30.374999999999996      18.224999999999998      12.149999999999999
  2977   1      28.349999999999998      16.199999999999999      16.199999999999999
  2978   1      28.349999999999998      18.224999999999998      18.224999999999998
  2979   1      30.374999999999996      16.199999999999999      18.224999999999998
  2980   1      30.374999999999996      18.224999999999998      16.199999999999999
  2981   1      28.349999999999998      16.199999999999999                   20.25
  2982   1      28.349999999999998      18.224999999999998      22.274999999999999
  2983   1      30.374999999999996      16.199999999999999      22.274999999999999
  2984   1      30.374999999999996      18.224999999999998                   20.25
  2985   1      28.349999999999998      16.199999999999999      24.299999999999997
  2986   1      28.349999999999998      18.224999999999998      26.324999999999996
  2987   1      30.374999999999996      16.199999999999999      26.324999999999996
  2988   1      30.374999999999996      18.224999999999998      24.299999999999997
  2989   1      28.349999999999998      16.199999999999999      28.349999999999998
  2990   1      28.349999999999998      18.224999999999998      30.374999999999996
  2991   1      30.374999999999996      16.199999999999999      30.374999999999996
  2992   1      30.374999999999996      18.224999999999998      28.349999999999998
  2993   1      28.349999999999998      16.199999999999999      32.399999999999999
  2994   1      28.349999999999998      18.224999999999998      34.424999999999997
  2995   1      30.374999999999996      16.199999999999999      34.424999999999997
  2996   1      30.374999999999996      18.224999999999998      32.399999999999999
  2997   1      28.349999999999998      16.199999999999999      36.449999999999996
  2998   1      28.349999999999998      18.224999999999998      38.474999999999994
  2999   1      30.374999999999996      16.199999999999999      38.474999999999994
  3000   1      30.374999999999996      18.224999999999998      36.449999999999996
  3001   1      28.349999999999998                   20.25                       0
  3002   1      28.349999999999998      22.274999999999999      2.0249999999999999
  3003   1      30.374999999999996                   20.25      2.0249999999999999
  3004   1      30.374999999999996      22.274999999999999                       0
  3005   1      28.349999999999998                   20.25      4.0499999999999998
  3006   1      28.349999999999998      22.274999999999999      6.0749999999999993
  3007   1      30.374999999999996                   20.25      6.0749999999999993
  3008   1      30.374999999999996      22.274999999999999      4.0499999999999998
  3009   1      28.349999999999998                   20.25      8.0999999999999996
  3010   1      28.349999999999998      22.274999999999999                  10.125
  3011   1      30.374999999999996                   20.25                  10.125
  3012   1      30.374999999999996      22.274999999999999      8.0999999999999996
  3013   1      28.349999999999998                   20.25      12.149999999999999
  3014   1      28.349999999999998      22.274999999999999      14.174999999999999
  3015   1      30.374999999999996                   20.25      14.174999999999999
  3016   1      30.374999999999996      22.274999999999999      12.149999999999999
  3017   1      28.349999999999998                   20.25      16.199999999999999
  3018   1      28.349999999999998      22.274999999999999      18.224999999999998
  3019   1      30.374999999999996                   20.25      18.224999999999998
  3020   1      30.374999999999996      22.274999999999999      16.199999999999999
  3021   1      28.349999999999998                   20.25                   20.25
  3022   1      28.349999999999998      22.274999999999999      22.274999999999999
  3023   1      30.374999999999996                   20.25      22.274999999999999
  3024   1      30.374999999999996      22.274999999999999                   20.25
  3025   1      28.349999999999998                   20.25      24.299999999999997
  3026   1      28.349999999999998      22.274999999999999      26.324999999999996
  3027   1      30.374999999999996                   20.25      26.324999999999996
  3028   1      30.374999999999996      22.274999999999999      24.299999999999997
  3029   1      28.349999999999998                   20.25      28.349999999999998
  3030   1      28.349999999999998      22.274999999999999      30.374999999999996
  3031   1      30.374999999999996                   20.25      30.374999999999996
  3032   1      30.374999999999996      22.274999999999999      28.349999999999998
  3033   1      28.349999999999998                   20.25      32.399999999999999
  3034   1      28.349999999999998      22.274999999999999      34.424999999999997
  3035   1      30.374999999999996                   20.25      34.424999999999997
  3036   1      30.374999999999996      22.274999999999999      32.399999999999999
  3037   1      28.349999999999998                   20.25      36.449999999999996
  3038   1      28.349999999999998      22.274999999999999      38.474999999999994
  3039   1      30.374999999999996                   20.25      38.474999999999994
  3040   1      30.374999999999996      22.274999999999999      36.449999999999996
  3041   1      28.349999999999998      24.299999999999997                       0
  3042   1      28.349999999999998      26.324999999999996      2.0249999999999999
  3043   1      30.374999999999996      24.299999999999997      2.0249999999999999
  3044   1      30.374999999999996      26.324999999999996                       0
  3045   1      28.349999999999998      24.299999999999997      4.0499999999999998
  3046   1      28.349999999999998      26.324999999999996      6.0749999999999993
  3047   1      30.374999999999996      24.299999999999997      6.0749999999999993
  3048   1      30.374999999999996      26.324999999999996      4.0499999999999998
  3049   1      28.349999999999998      24.299999999999997      8.0999999999999996
  3050   1      28.349999999999998      26.324999999999996                  10.125
  3051   1      30.374999999999996      24.299999999999997                  10.125
  3052   1      30.374999999999996      26.324999999999996      8.0999999999999996
  3053   1      28.349999999999998      24.299999999999997      12.149999999999999
  3054   1      28.349999999999998      26.324999999999996      14.174999999999999
  3055   1      30.374999999999996      24.299999999999997      14.174999999999999
  3056   1      30.374999999999996      26.324999999999996      12.149999999999999
  3057   1      28.349999999999998      24.299999999999997      16.199999999999999
  3058   1      28.349999999999998      26.324999999999996      18.224999999999998
  3059   1      30.374999999999996      24.299999999999997      18.224999999999998
  3060   1      30.374999999999996      26.324999999999996      16.199999999999999
  3061   1      28.349999999999998      24.299999999999997                   20.25
  3062   1      28.349999999999998      26.324999999999996      22.274999999999999
  3063   1      30.374999999999996      24.299999999999997      22.274999999999999
  3064   1      30.374999999999996      26.324999999999996                   20.25
  3065   1      28.349999999999998      24.299999999999997      24.299999999999997
  3066   1      28.349999999999998      26.324999999999996      26.324999999999996
  3067   1      30.374999999999996      24.299999999999997      26.324999999999996
  3068   1      30.374999999999996      26.324999999999996      24.299999999999997
  3069   1      28.349999999999998      24.299999999999997      28.349999999999998
  3070   1      28.349999999999998      26.324999999999996      30.374999999999996
  3071   1      30.374999999999996      24.299999999999997      30.374999999999996
  3072   1      30.374999999999996      26.324999999999996      28.349999999999998
  3073   1      28.349999999999998      24.299999999999997      32.399999999999999
  3074   1      28.349999999999998      26.324999999999996      34.424999999999997
  3075   1      30.374999999999996      24.299999999999997      34.424999999999997
  3076   1      30.374999999999996      26.324999999999996      32.399999999999999
  3077   1      28.349999999999998      24.299999999999997      36.449999999999996
  3078   1      28.349999999999998      26.324999999999996      38.474999999999994
  3079   1      30.374999999999996      24.299999999999997      38.474999999999994
  3080   1      30.374999999999996      26.324999999999996      36.449999999999996
  3081   1      28.349999999999998      28.349999999999998                       0
  3082   1      28.349999999999998      30.374999999999996      2.0249999999999999
  3083   1      30.374999999999996      28.349999999999998      2.0249999999999999
  3084   1      30.374999999999996      30.374999999999996                       0
  3085   1      28.349999999999998      28.349999999999998      4.0499999999999998
  3086   1      28.349999999999998      30.374999999999996      6.0749999999999993
  3087   1      30.374999999999996      28.349999999999998      6.0749999999999993
  3088   1      30.374999999999996      30.374999999999996      4.0499999999999998
  3089   1      28.349999999999998      28.349999999999998      8.0999999999999996
  3090   1      28.349999999999998      30.374999999999996                  10.125
  3091   1      30.374999999999996      28.349999999999998                  10.125
  3092   1      30.374999999999996      30.374999999999996      8.0999999999999996
  3093   1      28.349999999999998      28.349999999999998      12.149999999999999
  3094   1      28.349999999999998      30.374999999999996      14.174999999999999
  3095   1      30.374999999999996      28.349999999999998      14.174999999999999
  3096   1      30.374999999999996      30.374999999999996      12.149999999999999
  3097   1      28.349999999999998      28.349999999999998      16.199999999999999
  3098   1      28.349999999999998      30.374999999999996      18.224999999999998
  3099   1      30.374999999999996      28.349999999999998      18.224999999999998
  3100   1      30.374999999999996      30.374999999999996      16.199999999999999
  3101   1      28.349999999999998      28.349999999999998                   20.25
  3102   1      28.349999999999998      30.374999999999996      22.274999999999999
  3103   1      30.374999999999996      28.349999999999998      22.274999999999999
  3104   1      30.374999999999996      30.374999999999996                   20.25
  3105   1      28.349999999999998      28.349999999999998      24.299999999999997
  3106   1      28.349999999999998      30.374999999999996      26.324999999999996
  3107   1      30.374999999999996      28.349999999999998      26.324999999999996
  3108   1      30.374999999999996      30.374999999999996      24.299999999999997
  3109   1      28.349999999999998      28.349999999999998      28.349999999999998
  3110   1      28.349999999999998      30.374999999999996      30.374999999999996
  3111   1      30.374999999999996      28.349999999999998      30.374999999999996
  3112   1      30.374999999999996      30.374999999999996      28.349999999999998
  3113   1      28.349999999999998      28.349999999999998      32.399999999999999
  3114   1      28.349999999999998      30.374999999999996      34.424999999999997
  3115   1      30.374999999999996      28.349999999999998      34.424999999999997
  3116   1      30.374999999999996      30.374999999999996      32.399999999999999
  3117   1      28.349999999999998      28.349999999999998      36.449999999999996
  3118   1      28.349999999999998      30.374999999999996      38.474999999999994
  3119   1      30.374999999999996      28.349999999999998      38.474999999999994
  3120   1      30.374999999999996      30.374999999999996      36.449999999999996
  3121   1      28.349999999999998      32.399999999999999                       0
  3122   1      28.349999999999998      34.424999999999997      2.0249999999999999
  3123   1      30.374999999999996      32.399999999999999      2.0249999999999999
  3124   1      30.374999999999996      34.424999999999997                       0
  3125   1      28.349999999999998      32.399999999999999      4.0499999999999998
  3126   1      28.349999999999998      34.424999999999997      6.0749999999999993
  3127   1      30.374999999999996      32.399999999999999      6.0749999999999993
  3128   1      30.374999999999996      34.424999999999997      4.0499999999999998
  3129   1      28.349999999999998      32.399999999999999      8.0999999999999996
  3130   1      28.349999999999998      34.424999999999997                  10.125
  3131   1      30.374999999999996      32.399999999999999                  10.125
  3132   1      30.374999999999996      34.424999999999997      8.0999999999999996
  3133   1      28.349999999999998      32.399999999999999      12.149999999999999
  3134   1      28.349999999999998      34.424999999999997      14.174999999999999
  3135   1      30.374999999999996      32.399999999999999      14.174999999999999
  3136   1      30.374999999999996      34.424999999999997      12.149999999999999
  3137   1      28.349999999999998      32.399999999999999      16.199999999999999
  3138   1      28.349999999999998      34.424999999999997      18.224999999999998
  3139   1      30.374999999999996      32.399999999999999      18.224999999999998
  3140   1      30.374999999999996      34.424999999999997      16.199999999999999
  3141   1      28.349999999999998      32.399999999999999                   20.25
  3142   1      28.349999999999998      34.424999999999997      22.274999999999999
  3143   1      30.374999999999996      32.399999999999999      22.274999999999999
  3144   1      30.374999999999996      34.424999999999997                   20.25
  3145   1      28.349999999999998      32.399999999999999      24.299999999999997
  3146   1      28.349999999999998      34.424999999999997      26.324999999999996
  3147   1      30.374999999999996      32.399999999999999      26.324999999999996
  3148   1      30.374999999999996      34.424999999999997      24.299999999999997
  3149   1      28.349999999999998      32.399999999999999      28.349999999999998
  3150   1      28.349999999999998      34.424999999999997      30.374999999999996
  3151   1      30.374999999999996      32.399999999999999      30.374999999999996
  3152   1      30.374999999999996      34.424999999999997      28.349999999999998
  3153   1      28.349999999999998      32.399999999999999      32.399999999999999
  3154   1      28.349999999999998      34.424999999999997      34.424999999999997
  3155   1      30.374999999999996      32.399999999999999      34.424999999999997
  3156   1      30.374999999999996      34.424999999999997      32.399999999999999
  3157   1      28.349999999999998      32.399999999999999      36.449999999999996
  3158   1      28.349999999999998      34.424999999999997      38.474999999999994
  3159   1      30.374999999999996      32.399999999999999      38.474999999999994
  3160   1      30.374999999999996      34.424999999999997      36.449999999999996
  3161   1      28.349999999999998      36.449999999999996                       0
  3162   1      28.349999999999998      38.474999999999994      2.0249999999999999
  3163   1      30.374999999999996      36.449999999999996      2.0249999999999999
  3164   1      30.374999999999996      38.474999999999994                       0
  3165   1      28.349999999999998      36.449999999999996      4.0499999999999998
  3166   1      28.349999999999998      38.474999999999994      6.0749999999999993
  3167   1      30.374999999999996      36.449999999999996      6.0749999999999993
  3168   1      30.374999999999996      38.474999999999994      4.0499999999999998
  3169   1      28.349999999999998      36.449999999999996      8.0999999999999996
  3170   1      28.349999999999998      38.474999999999994                  10.125
  3171   1      30.374999999999996      36.449999999999996                  10.125
  3172   1      30.374999999999996      38.474999999999994      8.0999999999999996
  3173   1      28.349999999999998      36.449999999999996      12.149999999999999
  3174   1      28.349999999999998      38.474999999999994      14.174999999999999
  3175   1      30.374999999999996      36.449999999999996      14.174999999999999
  3176   1      30.374999999999996      38.474999999999994      12.149999999999999
  3177   1      28.349999999999998      36.449999999999996      16.199999999999999
  3178   1      28.349999999999998      38.474999999999994      18.224999999999998
  3179   1      30.374999999999996      36.449999999999996      18.224999999999998
  3180   1      30.374999999999996      38.474999999999994      16.199999999999999
  3181   1      28.349999999999998      36.449999999999996                   20.25
  3182   1      28.349999999999998      38.474999999999994      22.274999999999999
  3183   1      30.374999999999996      36.449999999999996      22.274999999999999
  3184   1      30.374999999999996      38.474999999999994                   20.25
  3185   1      28.349999999999998      36.449999999999996      24.299999999999997
  3186   1      28.349999999999998      38.474999999999994      26.324999999999996
  3187   1      30.374999999999996      36.449999999999996      26.324999999999996
  3188   1      30.374999999999996      38.474999999999994      24.299999999999997
  3189   1      28.349999999999998      36.449999999999996      28.349999999999998
  3190   1      28.349999999999998      38.474999999999994      30.374999999999996
  3191   1      30.374999999999996      36.449999999999996      30.374999999999996
  3192   1      30.374999999999996      38.474999999999994      28.349999999999998
  3193   1      28.349999999999998      36.449999999999996      32.399999999999999
  3194   1      28.349999999999998      38.474999999999994      34.424999999999997
  3195   1      30.374999999999996      36.449999999999996      34.424999999999997
  3196   1      30.374999999999996      38.474999999999994      32.399999999999999
  3197   1      28.349999999999998      36.449999999999996      36.449999999999996
  3198   1      28.349999999999998      38.474999999999994      38.474999999999994
  3199   1      30.374999999999996      36.449999999999996      38.474999999999994
  3200   1      30.374999999999996      38.474999999999994      36.449999999999996
  3201   1      32.399999999999999                       0                       0
  3202   1      32.399999999999999      2.0249999999999999      2.0249999999999999
  3203   1      34.424999999999997                       0      2.0249999999999999
  3204   1      34.424999999999997      2.0249999999999999                       0
  3205   1      32.399999999999999                       0      4.0499999999999998
  3206   1      32.399999999999999      2.0249999999999999      6.0749999999999993
  3207   1      34.424999999999997                       0      6.0749999999999993
  3208   1      34.424999999999997      2.0249999999999999      4.0499999999999998
  3209   1      32.399999999999999                       0      8.0999999999999996
  3210   1      32.399999999999999      2.0249999999999999                  10.125
  3211   1      34.424999999999997                       0                  10.125
  3212   1      34.424999999999997      2.0249999999999999      8.0999999999999996
  3213   1      32.399999999999999                       0      12.149999999999999
  3214   1      32.399999999999999      2.0249999999999999      14.174999999999999
  3215   1      34.424999999999997                       0      14.174999999999999
  3216   1      34.424999999999997      2.0249999999999999      12.149999999999999
  3217   1      32.399999999999999                       0      16.199999999999999
  3218   1      32.399999999999999      2.0249999999999999      18.224999999999998
  3219   1      34.424999999999997                       0      18.224999999999998
  3220   1      34.424999999999997      2.0249999999999999      16.199999999999999
  3221   1      32.399999999999999                       0                   20.25
  3222   1      32.399999999999999      2.0249999999999999      22.274999999999999
  3223   1      34.424999999999997                       0      22.274999999999999
  3224   1      34.424999999999997      2.0249999999999999                   20.25
  3225   1      32.399999999999999                       0      24.299999999999997
  3226   1      32.399999999999999      2.0249999999999999      26.324999999999996
  3227   1      34.424999999999997                       0      26.324999999999996
  3228   1      34.424999999999997      2.0249999999999999      24.299999999999997
  3229   1      32.399999999999999                       0      28.349999999999998
  3230   1      32.399999999999999      2.0249999999999999      30.374999999999996
  3231   1      34.424999999999997                       0      30.374999999999996
  3232   1      34.424999999999997      2.0249999999999999      28.349999999999998
  3233   1      32.399999999999999                       0      32.399999999999999
  3234   1      32.399999999999999      2.0249999999999999      34.424999999999997
  3235   1      34.424999999999997                       0      34.424999999999997
  3236   1      34.424999999999997      2.0249999999999999      32.399999999999999
  3237   1      32.399999999999999                       0      36.449999999999996
  3238   1      32.399999999999999      2.0249999999999999      38.474999999999994
  3239   1      34.424999999999997                       0      38.474999999999994
  3240   1      34.424999999999997      2.0249999999999999      36.449999999999996
  3241   1      32.399999999999999      4.0499999999999998                       0
  3242   1      32.399999999999999      6.0749999999999993      2.0249999999999999
  3243   1      34.424999999999997      4.0499999999999998      2.0249999999999999
  3244   1      34.424999999999997      6.0749999999999993                       0
  3245   1      32.399999999999999      4.0499999999999998      4.0499999999999998
  3246   1      32.399999999999999      6.0749999999999993      6.0749999999999993
  3247   1      34.424999999999997      4.0499999999999998      6.0749999999999993
  3248   1      34.424999999999997      6.0749999999999993      4.0499999999999998
  3249   1      32.399999999999999      4.0499999999999998      8.0999999999999996
  3250   1      32.399999999999999      6.0749999999999993                  10.125
  3251   1      34.424999999999997      4.0499999999999998                  10.125
  3252   1      34.424999999999997      6.0749999999999993      8.0999999999999996
  3253   1      32.399999999999999      4.0499999999999998      12.149999999999999
  3254   1      32.399999999999999      6.0749999999999993      14.174999999999999
  3255   1      34.424999999999997      4.0499999999999998      14.174999999999999
  3256   1      34.424999999999997      6.0749999999999993      12.149999999999999
  3257   1      32.399999999999999      4.0499999999999998      16.199999999999999
  3258   1      32.399999999999999      6.0749999999999993      18.224999999999998
  3259   1      34.424999999999997      4.0499999999999998      18.224999999999998
  3260   1      34.424999999999997      6.0749999999999993      16.199999999999999
  3261   1      32.399999999999999      4.0499999999999998                   20.25
  3262   1      32.399999999999999      6.0749999999999993      22.274999999999999
  3263   1      34.424999999999997      4.0499999999999998      22.274999999999999
  3264   1      34.424999999999997      6.0749999999999993                   20.25
  3265   1      32.399999999999999      4.0499999999999998      24.299999999999997
  3266   1      32.399999999999999      6.0749999999999993      26.324999999999996
  3267   1      34.424999999999997      4.0499999999999998      26.324999999999996
  3268   1      34.424999999999997      6.0749999999999993      24.299999999999997
  3269   1      32.399999999999999      4.0499999999999998      28.349999999999998
  3270   1      32.399999999999999      6.0749999999999993      30.374999999999996
  3271   1      34.424999999999997      4.0499999999999998      30.374999999999996
  3272   1      34.424999999999997      6.0749999999999993      28.349999999999998
  3273   1      32.399999999999999      4.0499999999999998      32.399999999999999
  3274   1      32.399999999999999      6.0749999999999993      34.424999999999997
  3275   1      34.424999999999997      4.0499999999999998      34.424999999999997
  3276   1      34.424999999999997      6.0749999999999993      32.399999999999999
  3277   1      32.399999999999999      4.0499999999999998      36.449999999999996
  3278   1      32.399999999999999      6.0749999999999993      38.474999999999994
  3279   1      34.424999999999997      4.0499999999999998      38.474999999999994
  3280   1      34.424999999999997      6.0749999999999993      36.449999999999996
  3281   1      32.399999999999999      8.0999999999999996                       0
  3282   1      32.399999999999999                  10.125      2.0249999999999999
  3283   1      34.424999999999997      8.0999999999999996      2.0249999999999999
  3284   1      34.424999999999997                  10.125                       0
  3285   1      32.399999999999999      8.0999999999999996      4.0499999999999998
  3286   1      32.399999999999999                  10.125      6.0749999999999993
  3287   1      34.424999999999997      8.0999999999999996      6.0749999999999993
  3288   1      34.424999999999997                  10.125      4.0499999999999998
  3289   1      32.399999999999999      8.0999999999999996      8.0999999999999996
  3290   1      32.399999999999999                  10.125                  10.125
  3291   1      34.424999999999997      8.0999999999999996                  10.125
  3292   1      34.424999999999997                  10.125      8.0999999999999996
  3293   1      32.399999999999999      8.0999999999999996      12.149999999999999
  3294   1      32.399999999999999                  10.125      14.174999999999999
  3295   1      34.424999999999997      8.0999999999999996      14.174999999999999
  3296   1      34.424999999999997                  10.125      12.149999999999999
  3297   1      32.399999999999999      8.0999999999999996      16.199999999999999
  3298   1      32.399999999999999                  10.125      18.224999999999998
  3299   1      34.424999999999997      8.0999999999999996      18.224999999999998
  3300   1      34.424999999999997                  10.125      16.199999999999999
  3301   1      32.399999999999999      8.0999999999999996                   20.25
  3302   1      32.399999999999999                  10.125      22.274999999999999
  3303   1      34.424999999999997      8.0999999999999996      22.274999999999999
  3304   1      34.424999999999997                  10.125                   20.25
  3305   1      32.399999999999999      8.0999999999999996      24.299999999999997
  3306   1      32.399999999999999                  10.125      26.324999999999996
  3307   1      34.424999999999997      8.0999999999999996      26.324999999999996
  3308   1      34.424999999999997                  10.125      24.299999999999997
  3309   1      32.399999999999999      8.0999999999999996      28.349999999999998
  3310   1      32.399999999999999                  10.125      30.374999999999996
  3311   1      34.424999999999997      8.0999999999999996      30.374999999999996
  3312   1      34.424999999999997                  10.125      28.349999999999998
  3313   1      32.399999999999999      8.0999999999999996      32.399999999999999
  3314   1      32.399999999999999                  10.125      34.424999999999997
  3315   1      34.424999999999997      8.0999999999999996      34.424999999999997
  3316   1      34.424999999999997                  10.125      32.399999999999999
  3317   1      32.399999999999999      8.0999999999999996      36.449999999999996
  3318   1      32.399999999999999                  10.125      38.474999999999994
  3319   1      34.424999999999997      8.0999999999999996      38.474999999999994
  3320   1      34.424999999999997                  10.125      36.449999999999996
  3321   1      32.399999999999999      12.149999999999999                       0
  3322   1      32.399999999999999      14.174999999999999      2.0249999999999999
  3323   1      34.424999999999997      12.149999999999999      2.0249999999999999
  3324   1      34.424999999999997      14.174999999999999                       0
  3325   1      32.399999999999999      12.149999999999999      4.0499999999999998
  3326   1      32.399999999999999      14.174999999999999      6.0749999999999993
  3327   1      34.424999999999997      12.149999999999999      6.0749999999999993
  3328   1      34.424999999999997      14.174999999999999      4.0499999999999998
  3329   1      32.399999999999999      12.149999999999999      8.0999999999999996
  3330   1      32.399999999999999      14.174999999999999                  10.125
  3331   1      34.424999999999997      12.149999999999999                  10.125
  3332   1      34.424999999999997      14.174999999999999      8.0999999999999996
  3333   1      32.399999999999999      12.149999999999999      12.149999999999999
  3334   1      32.399999999999999      14.174999999999999      14.174999999999999
  3335   1      34.424999999999997      12.149999999999999      14.174999999999999
  3336   1      34.424999999999997      14.174999999999999      12.149999999999999
  3337   1      32.399999999999999      12.149999999999999      16.199999999999999
  3338   1      32.399999999999999      14.174999999999999      18.224999999999998
  3339   1      34.424999999999997      12.149999999999999      18.224999999999998
  3340   1      34.424999999999997      14.174999999999999      16.199999999999999
  3341   1      32.399999999999999      12.149999999999999                   20.25
  3342   1      32.399999999999999      14.174999999999999      22.274999999999999
  3343   1      34.424999999999997      12.149999999999999      22.274999999999999
  3344   1      34.424999999999997      14.174999999999999                   20.25
  3345   1      32.399999999999999      12.149999999999999      24.299999999999997
  3346   1      32.399999999999999      14.174999999999999      26.324999999999996
  3347   1      34.424999999999997      12.149999999999999      26.324999999999996
  3348   1      34.424999999999997      14.174999999999999      24.299999999999997
  3349   1      32.399999999999999      12.149999999999999      28.349999999999998
  3350   1      32.399999999999999      14.174999999999999      30.374999999999996
  3351   1      34.424999999999997      12.149999999999999      30.374999999999996
  3352   1      34.424999999999997      14.174999999999999      28.349999999999998
  3353   1      32.399999999999999      12.149999999999999      32.399999999999999
  3354   1      32.399999999999999      14.174999999999999      34.424999999999997
  3355   1      34.424999999999997      12.149999999999999      34.424999999999997
  3356   1      34.424999999999997      14.174999999999999      32.399999999999999
  3357   1      32.399999999999999      12.149999999999999      36.449999999999996
  3358   1      32.399999999999999      14.174999999999999      38.474999999999994
  3359   1      34.424999999999997      12.149999999999999      38.474999999999994
  3360   1      34.424999999999997      14.174999999999999      36.449999999999996
  3361   1      32.399999999999999      16.199999999999999                       0
  3362   1      32.399999999999999      18.224999999999998      2.0249999999999999
  3363   1      34.424999999999997      16.199999999999999      2.0249999999999999
  3364   1      34.424999999999997      18.224999999999998                       0
  3365   1      32.399999999999999      16.199999999999999      4.0499999999999998
  3366   1      32.399999999999999      18.224999999999998      6.0749999999999993
  3367   1      34.424999999999997      16.199999999999999      6.0749999999999993
  3368   1      34.424999999999997      18.224999999999998      4.0499999999999998
  3369   1      32.399999999999999      16.199999999999999      8.0999999999999996
  3370   1      32.399999999999999      18.224999999999998                  10.125
  3371   1      34.424999999999997      16.199999999999999                  10.125
  3372   1      34.424999999999997      18.224999999999998      8.0999999999999996
  3373   1      32.399999999999999      16.199999999999999      12.149999999999999
  3374   1      32.399999999999999      18.224999999999998      14.174999999999999
  3375   1      34.424999999999997      16.199999999999999      14.174999999999999
  3376   1      34.424999999999997      18.224999999999998      12.149999999999999
  3377   1      32.399999999999999      16.199999999999999      16.199999999999999
  3378   1      32.399999999999999      18.224999999999998      18.224999999999998
  3379   1      34.424999999999997      16.199999999999999      18.224999999999998
  3380   1      34.424999999999997      18.224999999999998      16.199999999999999
  3381   1      32.399999999999999      16.199999999999999                   20.25
  3382   1      32.399999999999999      18.224999999999998      22.274999999999999
  3383   1      34.424999999999997      16.199999999999999      22.274999999999999
  3384   1      34.424999999999997      18.224999999999998                   20.25
  3385   1      32.399999999999999      16.199999999999999      24.299999999999997
  3386   1      32.399999999999999      18.224999999999998      26.324999999999996
  3387   1      34.424999999999997      16.199999999999999      26.324999999999996
  3388   1      34.424999999999997      18.224999999999998      24.299999999999997
  3389   1      32.399999999999999      16.199999999999999      28.349999999999998
  3390   1      32.399999999999999      18.224999999999998      30.374999999999996
  3391   1      34.424999999999997      16.199999999999999      30.374999999999996
  3392   1      34.424999999999997      18.224999999999998      28.349999999999998
  3393   1      32.399999999999999      16.199999999999999      32.399999999999999
  3394   1      32.399999999999999      18.224999999999998      34.424999999999997
  3395   1      34.424999999999997      16.199999999999999      34.424999999999997
  3396   1      34.424999999999997      18.224999999999998      32.399999999999999
  3397   1      32.399999999999999      16.199999999999999      36.449999999999996
  3398   1      32.399999999999999      18.224999999999998      38.474999999999994
  3399   1      34.424999999999997      16.199999999999999      38.474999999999994
  3400   1      34.424999999999997      18.224999999999998      36.449999999999996
  3401   1      32.399999999999999                   20.25                       0
  3402   1      32.399999999999999      22.274999999999999      2.0249999999999999
  3403   1      34.424999999999997                   20.25      2.0249999999999999
  3404   1      34.424999999999997      22.274999999999999                       0
  3405   1      32.399999999999999                   20.25      4.0499999999999998
  3406   1      32.399999999999999      22.274999999999999      6.0749999999999993
  3407   1      34.424999999999997                   20.25      6.0749999999999993
  3408   1      34.424999999999997      22.274999999999999      4.0499999999999998
  3409   1      32.399999999999999                   20.25      8.0999999999999996
  3410   1      32.399999999999999      22.274999999999999                  10.125
  3411   1      34.424999999999997                   20.25                  10.125
  3412   1      34.424999999999997      22.274999999999999      8.0999999999999996
  3413   1      32.399999999999999                   20.25      12.149999999999999
  3414   1      32.399999999999999      22.274999999999999      14.174999999999999
  3415   1      34.424999999999997                   20.25      14.174999999999999
  3416   1      34.424999999999997      22.274999999999999      12.149999999999999
  3417   1      32.399999999999999                   20.25      16.199999999999999
  3418   1      32.399999999999999      22.274999999999999      18.224999999999998
  3419   1      34.424999999999997                   20.25      18.224999999999998
  3420   1      34.424999999999997      22.274999999999999      16.199999999999999
  3421   1      32.399999999999999                   20.25                   20.25
  3422   1      32.399999999999999      22.274999999999999      22.274999999999999
  3423   1      34.424999999999997                   20.25      22.274999999999999
  3424   1      34.424999999999997      22.274999999999999                   20.25
  3425   1      32.399999999999999                   20.25      24.299999999999997
  3426   1      32.399999999999999      22.274999999999999      26.324999999999996
  3427   1      34.424999999999997                   20.25      26.324999999999996
  3428   1      34.424999999999997      22.274999999999999      24.299999999999997
  3429   1      32.399999999999999                   20.25      28.349999999999998
  3430   1      32.399999999999999      22.274999999999999      30.374999999999996
  3431   1      34.424999999999997                   20.25      30.374999999999996
  3432   1      34.424999999999997      22.274999999999999      28.349999999999998
  3433   1      32.399999999999999                   20.25      32.399999999999999
  3434   1      32.399999999999999      22.274999999999999      34.424999999999997
  3435   1      34.424999999999997                   20.25      34.424999999999997
  3436   1      34.424999999999997      22.274999999999999      32.399999999999999
  3437   1      32.399999999999999                   20.25      36.449999999999996
  3438   1      32.399999999999999      22.274999999999999      38.474999999999994
  3439   1      34.424999999999997                   20.25      38.474999999999994
  3440   1      34.424999999999997      22.274999999999999      36.449999999999996
  3441   1      32.399999999999999      24.299999999999997                       0
  3442   1      32.399999999999999      26.324999999999996      2.0249999999999999
  3443   1      34.424999999999997      24.299999999999997      2.0249999999999999
  3444   1      34.424999999999997      26.324999999999996                       0
  3445   1      32.399999999999999      24.299999999999997      4.0499999999999998
  3446   1      32.399999999999999      26.324999999999996      6.0749999999999993
  3447   1      34.424999999999997      24.299999999999997      6.0749999999999993
  3448   1      34.424999999999997      26.324999999999996      4.0499999999999998
  3449   1      32.399999999999999      24.299999999999997      8.0999999999999996
  3450   1      32.399999999999999      26.324999999999996                  10.125
  3451   1      34.424999999999997      24.299999999999997                  10.125
  3452   1      34.424999999999997      26.324999999999996      8.0999999999999996
  3453   1      32.399999999999999      24.299999999999997      12.149999999999999
  3454   1      32.399999999999999      26.324999999999996      14.174999999999999
  3455   1      34.424999999999997      24.299999999999997      14.174999999999999
  3456   1      34.424999999999997      26.324999999999996      12.149999999999999
  3457   1      32.399999999999999      24.299999999999997      16.199999999999999
  3458   1      32.399999999999999      26.324999999999996      18.224999999999998
  3459   1      34.424999999999997      24.299999999999997      18.224999999999998
  3460   1      34.424999999999997      26.324999999999996      16.199999999999999
  3461   1      32.399999999999999      24.299999999999997                   20.25
  3462   1      32.399999999999999      26.324999999999996      22.274999999999999
  3463   1      34.424999999999997      24.299999999999997      22.274999999999999
  3464   1      34.424999999999997      26.324999999999996                   20.25
  3465   1      32.399999999999999      24.299999999999997      24.299999999999997
  3466   1      32.399999999999999      26.324999999999996      26.324999999999996
  3467   1      34.424999999999997      24.299999999999997      26.324999999999996
  3468   1      34.424999999999997      26.324999999999996      24.299999999999997
  3469   1      32.399999999999999      24.299999999999997      28.349999999999998
  3470   1      32.399999999999999      26.324999999999996      30.374999999999996
  3471   1      34.424999999999997      24.299999999999997      30.374999999999996
  3472   1      34.424999999999997      26.324999999999996      28.349999999999998
  3473   1      32.399999999999999      24.299999999999997      32.399999999999999
  3474   1      32.399999999999999      26.324999999999996      34.424999999999997
  3475   1      34.424999999999997      24.299999999999997      34.424999999999997
  3476   1      34.424999999999997      26.324999999999996      32.399999999999999
  3477   1      32.399999999999999      24.299999999999997      36.449999999999996
  3478   1      32.399999999999999      26.324999999999996      38.474999999999994
  3479   1      34.424999999999997      24.299999999999997      38.474999999999994
  3480   1      34.424999999999997      26.324999999999996      36.449999999999996
  3481   1      32.399999999999999      28.349999999999998                       0
  3482   1      32.399999999999999      30.374999999999996      2.0249999999999999
  3483   1      34.424999999999997      28.349999999999998      2.0249999999999999
  3484   1      34.424999999999997      30.374999999999996                       0
  3485   1      32.399999999999999      28.349999999999998      4.0499999999999998
  3486   1      32.399999999999999      30.374999999999996      6.0749999999999993
  3487   1      34.424999999999997      28.349999999999998      6.0749999999999993
  3488   1      34.424999999999997      30.374999999999996      4.0499999999999998
  3489   1      32.399999999999999      28.349999999999998      8.0999999999999996
  3490   1      32.399999999999999      30.374999999999996                  10.125
  3491   1      34.424999999999997      28.349999999999998                  10.125
  3492   1      34.424999999999997      30.374999999999996      8.0999999999999996
  3493   1      32.399999999999999      28.349999999999998      12.149999999999999
  3494   1      32.399999999999999      30.374999999999996      14.174999999999999
  3495   1      34.424999999999997      28.349999999999998      14.174999999999999
  3496   1      34.424999999999997      30.374999999999996      12.149999999999999
  3497   1      32.399999999999999      28.349999999999998      16.199999999999999
  3498   1      32.399999999999999      30.374999999999996      18.224999999999998
  3499   1      34.424999999999997      28.349999999999998      18.224999999999998
  3500   1      34.424999999999997      30.374999999999996      16.199999999999999
  3501   1      32.399999999999999      28.349999999999998                   20.25
  3502   1      32.399999999999999      30.374999999999996      22.274999999999999
  3503   1      34.424999999999997      28.349999999999998      22.274999999999999
  3504   1      34.424999999999997      30.374999999999996                   20.25
  3505   1      32.399999999999999      28.349999999999998      24.299999999999997
  3506   1      32.399999999999999      30.374999999999996      26.324999999999996
  3507   1      34.424999999999997      28.349999999999998      26.324999999999996
  3508   1      34.424999999999997      30.374999999999996      24.299999999999997
  3509   1      32.399999999999999      28.349999999999998      28.349999999999998
  3510   1      32.399999999999999      30.374999999999996      30.374999999999996
  3511   1      34.424999999999997      28.349999999999998      30.374999999999996
  3512   1      34.424999999999997      30.374999999999996      28.349999999999998
  3513   1      32.399999999999999      28.349999999999998      32.399999999999999
  3514   1      32.399999999999999      30.374999999999996      34.424999999999997
  3515   1      34.424999999999997      28.349999999999998      34.424999999999997
  3516   1      34.424999999999997      30.374999999999996      32.399999999999999
  3517   1      32.399999999999999      28.349999999999998      36.449999999999996
  3518   1      32.399999999999999      30.374999999999996      38.474999999999994
  3519   1      34.424999999999997      28.349999999999998      38.474999999999994
  3520   1      34.424999999999997      30.374999999999996      36.449999999999996
  3521   1      32.399999999999999      32.399999999999999                       0
  3522   1      32.399999999999999      34.424999999999997      2.0249999999999999
  3523   1      34.424999999999997      32.399999999999999      2.0249999999999999
  3524   1      34.424999999999997      34.424999999999997                       0
  3525   1      32.399999999999999      32.399999999999999      4.0499999999999998
  3526   1      32.399999999999999      34.424999999999997      6.0749999999999993
  3527   1      34.424999999999997      32.399999999999999      6.0749999999999993
  3528   1      34.424999999999997      34.424999999999997      4.0499999999999998
  3529   1      32.399999999999999      32.399999999999999      8.0999999999999996
  3530   1      32.399999999999999      34.424999999999997                  10.125
  3531   1      34.424999999999997      32.399999999999999                  10.125
  3532   1      34.424999999999997      34.424999999999997      8.0999999999999996
  3533   1      32.399999999999999      32.399999999999999      12.149999999999999
  3534   1      32.399999999999999      34.424999999999997      14.174999999999999
  3535   1      34.424999999999997      32.399999999999999      14.174999999999999
  3536   1      34.424999999999997      34.424999999999997      12.149999999999999
  3537   1      32.399999999999999      32.399999999999999      16.199999999999999
  3538   1      32.399999999999999      34.424999999999997      18.224999999999998
  3539   1      34.424999999999997      32.399999999999999      18.224999999999998
  3540   1      34.424999999999997      34.424999999999997      16.199999999999999
  3541   1      32.399999999999999      32.399999999999999                   20.25
  3542   1      32.399999999999999      34.424999999999997      22.274999999999999
  3543   1      34.424999999999997      32.399999999999999      22.274999999999999
  3544   1      34.424999999999997      34.424999999999997                   20.25
  3545   1      32.399999999999999      32.399999999999999      24.299999999999997
  3546   1      32.399999999999999      34.424999999999997      26.324999999999996
  3547   1      34.424999999999997      32.399999999999999      26.324999999999996
  3548   1      34.424999999999997      34.424999999999997      24.299999999999997
  3549   1      32.399999999999999      32.399999999999999      28.349999999999998
  3550   1      32.399999999999999      34.424999999999997      30.374999999999996
  3551   1      34.424999999999997      32.399999999999999      30.374999999999996
  3552   1      34.424999999999997      34.424999999999997      28.349999999999998
  3553   1      32.399999999999999      32.399999999999999      32.399999999999999
  3554   1      32.399999999999999      34.424999999999997      34.424999999999997
  3555   1      34.424999999999997      32.399999999999999      34.424999999999997
  3556   1      34.424999999999997      34.424999999999997      32.399999999999999
  3557   1      32.399999999999999      32.399999999999999      36.449999999999996
  3558   1      32.399999999999999      34.424999999999997      38.474999999999994
  3559   1      34.424999999999997      32.399999999999999      38.474999999999994
  3560   1      34.424999999999997      34.424999999999997      36.449999999999996
  3561   1      32.399999999999999      36.449999999999996                       0
  3562   1      32.399999999999999      38.474999999999994      2.0249999999999999
  3563   1      34.424999999999997      36.449999999999996      2.0249999999999999
  3564   1      34.424999999999997      38.474999999999994                       0
  3565   1      32.399999999999999      36.449999999999996      4.0499999999999998
  3566   1      32.399999999999999      38.474999999999994      6.0749999999999993
  3567   1      34.424999999999997      36.449999999999996      6.0749999999999993
  3568   1      34.424999999999997      38.474999999999994      4.0499999999999998
  3569   1      32.399999999999999      36.449999999999996      8.0999999999999996
  3570   1      32.399999999999999      38.474999999999994                  10.125
  3571   1      34.424999999999997      36.449999999999996                  10.125
  3572   1      34.424999999999997      38.474999999999994      8.0999999999999996
  3573   1      32.399999999999999      36.449999999999996      12.149999999999999
  3574   1      32.399999999999999      38.474999999999994      14.174999999999999
  3575   1      34.424999999999997      36.449999999999996      14.174999999999999
  3576   1      34.424999999999997      38.474999999999994      12.149999999999999
  3577   1      32.399999999999999      36.449999999999996      16.199999999999999
  3578   1      32.399999999999999      38.474999999999994      18.224999999999998
  3579   1      34.424999999999997      36.449999999999996      18.224999999999998
  3580   1      34.424999999999997      38.474999999999994      16.199999999999999
  3581   1      32.399999999999999      36.449999999999996                   20.25
  3582   1      32.399999999999999      38.474999999999994      22.274999999999999
  3583   1      34.424999999999997      36.449999999999996      22.274999999999999
  3584   1      34.424999999999997      38.474999999999994                   20.25
  3585   1      32.399999999999999      36.449999999999996      24.299999999999997
  3586   1      32.399999999999999      38.474999999999994      26.324999999999996
  3587   1      34.424999999999997      36.449999999999996      26.324999999999996
  3588   1      34.424999999999997      38.474999999999994      24.299999999999997
  3589   1      32.399999999999999      36.449999999999996      28.349999999999998
  3590   1      32.399999999999999      38.474999999999994      30.374999999999996
  3591   1      34.424999999999997      36.449999999999996      30.374999999999996
  3592   1      34.424999999999997      38.474999999999994      28.349999999999998
  3593   1      32.399999999999999      36.449999999999996      32.399999999999999
  3594   1      32.399999999999999      38.474999999999994      34.424999999999997
  3595   1      34.424999999999997      36.449999999999996      34.424999999999997
  3596   1      34.424999999999997      38.474999999999994      32.399999999999999
  3597   1      32.399999999999999      36.449999999999996      36.449999999999996
  3598   1      32.399999999999999      38.474999999999994      38.474999999999994
  3599   1      34.424999999999997      36.449999999999996      38.474999999999994
  3600   1      34.424999999999997      38.474999999999994      36.449999999999996
  3601   1      36.449999999999996                       0                       0
  3602   1      36.449999999999996      2.0249999999999999      2.0249999999999999
  3603   1      38.474999999999994                       0      2.0249999999999999
  3604   1      38.474999999999994      2.0249999999999999                       0
  3605   1      36.449999999999996                       0      4.0499999999999998
  3606   1      36.449999999999996      2.0249999999999999      6.0749999999999993
  3607   1      38.474999999999994                       0      6.0749999999999993
  3608   1      38.474999999999994      2.0249999999999999      4.0499999999999998
  3609   1      36.449999999999996                       0      8.0999999999999996
  3610   1      36.449999999999996      2.0249999999999999                  10.125
  3611   1      38.474999999999994                       0                  10.125
  3612   1      38.474999999999994      2.0249999999999999      8.0999999999999996
  3613   1      36.449999999999996                       0      12.149999999999999
  3614   1      36.449999999999996      2.0249999999999999      14.174999999999999
  3615   1      38.474999999999994                       0      14.174999999999999
  3616   1      38.474999999999994      2.0249999999999999      12.149999999999999
  3617   1      36.449999999999996                       0      16.199999999999999
  3618   1      36.449999999999996      2.0249999999999999      18.224999999999998
  3619   1      38.474999999999994                       0      18.224999999999998
  3620   1      38.474999999999994      2.0249999999999999      16.199999999999999
  3621   1      36.449999999999996                       0                   20.25
  3622   1      36.449999999999996      2.0249999999999999      22.274999999999999
  3623   1      38.474999999999994                       0      22.274999999999999
  3624   1      38.474999999999994      2.0249999999999999                   20.25
  3625   1      36.449999999999996                       0      24.299999999999997
  3626   1      36.449999999999996      2.0249999999999999      26.324999999999996
  3627   1      38.474999999999994                       0      26.324999999999996
  3628   1      38.474999999999994      2.0249999999999999      24.299999999999997
  3629   1      36.449999999999996                       0      28.349999999999998
  3630   1      36.449999999999996      2.0249999999999999      30.374999999999996
  3631   1      38.474999999999994                       0      30.374999999999996
  3632   1      38.474999999999994      2.0249999999999999      28.349999999999998
  3633   1      36.449999999999996                       0      32.399999999999999
  3634   1      36.449999999999996      2.0249999999999999      34.424999999999997
  3635   1      38.474999999999994                       0      34.424999999999997
  3636   1      38.474999999999994      2.0249999999999999      32.399999999999999
  3637   1      36.449999999999996                       0      36.449999999999996
  3638   1      36.449999999999996      2.0249999999999999      38.474999999999994
  3639   1      38.474999999999994                       0      38.474999999999994
  3640   1      38.474999999999994      2.0249999999999999      36.449999999999996
  3641   1      36.449999999999996      4.0499999999999998                       0
  3642   1      36.449999999999996      6.0749999999999993      2.0249999999999999
  3643   1      38.474999999999994      4.0499999999999998      2.0249999999999999
  3644   1      38.474999999999994      6.0749999999999993                       0
  3645   1      36.449999999999996      4.0499999999999998      4.0499999999999998
  3646   1      36.449999999999996      6.0749999999999993      6.0749999999999993
  3647   1      38.474999999999994      4.0499999999999998      6.0749999999999993
  3648   1      38.474999999999994      6.0749999999999993      4.0499999999999998
  3649   1      36.449999999999996      4.0499999999999998      8.0999999999999996
  3650   1      36.449999999999996      6.0749999999999993                  10.125
  3651   1      38.474999999999994      4.0499999999999998                  10.125
  3652   1      38.474999999999994      6.0749999999999993      8.0999999999999996
  3653   1      36.449999999999996      4.0499999999999998      12.149999999999999
  3654   1      36.449999999999996      6.0749999999999993      14.174999999999999
  3655   1      38.474999999999994      4.0499999999999998      14.174999999999999
  3656   1      38.474999999999994      6.0749999999999993      12.149999999999999
  3657   1      36.449999999999996      4.0499999999999998      16.199999999999999
  3658   1      36.449999999999996      6.0749999999999993      18.224999999999998
  3659   1      38.474999999999994      4.0499999999999998      18.224999999999998
  3660   1      38.474999999999994      6.0749999999999993      16.199999999999999
  3661   1      36.449999999999996      4.0499999999999998                   20.25
  3662   1      36.449999999999996      6.0749999999999993      22.274999999999999
  3663   1      38.474999999999994      4.0499999999999998      22.274999999999999
  3664   1      38.474999999999994      6.0749999999999993                   20.25
  3665   1      36.449999999999996      4.0499999999999998      24.299999999999997
  3666   1      36.449999999999996      6.0749999999999993      26.324999999999996
  3667   1      38.474999999999994      4.0499999999999998      26.324999999999996
  3668   1      38.474999999999994      6.0749999999999993      24.299999999999997
  3669   1      36.449999999999996      4.0499999999999998      28.349999999999998
  3670   1      36.449999999999996      6.0749999999999993      30.374999999999996
  3671   1      38.474999999999994      4.0499999999999998      30.374999999999996
  3672   1      38.474999999999994      6.0749999999999993      28.349999999999998
  3673   1      36.449999999999996      4.0499999999999998      32.399999999999999
  3674   1      36.449999999999996      6.0749999999999993      34.424999999999997
  3675   1      38.474999999999994      4.0499999999999998      34.424999999999997
  3676   1      38.474999999999994      6.0749999999999993      32.399999999999999
  3677   1      36.449999999999996      4.0499999999999998      36.449999999999996
  3678   1      36.449999999999996      6.0749999999999993      38.474999999999994
  3679   1      38.474999999999994      4.0499999999999998      38.474999999999994
  3680   1      38.474999999999994      6.0749999999999993      36.449999999999996
  3681   1      36.449999999999996      8.0999999999999996                       0
  3682   1      36.449999999999996                  10.125      2.0249999999999999
  3683   1      38.474999999999994      8.0999999999999996      2.0249999999999999
  3684   1      38.474999999999994                  10.125                       0
  3685   1      36.449999999999996      8.0999999999999996      4.0499999999999998
  3686   1      36.449999999999996                  10.125      6.0749999999999993
  3687   1      38.474999999999994      8.0999999999999996      6.0749999999999993
  3688   1      38.474999999999994                  10.125      4.0499999999999998
  3689   1      36.449999999999996      8.0999999999999996      8.0999999999999996
  3690   1      36.449999999999996                  10.125                  10.125
  3691   1      38.474999999999994      8.0999999999999996                  10.125
  3692   1      38.474999999999994                  10.125      8.0999999999999996
  3693   1      36.449999999999996      8.0999999999999996      12.149999999999999
  3694   1      36.449999999999996                  10.125      14.174999999999999
  3695   1      38.474999999999994      8.0999999999999996      14.174999999999999
  3696   1      38.474999999999994                  10.125      12.149999999999999
  3697   1      36.449999999999996      8.0999999999999996      16.199999999999999
  3698   1      36.449999999999996                  10.125      18.224999999999998
  3699   1      38.474999999999994      8.0999999999999996      18.224999999999998
  3700   1      38.474999999999994                  10.125      16.199999999999999
  3701   1      36.449999999999996      8.0999999999999996                   20.25
  3702   1      36.449999999999996                  10.125      22.274999999999999
  3703   1      38.474999999999994      8.0999999999999996      22.274999999999999
  3704   1      38.474999999999994                  10.125                   20.25
  3705   1      36.449999999999996      8.0999999999999996      24.299999999999997
  3706   1      36.449999999999996                  10.125      26.324999999999996
  3707   1      38.474999999999994      8.0999999999999996      26.324999999999996
  3708   1      38.474999999999994                  10.125      24.299999999999997
  3709   1      36.449999999999996      8.0999999999999996      28.349999999999998
  3710   1      36.449999999999996                  10.125      30.374999999999996
  3711   1      38.474999999999994      8.0999999999999996      30.374999999999996
  3712   1      38.474999999999994                  10.125      28.349999999999998
  3713   1      36.449999999999996      8.0999999999999996      32.399999999999999
  3714   1      36.449999999999996                  10.125      34.424999999999997
  3715   1      38.474999999999994      8.0999999999999996      34.424999999999997
  3716   1      38.474999999999994                  10.125      32.399999999999999
  3717   1      36.449999999999996      8.0999999999999996      36.449999999999996
  3718   1      36.449999999999996                  10.125      38.474999999999994
  3719   1      38.474999999999994      8.0999999999999996      38.474999999999994
  3720   1      38.474999999999994                  10.125      36.449999999999996
  3721   1      36.449999999999996      12.149999999999999                       0
  3722   1      36.449999999999996      14.174999999999999      2.0249999999999999
  3723   1      38.474999999999994      12.149999999999999      2.0249999999999999
  3724   1      38.474999999999994      14.174999999999999                       0
  3725   1      36.449999999999996      12.149999999999999      4.0499999999999998
  3726   1      36.449999999999996      14.174999999999999      6.0749999999999993
  3727   1      38.474999999999994      12.149999999999999      6.0749999999999993
  3728   1      38.474999999999994      14.174999999999999      4.0499999999999998
  3729   1      36.449999999999996      12.149999999999999      8.0999999999999996
  3730   1      36.449999999999996      14.174999999999999                  10.125
  3731   1      38.474999999999994      12.149999999999999                  10.125
  3732   1      38.474999999999994      14.174999999999999      8.0999999999999996
  3733   1      36.449999999999996      12.149999999999999      12.149999999999999
  3734   1      36.449999999999996      14.174999999999999      14.174999999999999
  3735   1      38.474999999999994      12.149999999999999      14.174999999999999
  3736   1      38.474999999999994      14.174999999999999      12.149999999999999
  3737   1      36.449999999999996      12.149999999999999      16.199999999999999
  3738   1      36.449999999999996      14.174999999999999      18.224999999999998
  3739   1      38.474999999999994      12.149999999999999      18.224999999999998
  3740   1      38.474999999999994      14.174999999999999      16.199999999999999
  3741   1      36.449999999999996      12.149999999999999                   20.25
  3742   1      36.449999999999996      14.174999999999999      22.274999999999999
  3743   1      38.474999999999994      12.149999999999999      22.274999999999999
  3744   1      38.474999999999994      14.174999999999999                   20.25
  3745   1      36.449999999999996      12.149999999999999      24.299999999999997
  3746   1      36.449999999999996      14.174999999999999      26.324999999999996
  3747   1      38.474999999999994      12.149999999999999      26.324999999999996
  3748   1      38.474999999999994      14.174999999999999      24.299999999999997
  3749   1      36.449999999999996      12.149999999999999      28.349999999999998
  3750   1      36.449999999999996      14.174999999999999      30.374999999999996
  3751   1      38.474999999999994      12.149999999999999      30.374999999999996
  3752   1      38.474999999999994      14.174999999999999      28.349999999999998
  3753   1      36.449999999999996      12.149999999999999      32.399999999999999
  3754   1      36.449999999999996      14.174999999999999      34.424999999999997
  3755   1      38.474999999999994      12.149999999999999      34.424999999999997
  3756   1      38.474999999999994      14.174999999999999      32.399999999999999
  3757   1      36.449999999999996      12.149999999999999      36.449999999999996
  3758   1      36.449999999999996      14.174999999999999      38.474999999999994
  3759   1      38.474999999999994      12.149999999999999      38.474999999999994
  3760   1      38.474999999999994      14.174999999999999      36.449999999999996
  3761   1      36.449999999999996      16.199999999999999                       0
  3762   1      36.449999999999996      18.224999999999998      2.0249999999999999
  3763   1      38.474999999999994      16.199999999999999      2.0249999999999999
  3764   1      38.474999999999994      18.224999999999998                       0
  3765   1      36.449999999999996      16.199999999999999      4.0499999999999998
  3766   1      36.449999999999996      18.224999999999998      6.0749999999999993
  3767   1      38.474999999999994      16.199999999999999      6.0749999999999993
  3768   1      38.474999999999994      18.224999999999998      4.0499999999999998
  3769   1      36.449999999999996      16.199999999999999      8.0999999999999996
  3770   1      36.449999999999996      18.224999999999998                  10.125
  3771   1      38.474999999999994      16.199999999999999                  10.125
  3772   1      38.474999999999994      18.224999999999998      8.0999999999999996
  3773   1      36.449999999999996      16.199999999999999      12.149999999999999
  3774   1      36.449999999999996      18.224999999999998      14.174999999999999
  3775   1      38.474999999999994      16.199999999999999      14.174999999999999
  3776   1      38.474999999999994      18.224999999999998      12.149999999999999
  3777   1      36.449999999999996      16.199999999999999      16.199999999999999
  3778   1      36.449999999999996      18.224999999999998      18.224999999999998
  3779   1      38.474999999999994      16.199999999999999      18.224999999999998
  3780   1      38.474999999999994      18.224999999999998      16.199999999999999
  3781   1      36.449999999999996      16.199999999999999                   20.25
  3782   1      36.449999999999996      18.224999999999998      22.274999999999999
  3783   1      38.474999999999994      16.199999999999999      22.274999999999999
  3784   1      38.474999999999994      18.224999999999998                   20.25
  3785   1      36.449999999999996      16.199999999999999      24.299999999999997
  3786   1      36.449999999999996      18.224999999999998      26.324999999999996
  3787   1      38.474999999999994      16.199999999999999      26.324999999999996
  3788   1      38.474999999999994      18.224999999999998      24.299999999999997
  3789   1      36.449999999999996      16.199999999999999      28.349999999999998
  3790   1      36.449999999999996      18.224999999999998      30.374999999999996
  3791   1      38.474999999999994      16.199999999999999      30.374999999999996
  3792   1      38.474999999999994      18.224999999999998      28.349999999999998
  3793   1      36.449999999999996      16.199999999999999      32.399999999999999
  3794   1      36.449999999999996      18.224999999999998      34.424999999999997
  3795   1      38.474999999999994      16.199999999999999      34.424999999999997
  3796   1      38.474999999999994      18.224999999999998      32.399999999999999
  3797   1      36.449999999999996      16.199999999999999      36.449999999999996
  3798   1      36.449999999999996      18.224999999999998      38.474999999999994
  3799   1      38.474999999999994      16.199999999999999      38.474999999999994
  3800   1      38.474999999999994      18.224999999999998      36.449999999999996
  3801   1      36.449999999999996                   20.25                       0
  3802   1      36.449999999999996      22.274999999999999      2.0249999999999999
  3803   1      38.474999999999994                   20.25      2.0249999999999999
  3804   1      38.474999999999994      22.274999999999999                       0
  3805   1      36.449999999999996                   20.25      4.0499999999999998
  3806   1      36.449999999999996      22.274999999999999      6.0749999999999993
  3807   1      38.474999999999994                   20.25      6.0749999999999993
  3808   1      38.474999999999994      22.274999999999999      4.0499999999999998
  3809   1      36.449999999999996                   20.25      8.0999999999999996
  3810   1      36.449999999999996      22.274999999999999                  10.125
  3811   1      38.474999999999994                   20.25                  10.125
  3812   1      38.474999999999994      22.274999999999999      8.0999999999999996
  3813   1      36.449999999999996                   20.25      12.149999999999999
  3814   1      36.449999999999996      22.274999999999999      14.174999999999999
  3815   1      38.474999999999994                   20.25      14.174999999999999
  3816   1      38.474999999999994      22.274999999999999      12.149999999999999
  3817   1      36.449999999999996                   20.25      16.199999999999999
  3818   1      36.449999999999996      22.274999999999999      18.224999999999998
  3819   1      38.474999999999994                   20.25      18.224999999999998
  3820   1      38.474999999999994      22.274999999999999      16.199999999999999
  3821   1      36.449999999999996                   20.25                   20.25
  3822   1      36.449999999999996      22.274999999999999      22.274999999999999
  3823   1      38.474999999999994                   20.25      22.274999999999999
  3824   1      38.474999999999994      22.274999999999999                   20.25
  3825   1      36.449999999999996                   20.25      24.299999999999997
  3826   1      36.449999999999996      22.274999999999999      26.324999999999996
  3827   1      38.474999999999994                   20.25      26.324999999999996
  3828   1      38.474999999999994      22.274999999999999      24.299999999999997
  3829   1      36.449999999999996                   20.25      28.349999999999998
  3830   1      36.449999999999996      22.274999999999999      30.374999999999996
  3831   1      38.474999999999994                   20.25      30.374999999999996
  3832   1      38.474999999999994      22.274999999999999      28.349999999999998
  3833   1      36.449999999999996                   20.25      32.399999999999999
  3834   1      36.449999999999996      22.274999999999999      34.424999999999997
  3835   1      38.474999999999994                   20.25      34.424999999999997
  3836   1      38.474999999999994      22.274999999999999      32.399999999999999
  3837   1      36.449999999999996                   20.25      36.449999999999996
  3838   1      36.449999999999996      22.274999999999999      38.474999999999994
  3839   1      38.474999999999994                   20.25      38.474999999999994
  3840   1      38.474999999999994      22.274999999999999      36.449999999999996
  3841   1      36.449999999999996      24.299999999999997                       0
  3842   1      36.449999999999996      26.324999999999996      2.0249999999999999
  3843   1      38.474999999999994      24.299999999999997      2.0249999999999999
  3844   1      38.474999999999994      26.324999999999996                       0
  3845   1      36.449999999999996      24.299999999999997      4.0499999999999998
  3846   1      36.449999999999996      26.324999999999996      6.0749999999999993
  3847   1      38.474999999999994      24.299999999999997      6.0749999999999993
  3848   1      38.474999999999994      26.324999999999996      4.0499999999999998
  3849   1      36.449999999999996      24.299999999999997      8.0999999999999996
  3850   1      36.449999999999996      26.324999999999996                  10.125
  3851   1      38.474999999999994      24.299999999999997                  10.125
  3852   1      38.474999999999994      26.324999999999996      8.0999999999999996
  3853   1      36.449999999999996      24.299999999999997      12.149999999999999
  3854   1      36.449999999999996      26.324999999999996      14.174999999999999
  3855   1      38.474999999999994      24.299999999999997      14.174999999999999
  3856   1      38.474999999999994      26.324999999999996      12.149999999999999
  3857   1      36.449999999999996      24.299999999999997      16.199999999999999
  3858   1      36.449999999999996      26.324999999999996      18.224999999999998
  3859   1      38.474999999999994      24.299999999999997      18.224999999999998
  3860   1      38.474999999999994      26.324999999999996      16.199999999999999
  3861   1      36.449999999999996      24.299999999999997                   20.25
  3862   1      36.449999999999996      26.324999999999996      22.274999999999999
  3863   1      38.474999999999994      24.299999999999997      22.274999999999999
  3864   1      38.474999999999994      26.324999999999996                   20.25
  3865   1      36.449999999999996      24.299999999999997      24.299999999999997
  3866   1      36.449999999999996      26.324999999999996      26.324999999999996
  3867   1      38.474999999999994      24.299999999999997      26.324999999999996
  3868   1      38.474999999999994      26.324999999999996      24.299999999999997
  3869   1      36.449999999999996      24.299999999999997      28.349999999999998
  3870   1      36.449999999999996      26.324999999999996      30.374999999999996
  3871   1      38.474999999999994      24.299999999999997      30.374999999999996
  3872   1      38.474999999999994      26.324999999999996      28.349999999999998
  3873   1      36.449999999999996      24.299999999999997      32.399999999999999
  3874   1      36.449999999999996      26.324999999999996      34.424999999999997
  3875   1      38.474999999999994      24.299999999999997      34.424999999999997
  3876   1      38.474999999999994      26.324999999999996      32.399999999999999
  3877   1      36.449999999999996      24.299999999999997      36.449999999999996
  3878   1      36.449999999999996      26.324999999999996      38.474999999999994
  3879   1      38.474999999999994      24.299999999999997      38.474999999999994
  3880   1      38.474999999999994      26.324999999999996      36.449999999999996
  3881   1      36.449999999999996      28.349999999999998                       0
  3882   1      36.449999999999996      30.374999999999996      2.0249999999999999
  3883   1      38.474999999999994      28.349999999999998      2.0249999999999999
  3884   1      38.474999999999994      30.374999999999996                       0
  3885   1      36.449999999999996      28.349999999999998      4.0499999999999998
  3886   1      36.449999999999996      30.374999999999996      6.0749999999999993
  3887   1      38.474999999999994      28.349999999999998      6.0749999999999993
  3888   1      38.474999999999994      30.374999999999996      4.0499999999999998
  3889   1      36.449999999999996      28.349999999999998      8.0999999999999996
  3890   1      36.449999999999996      30.374999999999996                  10.125
  3891   1      38.474999999999994      28.349999999999998                  10.125
  3892   1      38.474999999999994      30.374999999999996      8.0999999999999996
  3893   1      36.449999999999996      28.349999999999998      12.149999999999999
  3894   1      36.449999999999996      30.374999999999996      14.174999999999999
  3895   1      38.474999999999994      28.349999999999998      14.174999999999999
  3896   1      38.474999999999994      30.374999999999996      12.149999999999999
  3897   1      36.449999999999996      28.349999999999998      16.199999999999999
  3898   1      36.449999999999996      30.374999999999996      18.224999999999998
  3899   1      38.474999999999994      28.349999999999998      18.224999999999998
  3900   1      38.474999999999994      30.374999999999996      16.199999999999999
  3901   1      36.449999999999996      28.349999999999998                   20.25
  3902   1      36.449999999999996      30.374999999999996      22.274999999999999
  3903   1      38.474999999999994      28.349999999999998      22.274999999999999
  3904   1      38.474999999999994      30.374999999999996                   20.25
  3905   1      36.449999999999996      28.349999999999998      24.299999999999997
  3906   1      36.449999999999996      30.374999999999996      26.324999999999996
  3907   1      38.474999999999994      28.349999999999998      26.324999999999996
  3908   1      38.474999999999994      30.374999999999996      24.299999999999997
  3909   1      36.449999999999996      28.349999999999998      28.349999999999998
  3910   1      36.449999999999996      30.374999999999996      30.374999999999996
  3911   1      38.474999999999994      28.349999999999998      30.374999999999996
  3912   1      38.474999999999994      30.374999999999996      28.349999999999998
  3913   1      36.449999999999996      28.349999999999998      32.399999999999999
  3914   1      36.449999999999996      30.374999999999996      34.424999999999997
  3915   1      38.474999999999994      28.349999999999998      34.424999999999997
  3916   1      38.474999999999994      30.374999999999996      32.399999999999999
  3917   1      36.449999999999996      28.349999999999998      36.449999999999996
  3918   1      36.449999999999996      30.374999999999996      38.474999999999994
  3919   1      38.474999999999994      28.349999999999998      38.474999999999994
  3920   1      38.474999999999994      30.374999999999996      36.449999999999996
  3921   1      36.449999999999996      32.399999999999999                       0
  3922   1      36.449999999999996      34.424999999999997      2.0249999999999999
  3923   1      38.474999999999994      32.399999999999999      2.0249999999999999
  3924   1      38.474999999999994      34.424999999999997                       0
  3925   1      36.449999999999996      32.399999999999999      4.0499999999999998
  3926   1      36.449999999999996      34.424999999999997      6.0749999999999993
  3927   1      38.474999999999994      32.399999999999999      6.0749999999999993
  3928   1      38.474999999999994      34.424999999999997      4.0499999999999998
  3929   1      36.449999999999996      32.399999999999999      8.0999999999999996
  3930   1      36.449999999999996      34.424999999999997                  10.125
  3931   1      38.474999999999994      32.399999999999999                  10.125
  3932   1      38.474999999999994      34.424999999999997      8.0999999999999996
  3933   1      36.449999999999996      32.399999999999999      12.149999999999999
  3934   1      36.449999999999996      34.424999999999997      14.174999999999999
  3935   1      38.474999999999994      32.399999999999999      14.174999999999999
  3936   1      38.474999999999994      34.424999999999997      12.149999999999999
  3937   1      36.449999999999996      32.399999999999999      16.199999999999999
  3938   1      36.449999999999996      34.424999999999997      18.224999999999998
  3939   1      38.474999999999994      32.399999999999999      18.224999999999998
  3940   1      38.474999999999994      34.424999999999997      16.199999999999999
  3941   1      36.449999999999996      32.399999999999999                   20.25
  3942   1      36.449999999999996      34.424999999999997      22.274999999999999
  3943   1      38.474999999999994      32.399999999999999      22.274999999999999
  3944   1      38.474999999999994      34.424999999999997                   20.25
  3945   1      36.449999999999996      32.399999999999999      24.299999999999997
  3946   1      36.449999999999996      34.424999999999997      26.324999999999996
  3947   1      38.474999999999994      32.399999999999999      26.324999999999996
  3948   1      38.474999999999994      34.424999999999997      24.299999999999997
  3949   1      36.449999999999996      32.399999999999999      28.349999999999998
  3950   1      36.449999999999996      34.424999999999997      30.374999999999996
  3951   1      38.474999999999994      32.399999999999999      30.374999999999996
  3952   1      38.474999999999994      34.424999999999997      28.349999999999998
  3953   1      36.449999999999996      32.399999999999999      32.399999999999999
  3954   1      36.449999999999996      34.424999999999997      34.424999999999997
  3955   1      38.474999999999994      32.399999999999999      34.424999999999997
  3956   1      38.474999999999994      34.424999999999997      32.399999999999999
  3957   1      36.449999999999996      32.399999999999999      36.449999999999996
  3958   1      36.449999999999996      34.424999999999997      38.474999999999994
  3959   1      38.474999999999994      32.399999999999999      38.474999999999994
  3960   1      38.474999999999994      34.424999999999997      36.449999999999996
  3961   1      36.449999999999996      36.449999999999996                       0
  3962   1      36.449999999999996      38.474999999999994      2.0249999999999999
  3963   1      38.474999999999994      36.449999999999996      2.0249999999999999
  3964   1      38.474999999999994      38.474999999999994                       0
  3965   1      36.449999999999996      36.449999999999996      4.0499999999999998
  3966   1      36.449999999999996      38.474999999999994      6.0749999999999993
  3967   1      38.474999999999994      36.449999999999996      6.0749999999999993
  3968   1      38.474999999999994      38.474999999999994      4.0499999999999998
  3969   1      36.449999999999996      36.449999999999996      8.0999999999999996
  3970   1      36.449999999999996      38.474999999999994                  10.125
  3971   1      38.474999999999994      36.449999999999996                  10.125
  3972   1      38.474999999999994      38.474999999999994      8.0999999999999996
  3973   1      36.449999999999996      36.449999999999996      12.149999999999999
  3974   1      36.449999999999996      38.474999999999994      14.174999999999999
  3975   1      38.474999999999994      36.449999999999996      14.174999999999999
  3976   1      38.474999999999994      38.474999999999994      12.149999999999999
  3977   1      36.449999999999996      36.449999999999996      16.199999999999999
  3978   1      36.449999999999996      38.474999999999994      18.224999999999998
  3979   1      38.474999999999994      36.449999999999996      18.224999999999998
  3980   1      38.474999999999994      38.474999999999994      16.199999999999999
  3981   1      36.449999999999996      36.449999999999996                   20.25
  3982   1      36.449999999999996      38.474999999999994      22.274999999999999
  3983   1      38.474999999999994      36.449999999999996      22.274999999999999
  3984   1      38.474999999999994      38.474999999999994                   20.25
  3985   1      36.449999999999996      36.449999999999996      24.299999999999997
  3986   1      36.449999999999996      38.474999999999994      26.324999999999996
  3987   1      38.474999999999994      36.449999999999996      26.324999999999996
  3988   1      38.474999999999994      38.474999999999994      24.299999999999997
  3989   1      36.449999999999996      36.449999999999996      28.349999999999998
  3990   1      36.449999999999996      38.474999999999994      30.374999999999996
  3991   1      38.474999999999994      36.449999999999996      30.374999999999996
  3992   1      38.474999999999994      38.474999999999994      28.349999999999998
  3993   1      36.449999999999996      36.449999999999996      32.399999999999999
  3994   1      36.449999999999996      38.474999999999994      34.424999999999997
  3995   1      38.474999999999994      36.449999999999996      34.424999999999997
  3996   1      38.474999999999994      38.474999999999994      32.399999999999999
  3997   1      36.449999999999996      36.449999999999996      36.449999999999996
  3998   1      36.449999999999996      38.474999999999994      38.474999999999994
  3999   1      38.474999999999994      36.449999999999996      38.474999999999994
  4000   1      38.474999999999994      38.474999999999994      36.449999999999996
